!Created with skrf (http://scikit-rf.org).
# GHz S RI R 50.0 
!freq ReS11 ImS11 ReS21 ImS21 ReS12 ImS12 ReS22 ImS22
0.001 1.0047054290771484 -0.02439310774207115 -4.129484295845032e-06 -1.696404069662094e-05 0.0 0.0 0.0 0.0
0.002 0.9986338019371033 -0.046768900007009506 -3.3192336559295654e-06 -4.568137228488922e-06 0.0 0.0 0.0 0.0
0.003 0.9971495866775513 -0.07057108730077744 6.288290023803711e-06 6.8051740527153015e-06 0.0 0.0 0.0 0.0
0.004 0.9949222803115845 -0.09289675205945969 5.786307156085968e-06 1.42659991979599e-05 0.0 0.0 0.0 0.0
0.005 0.991921067237854 -0.11451505124568939 8.666887879371643e-06 7.701106369495392e-06 0.0 0.0 0.0 0.0
0.006 0.9890745878219604 -0.13790595531463623 -2.4444423615932465e-05 -1.888629049062729e-05 0.0 0.0 0.0 0.0
0.007 0.9852490425109863 -0.15961480140686035 2.7939677238464355e-08 1.2658536434173584e-05 0.0 0.0 0.0 0.0
0.008 0.9813843369483948 -0.18158230185508728 6.874091923236847e-06 -4.408881068229675e-06 0.0 0.0 0.0 0.0
0.009 0.9778145551681519 -0.20358015596866608 4.753470420837402e-06 -9.915791451931e-06 0.0 0.0 0.0 0.0
0.01 0.9724876284599304 -0.2254415899515152 1.5779398381710052e-05 8.557923138141632e-06 0.0 0.0 0.0 0.0
0.011 0.9664953351020813 -0.2471037358045578 8.137896656990051e-06 2.962537109851837e-06 0.0 0.0 0.0 0.0
0.012 0.9614827632904053 -0.269032746553421 -1.2996606528759003e-05 1.3504177331924438e-05 0.0 0.0 0.0 0.0
0.013 0.9554934501647949 -0.29088979959487915 -1.3249926269054413e-05 -4.628673195838928e-06 0.0 0.0 0.0 0.0
0.014 0.9493708610534668 -0.31266236305236816 4.336237907409668e-06 3.939494490623474e-07 0.0 0.0 0.0 0.0
0.015 0.9419543743133545 -0.33421680331230164 -3.520119935274124e-05 4.934147000312805e-06 0.0 0.0 0.0 0.0
0.016 0.9340790510177612 -0.355326771736145 -1.6684643924236298e-05 8.909963071346283e-06 0.0 0.0 0.0 0.0
0.017 0.9258702397346497 -0.37603333592414856 1.3513490557670593e-06 2.8619542717933655e-06 0.0 0.0 0.0 0.0
0.018 0.9173151850700378 -0.3970283269882202 7.68899917602539e-06 1.8289312720298767e-05 0.0 0.0 0.0 0.0
0.019 0.9089970588684082 -0.41726604104042053 -8.380971848964691e-06 8.87364149093628e-06 0.0 0.0 0.0 0.0
0.02 0.8991618156433105 -0.43744298815727234 1.8374994397163391e-06 3.137625753879547e-06 0.0 0.0 0.0 0.0
0.021 0.8890928030014038 -0.4578540027141571 9.92603600025177e-06 -8.419156074523926e-07 0.0 0.0 0.0 0.0
0.022 0.879159152507782 -0.4769185185432434 8.296221494674683e-06 -1.3142824172973633e-05 0.0 0.0 0.0 0.0
0.023 0.8683207631111145 -0.4974314570426941 -7.787719368934631e-06 2.53971666097641e-05 0.0 0.0 0.0 0.0
0.024 0.8566277027130127 -0.5167490839958191 2.356618642807007e-05 -1.0579824447631836e-06 0.0 0.0 0.0 0.0
0.025 0.8457125425338745 -0.5358191728591919 3.337860107421875e-06 2.8740614652633667e-06 0.0 0.0 0.0 0.0
0.026 0.8336358070373535 -0.5542973875999451 -6.737187504768372e-06 -1.3778917491436005e-05 0.0 0.0 0.0 0.0
0.027 0.8212903141975403 -0.5734672546386719 -1.526717096567154e-05 1.9055791199207306e-05 0.0 0.0 0.0 0.0
0.028 0.8089737296104431 -0.5916123390197754 -2.8330832719802856e-06 -1.6021542251110077e-05 0.0 0.0 0.0 0.0
0.029 0.796445906162262 -0.6092115044593811 -4.624947905540466e-06 -2.855435013771057e-06 0.0 0.0 0.0 0.0
0.03 0.7829610109329224 -0.6271030902862549 1.7770566046237946e-05 -5.1818788051605225e-06 0.0 0.0 0.0 0.0
0.031 0.7686076760292053 -0.6443697810173035 4.2477622628211975e-06 1.1706724762916565e-05 0.0 0.0 0.0 0.0
0.032 0.7547041177749634 -0.6612379550933838 8.976086974143982e-06 -5.443580448627472e-06 0.0 0.0 0.0 0.0
0.033 0.7401731610298157 -0.677568793296814 -8.147209882736206e-06 2.3348256945610046e-05 0.0 0.0 0.0 0.0
0.034 0.7257118821144104 -0.69388347864151 -2.7725473046302795e-06 4.0316954255104065e-06 0.0 0.0 0.0 0.0
0.035 0.7097365856170654 -0.7095423340797424 4.923902451992035e-06 -1.3169832527637482e-05 0.0 0.0 0.0 0.0
0.036 0.6944329738616943 -0.7252127528190613 2.9318034648895264e-06 1.19796022772789e-05 0.0 0.0 0.0 0.0
0.037 0.6783860921859741 -0.7414049506187439 -5.425885319709778e-06 3.74671071767807e-06 0.0 0.0 0.0 0.0
0.038 0.6627620458602905 -0.7557133436203003 3.6070123314857483e-06 -1.2855976819992065e-05 0.0 0.0 0.0 0.0
0.039 0.6467075943946838 -0.76986163854599 4.265457391738892e-06 3.948807716369629e-07 0.0 0.0 0.0 0.0
0.04 0.6300897598266602 -0.7842336893081665 8.645467460155487e-06 -1.2752600014209747e-05 0.0 0.0 0.0 0.0
0.041 0.6130911707878113 -0.7980647683143616 -1.0151416063308716e-06 2.4194829165935516e-05 0.0 0.0 0.0 0.0
0.042 0.5961726903915405 -0.8112581968307495 -3.213062882423401e-07 4.341825842857361e-06 0.0 0.0 0.0 0.0
0.043 0.5791682004928589 -0.8239578008651733 1.7969869077205658e-05 -1.4623627066612244e-05 0.0 0.0 0.0 0.0
0.044 0.5616008639335632 -0.8362846374511719 -1.3085082173347473e-06 -1.1504627764225006e-05 0.0 0.0 0.0 0.0
0.045 0.5438580513000488 -0.8482505083084106 2.5819987058639526e-05 -9.37003642320633e-06 0.0 0.0 0.0 0.0
0.046 0.5246127843856812 -0.860154390335083 -6.484799087047577e-06 -5.103647708892822e-07 0.0 0.0 0.0 0.0
0.047 0.5071099400520325 -0.8714991807937622 -1.5312805771827698e-05 1.5320256352424622e-06 0.0 0.0 0.0 0.0
0.048 0.48844635486602783 -0.8823970556259155 1.3168901205062866e-05 1.7201527953147888e-06 0.0 0.0 0.0 0.0
0.049 0.47013452649116516 -0.8932750821113586 1.4682300388813019e-05 2.04574316740036e-05 0.0 0.0 0.0 0.0
0.05 0.45160749554634094 -0.9035454392433167 4.97233122587204e-06 -5.641020834445953e-06 0.0 0.0 0.0 0.0
0.051 0.43242719769477844 -0.9133085012435913 3.302469849586487e-06 -1.6272999346256256e-05 0.0 0.0 0.0 0.0
0.052 0.4132901132106781 -0.9226166009902954 -1.5890225768089294e-05 5.003996193408966e-06 0.0 0.0 0.0 0.0
0.053 0.3945704400539398 -0.9309796690940857 8.218921720981598e-06 -7.568858563899994e-06 0.0 0.0 0.0 0.0
0.054 0.3751205801963806 -0.9394475817680359 -7.450580596923828e-07 1.0209158062934875e-05 0.0 0.0 0.0 0.0
0.055 0.35528576374053955 -0.9478415250778198 -1.749396324157715e-05 -9.668990969657898e-06 0.0 0.0 0.0 0.0
0.056 0.33610135316848755 -0.9550780653953552 7.094815373420715e-06 -9.898096323013306e-06 0.0 0.0 0.0 0.0
0.057 0.3163791298866272 -0.9625658392906189 8.094124495983124e-06 -6.200745701789856e-06 0.0 0.0 0.0 0.0
0.058 0.29693421721458435 -0.9695796966552734 -8.122064173221588e-06 6.552785634994507e-06 0.0 0.0 0.0 0.0
0.059 0.2764933407306671 -0.97576504945755 -3.1497329473495483e-06 -1.1166557669639587e-06 0.0 0.0 0.0 0.0
0.06 0.2563127279281616 -0.9814134836196899 1.3925135135650635e-05 -5.038455128669739e-07 0.0 0.0 0.0 0.0
0.061 0.23710934817790985 -0.987348735332489 -9.587965905666351e-06 -6.684102118015289e-06 0.0 0.0 0.0 0.0
0.062 0.2169487327337265 -0.9913802146911621 2.2520311176776886e-05 3.018416464328766e-06 0.0 0.0 0.0 0.0
0.063 0.19662512838840485 -0.9961946606636047 1.6470439732074738e-05 1.1818483471870422e-06 0.0 0.0 0.0 0.0
0.064 0.17666581273078918 -1.0004249811172485 1.085922122001648e-06 1.3923272490501404e-05 0.0 0.0 0.0 0.0
0.065 0.15613937377929688 -1.0048599243164062 5.395151674747467e-06 9.431503713130951e-06 0.0 0.0 0.0 0.0
0.066 0.1359022855758667 -1.0090548992156982 -1.434236764907837e-06 -1.6352161765098572e-05 0.0 0.0 0.0 0.0
0.067 0.1162383183836937 -1.0115069150924683 9.556300938129425e-06 -5.017034709453583e-06 0.0 0.0 0.0 0.0
0.068 0.09557175636291504 -1.0136058330535889 4.896894097328186e-06 -1.0960735380649567e-05 0.0 0.0 0.0 0.0
0.069 0.07531800866127014 -1.0158520936965942 -1.3704411685466766e-05 1.8059276044368744e-05 0.0 0.0 0.0 0.0
0.07 0.055053792893886566 -1.0184526443481445 -1.0336749255657196e-05 6.923452019691467e-06 0.0 0.0 0.0 0.0
0.071 0.035345569252967834 -1.0198276042938232 -7.4105337262153625e-06 4.262663424015045e-06 0.0 0.0 0.0 0.0
0.072 0.015135123394429684 -1.0207287073135376 -1.4062970876693726e-07 -2.328585833311081e-05 0.0 0.0 0.0 0.0
0.073 -0.005503774620592594 -1.0213924646377563 2.1413899958133698e-05 7.643364369869232e-06 0.0 0.0 0.0 0.0
0.074 -0.025564949959516525 -1.0224992036819458 1.5152618288993835e-06 -9.335577487945557e-06 0.0 0.0 0.0 0.0
0.075 -0.045719705522060394 -1.0223032236099243 -4.684552550315857e-06 -1.0244548320770264e-08 0.0 0.0 0.0 0.0
0.076 -0.06498049199581146 -1.0209622383117676 -4.59328293800354e-06 -2.4267472326755524e-05 0.0 0.0 0.0 0.0
0.077 -0.08495960384607315 -1.0201150178909302 5.224719643592834e-07 -3.6954879760742188e-06 0.0 0.0 0.0 0.0
0.078 -0.10502981394529343 -1.0189621448516846 -8.651986718177795e-06 4.259869456291199e-06 0.0 0.0 0.0 0.0
0.079 -0.12434414774179459 -1.0180271863937378 6.7604705691337585e-06 -2.2285617887973785e-05 0.0 0.0 0.0 0.0
0.08 -0.14462503790855408 -1.015078067779541 4.223547875881195e-06 -5.782581865787506e-06 0.0 0.0 0.0 0.0
0.081 -0.16369843482971191 -1.0125844478607178 2.148933708667755e-05 2.575572580099106e-05 0.0 0.0 0.0 0.0
0.082 -0.18317539989948273 -1.0094813108444214 1.0282732546329498e-05 -1.6557052731513977e-05 0.0 0.0 0.0 0.0
0.083 -0.20220525562763214 -1.0068823099136353 1.2381933629512787e-05 -1.1703930795192719e-05 0.0 0.0 0.0 0.0
0.084 -0.22226856648921967 -1.0038971900939941 1.073349267244339e-05 -1.0159797966480255e-05 0.0 0.0 0.0 0.0
0.085 -0.24083176255226135 -0.999381422996521 1.517031341791153e-05 -2.1122395992279053e-06 0.0 0.0 0.0 0.0
0.086 -0.2597661316394806 -0.9949057698249817 7.943250238895416e-06 7.385388016700745e-07 0.0 0.0 0.0 0.0
0.087 -0.2786431610584259 -0.9903071522712708 -1.216307282447815e-05 -1.5974044799804688e-05 0.0 0.0 0.0 0.0
0.088 -0.29779526591300964 -0.985356330871582 2.326536923646927e-05 8.093193173408508e-07 0.0 0.0 0.0 0.0
0.089 -0.31670787930488586 -0.9800351858139038 -1.3096258044242859e-05 -4.087574779987335e-06 0.0 0.0 0.0 0.0
0.09 -0.33515727519989014 -0.9741434454917908 -5.619600415229797e-06 -1.1414289474487305e-05 0.0 0.0 0.0 0.0
0.091 -0.3529202938079834 -0.9678152203559875 -8.367933332920074e-06 1.043081283569336e-05 0.0 0.0 0.0 0.0
0.092 -0.3721608519554138 -0.9623236060142517 -5.618669092655182e-06 1.7005018889904022e-05 0.0 0.0 0.0 0.0
0.093 -0.39013171195983887 -0.9555028676986694 4.210509359836578e-06 -1.4844350516796112e-05 0.0 0.0 0.0 0.0
0.094 -0.40853771567344666 -0.9489966630935669 8.46758484840393e-06 -1.1455267667770386e-06 0.0 0.0 0.0 0.0
0.095 -0.42608723044395447 -0.9411610960960388 -3.512948751449585e-06 1.4052726328372955e-05 0.0 0.0 0.0 0.0
0.096 -0.44327041506767273 -0.9326050877571106 2.197176218032837e-05 -1.9334256649017334e-06 0.0 0.0 0.0 0.0
0.097 -0.4613458812236786 -0.9256250858306885 1.150183379650116e-06 1.1038966476917267e-05 0.0 0.0 0.0 0.0
0.098 -0.4789443612098694 -0.9173699021339417 -2.972036600112915e-05 -8.124858140945435e-06 0.0 0.0 0.0 0.0
0.099 -0.49606454372406006 -0.9094703197479248 8.868984878063202e-06 4.604458808898926e-06 0.0 0.0 0.0 0.0
0.1 -0.5124808549880981 -0.9003446698188782 2.426840364933014e-05 -1.9511207938194275e-06 0.0 0.0 0.0 0.0
0.101 -0.5144577622413635 -0.8280524611473083 1.345854252576828e-05 -6.682239472866058e-06 0.0 0.0 0.0 0.0
0.102 -0.5290461182594299 -0.8188875913619995 9.710900485515594e-06 -2.470053732395172e-05 0.0 0.0 0.0 0.0
0.103 -0.5433489084243774 -0.809660792350769 -2.9727816581726074e-06 -1.4270655810832977e-05 0.0 0.0 0.0 0.0
0.104 -0.5576333403587341 -0.8003138303756714 4.163011908531189e-07 -2.097431570291519e-05 0.0 0.0 0.0 0.0
0.105 -0.570990264415741 -0.7905367612838745 -4.678964614868164e-06 -1.958664506673813e-05 0.0 0.0 0.0 0.0
0.106 -0.5848074555397034 -0.7807260751724243 1.2454576790332794e-05 3.0193477869033813e-06 0.0 0.0 0.0 0.0
0.107 -0.598101794719696 -0.7701594233512878 -7.71787017583847e-06 1.893565058708191e-05 0.0 0.0 0.0 0.0
0.108 -0.6112198233604431 -0.7615752220153809 -1.3888813555240631e-05 1.3630837202072144e-05 0.0 0.0 0.0 0.0
0.109 -0.6241023540496826 -0.7493547201156616 -5.877576768398285e-06 -3.4617260098457336e-06 0.0 0.0 0.0 0.0
0.11 -0.6364946961402893 -0.7385022640228271 1.1120922863483429e-05 1.4938414096832275e-05 0.0 0.0 0.0 0.0
0.111 -0.6496134400367737 -0.7279226779937744 3.2242387533187866e-06 -1.0523945093154907e-06 0.0 0.0 0.0 0.0
0.112 -0.6622664332389832 -0.7165642380714417 -1.5348196029663086e-06 -5.247071385383606e-06 0.0 0.0 0.0 0.0
0.113 -0.6740983128547668 -0.7052261829376221 2.062879502773285e-06 -1.8382444977760315e-05 0.0 0.0 0.0 0.0
0.114 -0.6863406300544739 -0.6936743259429932 -1.3015232980251312e-05 -1.0919757187366486e-05 0.0 0.0 0.0 0.0
0.115 -0.6982370615005493 -0.6820449829101562 1.2783333659172058e-05 -5.1390379667282104e-06 0.0 0.0 0.0 0.0
0.116 -0.709583580493927 -0.6699452996253967 -2.084299921989441e-06 1.2433156371116638e-05 0.0 0.0 0.0 0.0
0.117 -0.7209389805793762 -0.6585026383399963 -2.2491440176963806e-06 -4.820525646209717e-06 0.0 0.0 0.0 0.0
0.118 -0.7324872016906738 -0.6463751792907715 1.0317191481590271e-05 8.543021976947784e-06 0.0 0.0 0.0 0.0
0.119 -0.7431238889694214 -0.6345978379249573 9.2238187789917e-06 2.04574316740036e-05 0.0 0.0 0.0 0.0
0.12 -0.7540279030799866 -0.6218724250793457 2.159643918275833e-05 -7.13299959897995e-06 0.0 0.0 0.0 0.0
0.121 -0.7647148370742798 -0.6095830202102661 -2.203509211540222e-06 -9.739771485328674e-06 0.0 0.0 0.0 0.0
0.122 -0.774723470211029 -0.5963786840438843 -7.61914998292923e-06 -2.206861972808838e-05 0.0 0.0 0.0 0.0
0.123 -0.7849113941192627 -0.5836548209190369 -2.199038863182068e-05 -3.1348317861557007e-06 0.0 0.0 0.0 0.0
0.124 -0.7948135137557983 -0.5706822276115417 3.632158041000366e-06 -2.096407115459442e-06 0.0 0.0 0.0 0.0
0.125 -0.8045389652252197 -0.5574026107788086 2.0028091967105865e-05 2.4223700165748596e-06 0.0 0.0 0.0 0.0
0.126 -0.8140226006507874 -0.5439675450325012 5.925074219703674e-06 -1.3317912817001343e-06 0.0 0.0 0.0 0.0
0.127 -0.8234438300132751 -0.530775785446167 1.528579741716385e-05 5.971640348434448e-06 0.0 0.0 0.0 0.0
0.128 -0.8326693773269653 -0.5164435505867004 -8.281320333480835e-06 1.4518387615680695e-05 0.0 0.0 0.0 0.0
0.129 -0.8410701751708984 -0.5033983588218689 3.400258719921112e-06 1.2850388884544373e-05 0.0 0.0 0.0 0.0
0.13 -0.8496151566505432 -0.4896620213985443 1.3002194464206696e-05 -2.564862370491028e-06 0.0 0.0 0.0 0.0
0.131 -0.8578577041625977 -0.47542473673820496 1.597125083208084e-05 1.0203570127487183e-05 0.0 0.0 0.0 0.0
0.132 -0.86611407995224 -0.4616491198539734 3.026798367500305e-07 -1.94646418094635e-07 0.0 0.0 0.0 0.0
0.133 -0.8744653463363647 -0.44729557633399963 4.244036972522736e-06 -8.61380249261856e-06 0.0 0.0 0.0 0.0
0.134 -0.8822602033615112 -0.4331234395503998 1.7667189240455627e-05 -1.3306736946105957e-05 0.0 0.0 0.0 0.0
0.135 -0.8895108103752136 -0.4182468354701996 5.370005965232849e-06 8.698552846908569e-07 0.0 0.0 0.0 0.0
0.136 -0.8967304229736328 -0.4041077494621277 -1.4230608940124512e-06 9.51811671257019e-07 0.0 0.0 0.0 0.0
0.137 -0.9036589860916138 -0.38953790068626404 1.3989396393299103e-05 -8.320435881614685e-06 0.0 0.0 0.0 0.0
0.138 -0.9103220701217651 -0.3745347559452057 2.023763954639435e-06 1.2619420886039734e-05 0.0 0.0 0.0 0.0
0.139 -0.916886031627655 -0.3594716489315033 2.179015427827835e-05 -4.285015165805817e-06 0.0 0.0 0.0 0.0
0.14 -0.9236149787902832 -0.3446878492832184 -5.258247256278992e-06 -1.57942995429039e-05 0.0 0.0 0.0 0.0
0.141 -0.929343044757843 -0.3295130729675293 7.961876690387726e-06 -2.7427449822425842e-06 0.0 0.0 0.0 0.0
0.142 -0.9353607892990112 -0.3142784535884857 -1.321360468864441e-05 -1.6787089407444e-05 0.0 0.0 0.0 0.0
0.143 -0.940605103969574 -0.29877790808677673 1.9674189388751984e-05 7.694587111473083e-06 0.0 0.0 0.0 0.0
0.144 -0.9463359117507935 -0.28326335549354553 -7.740221917629242e-06 -5.709007382392883e-07 0.0 0.0 0.0 0.0
0.145 -0.9513058662414551 -0.26785314083099365 -1.2012198567390442e-05 -2.1765008568763733e-06 0.0 0.0 0.0 0.0
0.146 -0.9563735723495483 -0.252264142036438 4.470348358154297e-07 4.229135811328888e-06 0.0 0.0 0.0 0.0
0.147 -0.9610821008682251 -0.2366192787885666 3.511086106300354e-07 -8.344650268554688e-06 0.0 0.0 0.0 0.0
0.148 -0.9656612277030945 -0.2205318957567215 1.1628493666648865e-05 -7.152557373046875e-07 0.0 0.0 0.0 0.0
0.149 -0.9695193767547607 -0.20460866391658783 -1.4100223779678345e-05 -2.5276094675064087e-05 0.0 0.0 0.0 0.0
0.15 -0.9733195900917053 -0.18858587741851807 9.499490261077881e-08 -1.1622905731201172e-06 0.0 0.0 0.0 0.0
0.151 -0.9768832325935364 -0.17237095534801483 2.9019080102443695e-05 -2.6578083634376526e-05 0.0 0.0 0.0 0.0
0.152 -0.9801761507987976 -0.1568685919046402 7.051974534988403e-06 6.192363798618317e-06 0.0 0.0 0.0 0.0
0.153 -0.9833089113235474 -0.14006651937961578 -2.363789826631546e-05 -2.880580723285675e-06 0.0 0.0 0.0 0.0
0.154 -0.9861569404602051 -0.12407076358795166 5.124136805534363e-06 -2.390332520008087e-05 0.0 0.0 0.0 0.0
0.155 -0.9890042543411255 -0.1075393334031105 2.1843239665031433e-05 -9.404495358467102e-06 0.0 0.0 0.0 0.0
0.156 -0.9909947514533997 -0.09088937193155289 7.057562470436096e-06 -7.89295881986618e-06 0.0 0.0 0.0 0.0
0.157 -0.9929952025413513 -0.07499682903289795 -6.1336904764175415e-06 2.208724617958069e-05 0.0 0.0 0.0 0.0
0.158 -0.9948527812957764 -0.05811312422156334 4.371628165245056e-06 -4.8978254199028015e-06 0.0 0.0 0.0 0.0
0.159 -0.9961951971054077 -0.04103964567184448 9.229406714439392e-06 -3.917142748832703e-06 0.0 0.0 0.0 0.0
0.16 -0.9978517889976501 -0.02454555593430996 -1.0629184544086456e-05 1.0648742318153381e-05 0.0 0.0 0.0 0.0
0.161 -0.9990764856338501 -0.008035128004848957 1.5881843864917755e-05 3.946945071220398e-06 0.0 0.0 0.0 0.0
0.162 -0.9995385408401489 0.008859517984092236 -1.3845041394233704e-05 1.30385160446167e-05 0.0 0.0 0.0 0.0
0.163 -0.9999294281005859 0.026017367839813232 -8.363276720046997e-07 1.8943101167678833e-06 0.0 0.0 0.0 0.0
0.164 -1.0001673698425293 0.04269038140773773 -8.18539410829544e-06 -1.193024218082428e-06 0.0 0.0 0.0 0.0
0.165 -0.9995810389518738 0.05935513973236084 8.177012205123901e-07 -1.0662712156772614e-05 0.0 0.0 0.0 0.0
0.166 -0.9992138147354126 0.07698124647140503 -2.637505531311035e-06 -6.6943466663360596e-06 0.0 0.0 0.0 0.0
0.167 -0.9988701343536377 0.09336429834365845 7.536262273788452e-06 -1.4537014067173004e-05 0.0 0.0 0.0 0.0
0.168 -0.997365415096283 0.11072218418121338 -4.837289452552795e-06 1.4717690646648407e-05 0.0 0.0 0.0 0.0
0.169 -0.9965951442718506 0.12786465883255005 1.2306496500968933e-05 -7.168389856815338e-06 0.0 0.0 0.0 0.0
0.17 -0.9948917031288147 0.14443746209144592 -1.4116987586021423e-05 -6.428919732570648e-06 0.0 0.0 0.0 0.0
0.171 -0.9926931858062744 0.16237609088420868 1.708976924419403e-05 -2.0281411707401276e-05 0.0 0.0 0.0 0.0
0.172 -0.9903878569602966 0.17918747663497925 -1.3649463653564453e-05 -1.4666467905044556e-05 0.0 0.0 0.0 0.0
0.173 -0.9877574443817139 0.19620124995708466 -1.5906058251857758e-05 1.9224360585212708e-05 0.0 0.0 0.0 0.0
0.174 -0.9851680397987366 0.21315518021583557 1.6354024410247803e-06 -1.0679475963115692e-05 0.0 0.0 0.0 0.0
0.175 -0.9820048213005066 0.2306869924068451 1.4621764421463013e-06 1.0726973414421082e-05 0.0 0.0 0.0 0.0
0.176 -0.9783368110656738 0.24931056797504425 -1.8405728042125702e-05 -2.180226147174835e-06 0.0 0.0 0.0 0.0
0.177 -0.9746724367141724 0.26434293389320374 2.5384128093719482e-05 3.4049153327941895e-06 0.0 0.0 0.0 0.0
0.178 -0.9708074927330017 0.2812856137752533 7.461756467819214e-06 4.0046870708465576e-07 0.0 0.0 0.0 0.0
0.179 -0.9659757018089294 0.2983425557613373 -1.782551407814026e-05 1.3113021850585938e-05 0.0 0.0 0.0 0.0
0.18 -0.9616425037384033 0.315597802400589 1.5711411833763123e-06 -5.686655640602112e-06 0.0 0.0 0.0 0.0
0.181 -0.9561610221862793 0.3324149250984192 3.8370490074157715e-07 1.5108846127986908e-05 0.0 0.0 0.0 0.0
0.182 -0.9513356685638428 0.350085586309433 -8.390285074710846e-06 -1.4862976968288422e-05 0.0 0.0 0.0 0.0
0.183 -0.9456352591514587 0.3666166365146637 1.2386590242385864e-05 -1.009274274110794e-05 0.0 0.0 0.0 0.0
0.184 -0.9391602873802185 0.3834206163883209 6.788410246372223e-06 -1.698918640613556e-05 0.0 0.0 0.0 0.0
0.185 -0.9333640336990356 0.4000486731529236 2.0668841898441315e-05 -1.6197562217712402e-05 0.0 0.0 0.0 0.0
0.186 -0.9262846112251282 0.4167432487010956 1.8524006009101868e-05 -1.6540288925170898e-06 0.0 0.0 0.0 0.0
0.187 -0.9192116260528564 0.4337422549724579 2.496875822544098e-06 -2.0870938897132874e-06 0.0 0.0 0.0 0.0
0.188 -0.9122129082679749 0.44998636841773987 -7.536262273788452e-06 1.7511658370494843e-05 0.0 0.0 0.0 0.0
0.189 -0.9046580195426941 0.46690258383750916 5.276873707771301e-06 5.532056093215942e-06 0.0 0.0 0.0 0.0
0.19 -0.8968632221221924 0.48319143056869507 -1.8163584172725677e-05 8.40798020362854e-06 0.0 0.0 0.0 0.0
0.191 -0.888350784778595 0.49951329827308655 -4.842877388000488e-06 2.1103769540786743e-05 0.0 0.0 0.0 0.0
0.192 -0.8795681595802307 0.515328049659729 1.5815719962120056e-05 -1.1846423149108887e-06 0.0 0.0 0.0 0.0
0.193 -0.8705723285675049 0.5320542454719543 -8.294358849525452e-06 -1.61733478307724e-05 0.0 0.0 0.0 0.0
0.194 -0.8610581159591675 0.5473424792289734 -7.956288754940033e-06 -3.5017728805541992e-06 0.0 0.0 0.0 0.0
0.195 -0.8518330454826355 0.5639721751213074 7.134862244129181e-06 -1.7115846276283264e-05 0.0 0.0 0.0 0.0
0.196 -0.8414931893348694 0.5796969532966614 -4.132278263568878e-06 5.451031029224396e-06 0.0 0.0 0.0 0.0
0.197 -0.8315859436988831 0.5948585271835327 2.9010698199272156e-06 1.6879290342330933e-05 0.0 0.0 0.0 0.0
0.198 -0.820619523525238 0.61015784740448 2.909451723098755e-06 7.2177499532699585e-06 0.0 0.0 0.0 0.0
0.199 -0.8092862367630005 0.6250173449516296 -7.915310561656952e-06 1.0845251381397247e-05 0.0 0.0 0.0 0.0
0.2 -0.7981520891189575 0.6405496001243591 -6.22868537902832e-06 7.71787017583847e-06 0.0 0.0 0.0 0.0
0.201 -0.7866724133491516 0.6552278399467468 7.0016831159591675e-06 8.702278137207031e-06 0.0 0.0 0.0 0.0
0.202 -0.7743174433708191 0.6706158518791199 1.4152377843856812e-05 -3.7066638469696045e-06 0.0 0.0 0.0 0.0
0.203 -0.7622838020324707 0.685236394405365 8.886680006980896e-06 1.0203570127487183e-05 0.0 0.0 0.0 0.0
0.204 -0.7498185038566589 0.6992724537849426 -1.0924413800239563e-06 1.948978751897812e-05 0.0 0.0 0.0 0.0
0.205 -0.7368456721305847 0.7134785056114197 -1.7844140529632568e-06 -6.670132279396057e-06 0.0 0.0 0.0 0.0
0.206 -0.7234265208244324 0.7273027300834656 -2.199597656726837e-05 -5.007721483707428e-06 0.0 0.0 0.0 0.0
0.207 -0.7098868489265442 0.74141925573349 1.1863186955451965e-05 -6.322748959064484e-06 0.0 0.0 0.0 0.0
0.208 -0.6957114338874817 0.7548808455467224 9.481795132160187e-06 -6.495043635368347e-06 0.0 0.0 0.0 0.0
0.209 -0.6814846992492676 0.7680431604385376 -1.8144957721233368e-05 -2.5676563382148743e-06 0.0 0.0 0.0 0.0
0.21 -0.667009174823761 0.7814290523529053 1.688208431005478e-05 -1.406203955411911e-05 0.0 0.0 0.0 0.0
0.211 -0.6520262956619263 0.794338583946228 -1.3217329978942871e-05 -1.4749355614185333e-05 0.0 0.0 0.0 0.0
0.212 -0.6366626024246216 0.8067932724952698 -9.778887033462524e-08 -2.4747103452682495e-05 0.0 0.0 0.0 0.0
0.213 -0.6217427849769592 0.8188555240631104 6.093643605709076e-06 8.085742592811584e-06 0.0 0.0 0.0 0.0
0.214 -0.6051040887832642 0.8308643698692322 -1.297052949666977e-05 -2.39713117480278e-05 0.0 0.0 0.0 0.0
0.215 -0.5894867777824402 0.8426429629325867 2.0405277609825134e-05 -7.724389433860779e-06 0.0 0.0 0.0 0.0
0.216 -0.5719560384750366 0.8535102009773254 -2.139247953891754e-06 -6.809830665588379e-06 0.0 0.0 0.0 0.0
0.217 -0.556433916091919 0.8654571771621704 2.1756626665592194e-05 2.736411988735199e-05 0.0 0.0 0.0 0.0
0.218 -0.5390053987503052 0.8760872483253479 -1.9445084035396576e-05 -1.3092532753944397e-05 0.0 0.0 0.0 0.0
0.219 -0.5223113894462585 0.8858776688575745 -9.051524102687836e-06 -1.755543053150177e-06 0.0 0.0 0.0 0.0
0.22 -0.5047178268432617 0.8963402509689331 -1.2157484889030457e-05 -4.786066710948944e-06 0.0 0.0 0.0 0.0
0.221 -0.4865041971206665 0.9063451290130615 2.644956111907959e-07 -5.178153514862061e-07 0.0 0.0 0.0 0.0
0.222 -0.46839916706085205 0.915314793586731 6.671063601970673e-06 5.170702934265137e-06 0.0 0.0 0.0 0.0
0.223 -0.45015183091163635 0.9248621463775635 1.444295048713684e-05 -7.811002433300018e-06 0.0 0.0 0.0 0.0
0.224 -0.43177375197410583 0.9340324401855469 -4.903413355350494e-06 -3.14321368932724e-06 0.0 0.0 0.0 0.0
0.225 -0.41257840394973755 0.9420702457427979 1.766439527273178e-05 -1.2760050594806671e-05 0.0 0.0 0.0 0.0
0.226 -0.3940538763999939 0.949877142906189 2.192799001932144e-05 -8.957460522651672e-06 0.0 0.0 0.0 0.0
0.227 -0.374833345413208 0.9570286273956299 -1.7338432371616364e-05 -2.3264437913894653e-06 0.0 0.0 0.0 0.0
0.228 -0.35503026843070984 0.9643561840057373 2.7146190404891968e-05 8.717179298400879e-07 0.0 0.0 0.0 0.0
0.229 -0.3356935679912567 0.9714711904525757 9.741634130477905e-06 -1.119077205657959e-05 0.0 0.0 0.0 0.0
0.23 -0.31554698944091797 0.9779006242752075 4.089437425136566e-06 4.341825842857361e-06 0.0 0.0 0.0 0.0
0.231 -0.2955814003944397 0.9844149947166443 1.1120922863483429e-05 3.3890828490257263e-06 0.0 0.0 0.0 0.0
0.232 -0.2751007080078125 0.9895926713943481 -8.085742592811584e-06 -2.5838613510131836e-05 0.0 0.0 0.0 0.0
0.233 -0.2545263171195984 0.9944916367530823 -5.321577191352844e-06 5.316920578479767e-06 0.0 0.0 0.0 0.0
0.234 -0.23460330069065094 0.9990435838699341 -7.006339728832245e-06 1.3287179172039032e-05 0.0 0.0 0.0 0.0
0.235 -0.21387025713920593 1.0031667947769165 -6.673857569694519e-06 8.612871170043945e-06 0.0 0.0 0.0 0.0
0.236 -0.1929275244474411 1.0072989463806152 -5.68293035030365e-06 2.9474496841430664e-05 0.0 0.0 0.0 0.0
0.237 -0.17189502716064453 1.0106264352798462 1.4484860002994537e-05 -6.034970283508301e-06 0.0 0.0 0.0 0.0
0.238 -0.15059338510036469 1.013441562652588 1.969747245311737e-06 -1.8222257494926453e-05 0.0 0.0 0.0 0.0
0.239 -0.1293354481458664 1.0159622430801392 7.391907274723053e-06 4.488043487071991e-06 0.0 0.0 0.0 0.0
0.24 -0.1078091561794281 1.0160335302352905 -1.5973113477230072e-05 1.1675059795379639e-05 0.0 0.0 0.0 0.0
0.241 -0.08666283637285233 1.0196795463562012 1.5478581190109253e-06 -1.5662051737308502e-05 0.0 0.0 0.0 0.0
0.242 -0.06548891961574554 1.0202783346176147 -8.0866739153862e-06 6.648711860179901e-06 0.0 0.0 0.0 0.0
0.243 -0.04395333677530289 1.0205692052841187 2.0442530512809753e-06 3.259629011154175e-06 0.0 0.0 0.0 0.0
0.244 -0.021971819922327995 1.0205345153808594 -6.934627890586853e-06 -6.042420864105225e-06 0.0 0.0 0.0 0.0
0.245 -0.00021202117204666138 1.021007776260376 -8.50670039653778e-06 3.702007234096527e-06 0.0 0.0 0.0 0.0
0.246 0.02108899876475334 1.0202877521514893 7.3695555329322815e-06 -4.192814230918884e-06 0.0 0.0 0.0 0.0
0.247 0.04343798756599426 1.0188515186309814 5.8533623814582825e-06 -8.074566721916199e-07 0.0 0.0 0.0 0.0
0.248 0.06460624933242798 1.0169132947921753 -8.207745850086212e-06 -4.066154360771179e-06 0.0 0.0 0.0 0.0
0.249 0.08667568117380142 1.0147496461868286 -2.4665147066116333e-05 4.44706529378891e-06 0.0 0.0 0.0 0.0
0.25 0.10817047953605652 1.0110580921173096 -6.3749030232429504e-06 1.2298114597797394e-05 0.0 0.0 0.0 0.0
0.251 0.12998105585575104 1.0082745552062988 2.341344952583313e-06 6.5015628933906555e-06 0.0 0.0 0.0 0.0
0.252 0.15135785937309265 1.0042216777801514 -1.8281862139701843e-06 2.2924505174160004e-05 0.0 0.0 0.0 0.0
0.253 0.1732061505317688 1.0005736351013184 -2.207234501838684e-07 -7.422640919685364e-06 0.0 0.0 0.0 0.0
0.254 0.19508543610572815 0.995313823223114 1.6191042959690094e-05 2.125278115272522e-06 0.0 0.0 0.0 0.0
0.255 0.21640093624591827 0.9900928735733032 -7.216818630695343e-06 1.0336749255657196e-05 0.0 0.0 0.0 0.0
0.256 0.23682795464992523 0.9845387935638428 1.2507662177085876e-06 5.867332220077515e-07 0.0 0.0 0.0 0.0
0.257 0.25793489813804626 0.9780859351158142 6.484799087047577e-06 1.1486932635307312e-05 0.0 0.0 0.0 0.0
0.258 0.2789527177810669 0.970766544342041 -5.668029189109802e-06 -7.406808435916901e-06 0.0 0.0 0.0 0.0
0.259 0.30012643337249756 0.9638681411743164 1.413840800523758e-05 -2.226792275905609e-06 0.0 0.0 0.0 0.0
0.26 0.32104620337486267 0.9562386274337769 -2.3944303393363953e-06 4.742294549942017e-06 0.0 0.0 0.0 0.0
0.261 0.3420720398426056 0.9483659863471985 -1.909583806991577e-05 -6.86105340719223e-06 0.0 0.0 0.0 0.0
0.262 0.3620421290397644 0.9397025108337402 1.8674880266189575e-05 -3.446824848651886e-06 0.0 0.0 0.0 0.0
0.263 0.3819577395915985 0.9303391575813293 -2.0138919353485107e-05 1.2231990694999695e-05 0.0 0.0 0.0 0.0
0.264 0.40256237983703613 0.9215612411499023 3.8333237171173096e-06 -1.1718831956386566e-05 0.0 0.0 0.0 0.0
0.265 0.4217538833618164 0.910854160785675 1.2938864529132843e-05 1.338031142950058e-05 0.0 0.0 0.0 0.0
0.266 0.4415755569934845 0.8997892141342163 -8.968636393547058e-06 -2.4428591132164e-06 0.0 0.0 0.0 0.0
0.267 0.4612436890602112 0.889378011226654 7.71787017583847e-06 -9.346753358840942e-06 0.0 0.0 0.0 0.0
0.268 0.4798273742198944 0.8784468173980713 9.275972843170166e-07 -2.8926879167556763e-06 0.0 0.0 0.0 0.0
0.269 0.498665452003479 0.8666091561317444 -6.901100277900696e-06 -1.8727965652942657e-05 0.0 0.0 0.0 0.0
0.27 0.5179427266120911 0.8536376953125 1.0242685675621033e-05 -1.5533529222011566e-05 0.0 0.0 0.0 0.0
0.271 0.5359222888946533 0.8412905931472778 -2.7174130082130432e-05 -1.2265518307685852e-06 0.0 0.0 0.0 0.0
0.272 0.5533713102340698 0.8286349177360535 -1.3474375009536743e-05 2.5331974029541016e-07 0.0 0.0 0.0 0.0
0.273 0.5716024041175842 0.8144329190254211 -5.385838449001312e-06 -1.5859492123126984e-05 0.0 0.0 0.0 0.0
0.274 0.589022696018219 0.8005375862121582 -1.3637356460094452e-05 -9.480863809585571e-06 0.0 0.0 0.0 0.0
0.275 0.6060478687286377 0.7871280908584595 -7.776543498039246e-07 2.2007152438163757e-06 0.0 0.0 0.0 0.0
0.276 0.6229979395866394 0.7716253399848938 -1.697055995464325e-05 6.984919309616089e-07 0.0 0.0 0.0 0.0
0.277 0.6386815309524536 0.7573598623275757 -1.0991469025611877e-05 -1.360476016998291e-05 0.0 0.0 0.0 0.0
0.278 0.6554465293884277 0.7414013147354126 2.7077272534370422e-05 -2.0079314708709717e-05 0.0 0.0 0.0 0.0
0.279 0.6701688170433044 0.7262560129165649 8.665025234222412e-06 5.641952157020569e-06 0.0 0.0 0.0 0.0
0.28 0.6862587928771973 0.710116982460022 -2.7933157980442047e-05 2.508983016014099e-05 0.0 0.0 0.0 0.0
0.281 0.7012427449226379 0.6938478946685791 -3.591179847717285e-06 -1.8931925296783447e-05 0.0 0.0 0.0 0.0
0.282 0.7162067294120789 0.6774035692214966 1.180451363325119e-05 -1.0211952030658722e-05 0.0 0.0 0.0 0.0
0.283 0.7301145195960999 0.6602779030799866 2.7548521757125854e-06 -8.624047040939331e-07 0.0 0.0 0.0 0.0
0.284 0.7440800666809082 0.6423539519309998 -2.0570121705532074e-05 -1.1818483471870422e-05 0.0 0.0 0.0 0.0
0.285 0.7569361329078674 0.6253570914268494 6.520189344882965e-06 4.153698682785034e-06 0.0 0.0 0.0 0.0
0.286 0.7696574926376343 0.607524573802948 5.409121513366699e-06 2.386234700679779e-05 0.0 0.0 0.0 0.0
0.287 0.782791793346405 0.5889102220535278 -4.736706614494324e-06 -1.8742866814136505e-05 0.0 0.0 0.0 0.0
0.288 0.7952934503555298 0.5705763101577759 1.8114224076271057e-06 8.017756044864655e-06 0.0 0.0 0.0 0.0
0.289 0.8071947693824768 0.5519212484359741 4.1937455534935e-06 1.6450881958007812e-05 0.0 0.0 0.0 0.0
0.29 0.8187399506568909 0.533719539642334 1.0369345545768738e-05 -3.6731362342834473e-06 0.0 0.0 0.0 0.0
0.291 0.8293007016181946 0.5141764283180237 -1.9166618585586548e-06 2.4440698325634003e-05 0.0 0.0 0.0 0.0
0.292 0.8394330739974976 0.495033323764801 4.847534000873566e-06 8.99285078048706e-06 0.0 0.0 0.0 0.0
0.293 0.8501672148704529 0.47544053196907043 -9.010545909404755e-06 6.763264536857605e-06 0.0 0.0 0.0 0.0
0.294 0.8597959280014038 0.4550538957118988 -1.9958242774009705e-05 4.2244791984558105e-06 0.0 0.0 0.0 0.0
0.295 0.8686345219612122 0.4357364773750305 -2.0106323063373566e-05 9.747222065925598e-06 0.0 0.0 0.0 0.0
0.296 0.8770566582679749 0.416049063205719 6.813555955886841e-06 -1.2811273336410522e-05 0.0 0.0 0.0 0.0
0.297 0.8862678408622742 0.39538127183914185 -2.4471431970596313e-05 -1.2161210179328918e-05 0.0 0.0 0.0 0.0
0.298 0.8937728404998779 0.3747030794620514 -6.741844117641449e-06 2.0440667867660522e-05 0.0 0.0 0.0 0.0
0.299 0.9004061222076416 0.35542604327201843 1.1557713150978088e-05 5.885958671569824e-07 0.0 0.0 0.0 0.0
0.3 0.907684326171875 0.3341003954410553 4.071742296218872e-06 7.837079465389252e-06 0.0 0.0 0.0 0.0
0.301 0.9141831398010254 0.31281834840774536 7.599592208862305e-07 6.193295121192932e-06 0.0 0.0 0.0 0.0
0.302 0.9202243685722351 0.29190513491630554 -6.638467311859131e-06 1.7195940017700195e-05 0.0 0.0 0.0 0.0
0.303 0.9256600737571716 0.2712874114513397 -1.7346814274787903e-05 7.962808012962341e-07 0.0 0.0 0.0 0.0
0.304 0.93117356300354 0.2500939667224884 -1.992005854845047e-05 -5.110166966915131e-06 0.0 0.0 0.0 0.0
0.305 0.9356535077095032 0.22914941608905792 -1.885928213596344e-06 -1.3233162462711334e-05 0.0 0.0 0.0 0.0
0.306 0.9396587014198303 0.20829468965530396 -1.0427087545394897e-05 -2.0580366253852844e-05 0.0 0.0 0.0 0.0
0.307 0.9436709880828857 0.1868790239095688 1.5869736671447754e-06 6.668269634246826e-06 0.0 0.0 0.0 0.0
0.308 0.947246789932251 0.16551963984966278 -6.516464054584503e-06 -1.4685094356536865e-05 0.0 0.0 0.0 0.0
0.309 0.9499384164810181 0.1442747265100479 -9.75094735622406e-06 -1.8769875168800354e-05 0.0 0.0 0.0 0.0
0.31 0.9520341157913208 0.12361910939216614 -1.9101426005363464e-05 -2.723652869462967e-05 0.0 0.0 0.0 0.0
0.311 0.9535951018333435 0.10174312442541122 5.466863512992859e-07 2.9243528842926025e-06 0.0 0.0 0.0 0.0
0.312 0.9551515579223633 0.08086083829402924 -1.2724660336971283e-05 1.8300488591194153e-05 0.0 0.0 0.0 0.0
0.313 0.9564094543457031 0.05934690311551094 1.0382384061813354e-05 -2.337619662284851e-07 0.0 0.0 0.0 0.0
0.314 0.957005500793457 0.03795363008975983 4.167668521404266e-06 -1.1908821761608124e-05 0.0 0.0 0.0 0.0
0.315 0.95772784948349 0.017511604353785515 1.7415732145309448e-06 -2.0381063222885132e-05 0.0 0.0 0.0 0.0
0.316 0.9569997787475586 -0.004572357051074505 -1.7432495951652527e-05 1.9021332263946533e-05 0.0 0.0 0.0 0.0
0.317 0.9561289548873901 -0.02526537887752056 5.152076482772827e-06 1.6151927411556244e-05 0.0 0.0 0.0 0.0
0.318 0.9549958109855652 -0.04634512960910797 -2.242904156446457e-05 -1.9622966647148132e-06 0.0 0.0 0.0 0.0
0.319 0.9532604813575745 -0.0678548514842987 -5.980953574180603e-06 -3.259629011154175e-07 0.0 0.0 0.0 0.0
0.32 0.9514908790588379 -0.08834964781999588 1.9166618585586548e-06 -1.1650845408439636e-05 0.0 0.0 0.0 0.0
0.321 0.9491627216339111 -0.11005910485982895 -1.1857599020004272e-05 1.0749325156211853e-05 0.0 0.0 0.0 0.0
0.322 0.9463780522346497 -0.129482701420784 -1.2721866369247437e-06 1.2225471436977386e-05 0.0 0.0 0.0 0.0
0.323 0.9432942867279053 -0.1506035476922989 -7.4356794357299805e-06 -1.8873251974582672e-05 0.0 0.0 0.0 0.0
0.324 0.9394775629043579 -0.17120696604251862 -3.755837678909302e-05 -1.867208629846573e-05 0.0 0.0 0.0 0.0
0.325 0.9348577260971069 -0.19126279652118683 1.2100674211978912e-05 1.1871568858623505e-05 0.0 0.0 0.0 0.0
0.326 0.9307449460029602 -0.21213659644126892 -1.8803402781486511e-06 -4.839152097702026e-06 0.0 0.0 0.0 0.0
0.327 0.9258307218551636 -0.23233617842197418 -5.562789738178253e-06 7.450580596923828e-09 0.0 0.0 0.0 0.0
0.328 0.9206934571266174 -0.25265055894851685 -1.3247132301330566e-05 1.566018909215927e-05 0.0 0.0 0.0 0.0
0.329 0.9149620532989502 -0.2724933326244354 3.3061951398849487e-07 -4.631467163562775e-06 0.0 0.0 0.0 0.0
0.33 0.9085636734962463 -0.29152512550354004 4.559755325317383e-06 -1.0609626770019531e-05 0.0 0.0 0.0 0.0
0.331 0.9020466804504395 -0.31187301874160767 -1.4584511518478394e-06 1.7881393432617188e-06 0.0 0.0 0.0 0.0
0.332 0.8955105543136597 -0.3316720128059387 -1.0499730706214905e-05 -9.848736226558685e-06 0.0 0.0 0.0 0.0
0.333 0.8887025713920593 -0.34998053312301636 -1.6096048057079315e-05 -1.0095536708831787e-05 0.0 0.0 0.0 0.0
0.334 0.8806447982788086 -0.36949947476387024 1.8617138266563416e-06 3.0137598514556885e-06 0.0 0.0 0.0 0.0
0.335 0.8731818795204163 -0.38835930824279785 6.553716957569122e-06 -3.041699528694153e-06 0.0 0.0 0.0 0.0
0.336 0.8646354675292969 -0.4070017635822296 -3.1953677535057068e-06 7.423572242259979e-06 0.0 0.0 0.0 0.0
0.337 0.8560001850128174 -0.4248606860637665 -8.452683687210083e-06 2.012774348258972e-05 0.0 0.0 0.0 0.0
0.338 0.8470845222473145 -0.44305744767189026 -4.806555807590485e-06 1.3167038559913635e-05 0.0 0.0 0.0 0.0
0.339 0.8375437259674072 -0.46222367882728577 -1.975148916244507e-05 -1.100730150938034e-05 0.0 0.0 0.0 0.0
0.34 0.8282026052474976 -0.4790734052658081 7.450580596923828e-08 9.953975677490234e-06 0.0 0.0 0.0 0.0
0.341 0.818203330039978 -0.4978261888027191 1.1978670954704285e-05 -3.5623088479042053e-06 0.0 0.0 0.0 0.0
0.342 0.8084152340888977 -0.514472246170044 -6.12158328294754e-06 8.701346814632416e-06 0.0 0.0 0.0 0.0
0.343 0.7975023984909058 -0.5311059355735779 -5.5283308029174805e-06 4.113651812076569e-06 0.0 0.0 0.0 0.0
0.344 0.7861068844795227 -0.5484430193901062 4.815869033336639e-06 1.682806760072708e-05 0.0 0.0 0.0 0.0
0.345 0.7752450108528137 -0.5656877160072327 -1.340918242931366e-05 2.3460015654563904e-06 0.0 0.0 0.0 0.0
0.346 0.7640376687049866 -0.5816487669944763 -2.4450011551380157e-05 2.3690052330493927e-05 0.0 0.0 0.0 0.0
0.347 0.7515137195587158 -0.5985723733901978 1.3904646039009094e-05 -1.5066936612129211e-05 0.0 0.0 0.0 0.0
0.348 0.7399938106536865 -0.6146403551101685 -1.2760050594806671e-05 5.5460259318351746e-06 0.0 0.0 0.0 0.0
0.349 0.7279698252677917 -0.6299722194671631 -2.4373643100261688e-05 -1.1968426406383514e-05 0.0 0.0 0.0 0.0
0.35 0.7149282097816467 -0.6449688673019409 1.1685304343700409e-05 6.164424121379852e-06 0.0 0.0 0.0 0.0
0.351 0.7016162872314453 -0.6603809595108032 3.028661012649536e-06 9.368173778057098e-06 0.0 0.0 0.0 0.0
0.352 0.6881208419799805 -0.675902247428894 2.755783498287201e-06 2.5709159672260284e-05 0.0 0.0 0.0 0.0
0.353 0.6754283308982849 -0.6900283694267273 -5.349516868591309e-06 3.458932042121887e-06 0.0 0.0 0.0 0.0
0.354 0.6613429188728333 -0.7051593065261841 -5.420297384262085e-07 2.447608858346939e-05 0.0 0.0 0.0 0.0
0.355 0.6476385593414307 -0.7192140817642212 -1.0309740900993347e-05 -1.03069469332695e-05 0.0 0.0 0.0 0.0
0.356 0.6334303617477417 -0.7327899932861328 -4.649162292480469e-06 1.280568540096283e-06 0.0 0.0 0.0 0.0
0.357 0.6193217039108276 -0.7461495995521545 5.091540515422821e-06 -2.4207867681980133e-05 0.0 0.0 0.0 0.0
0.358 0.6039102673530579 -0.7588525414466858 -7.788650691509247e-06 4.820525646209717e-06 0.0 0.0 0.0 0.0
0.359 0.5888164639472961 -0.7724037766456604 2.400018274784088e-05 6.010755896568298e-06 0.0 0.0 0.0 0.0
0.36 0.5718948245048523 -0.7847546339035034 5.375593900680542e-06 8.160248398780823e-06 0.0 0.0 0.0 0.0
0.361 0.5584261417388916 -0.7977422475814819 9.560026228427887e-06 -3.1944364309310913e-06 0.0 0.0 0.0 0.0
0.362 0.5425236225128174 -0.8098600506782532 -2.8810463845729828e-05 2.47173011302948e-06 0.0 0.0 0.0 0.0
0.363 0.5267813801765442 -0.8219483494758606 3.925524652004242e-06 -6.190501153469086e-06 0.0 0.0 0.0 0.0
0.364 0.5108897089958191 -0.8325210213661194 -5.968846380710602e-06 1.06077641248703e-06 0.0 0.0 0.0 0.0
0.365 0.4943584203720093 -0.8439024090766907 -3.793276846408844e-06 -5.070120096206665e-06 0.0 0.0 0.0 0.0
0.366 0.4784144163131714 -0.8550372123718262 -6.087124347686768e-06 1.5127472579479218e-05 0.0 0.0 0.0 0.0
0.367 0.4612765908241272 -0.8656136393547058 7.558614015579224e-06 -2.31890007853508e-05 0.0 0.0 0.0 0.0
0.368 0.4444746971130371 -0.8759142756462097 2.861674875020981e-05 -9.515322744846344e-06 0.0 0.0 0.0 0.0
0.369 0.4277832508087158 -0.8858545422554016 -8.967705070972443e-06 1.3903714716434479e-05 0.0 0.0 0.0 0.0
0.37 0.4105789363384247 -0.8956462740898132 -1.1496245861053467e-05 2.634059637784958e-05 0.0 0.0 0.0 0.0
0.371 0.39336708188056946 -0.9044135212898254 -9.51811671257019e-06 3.380700945854187e-06 0.0 0.0 0.0 0.0
0.372 0.37653741240501404 -0.9139954447746277 -1.4137476682662964e-06 2.299714833498001e-05 0.0 0.0 0.0 0.0
0.373 0.35883617401123047 -0.9218885898590088 1.852121204137802e-05 -6.515532732009888e-06 0.0 0.0 0.0 0.0
0.374 0.34104087948799133 -0.9301280975341797 -5.308538675308228e-07 6.595626473426819e-06 0.0 0.0 0.0 0.0
0.375 0.32244163751602173 -0.9383999705314636 1.8022023141384125e-05 5.525536835193634e-06 0.0 0.0 0.0 0.0
0.376 0.30496957898139954 -0.9462874531745911 -7.518567144870758e-06 -1.2200325727462769e-07 0.0 0.0 0.0 0.0
0.377 0.28708967566490173 -0.9534347653388977 8.10716301202774e-06 7.674098014831543e-06 0.0 0.0 0.0 0.0
0.378 0.26912355422973633 -0.9599580764770508 1.4484860002994537e-05 2.012215554714203e-05 0.0 0.0 0.0 0.0
0.379 0.2500429153442383 -0.966458797454834 3.5874545574188232e-06 1.7181970179080963e-05 0.0 0.0 0.0 0.0
0.38 0.2318992167711258 -0.9728003144264221 1.4359131455421448e-05 -1.1203810572624207e-06 0.0 0.0 0.0 0.0
0.381 0.21314078569412231 -0.9787625670433044 -2.1083280444145203e-05 -1.783575862646103e-05 0.0 0.0 0.0 0.0
0.382 0.1935613751411438 -0.9842672944068909 1.5137717127799988e-05 -4.849396646022797e-06 0.0 0.0 0.0 0.0
0.383 0.17523406445980072 -0.9897931814193726 1.0250136256217957e-05 2.2001564502716064e-05 0.0 0.0 0.0 0.0
0.384 0.15588876605033875 -0.9938740134239197 -3.88268381357193e-06 -4.556961357593536e-06 0.0 0.0 0.0 0.0
0.385 0.1376401036977768 -0.9988459944725037 2.4866312742233276e-06 -5.794689059257507e-06 0.0 0.0 0.0 0.0
0.386 0.11805397272109985 -1.0030924081802368 -2.925097942352295e-05 -1.8291175365447998e-05 0.0 0.0 0.0 0.0
0.387 0.09894894808530807 -1.0059553384780884 8.095987141132355e-06 -4.32971864938736e-06 0.0 0.0 0.0 0.0
0.388 0.07924199104309082 -1.0101571083068848 -3.3285468816757202e-06 8.61380249261856e-06 0.0 0.0 0.0 0.0
0.389 0.059861354529857635 -1.0133650302886963 2.2767111659049988e-05 -2.003367990255356e-05 0.0 0.0 0.0 0.0
0.39 0.039766840636730194 -1.0154023170471191 4.98257577419281e-06 6.677582859992981e-07 0.0 0.0 0.0 0.0
0.391 0.02070888876914978 -1.018351674079895 3.5315752029418945e-06 1.8853694200515747e-05 0.0 0.0 0.0 0.0
0.392 0.0014021918177604675 -1.020656704902649 9.863637387752533e-06 -4.7674402594566345e-06 0.0 0.0 0.0 0.0
0.393 -0.018191274255514145 -1.0220959186553955 -9.860843420028687e-06 -1.7758458852767944e-05 0.0 0.0 0.0 0.0
0.394 -0.03804456442594528 -1.0232810974121094 7.187016308307648e-06 1.4620833098888397e-05 0.0 0.0 0.0 0.0
0.395 -0.05653717368841171 -1.024263858795166 1.1836178600788116e-05 -7.304362952709198e-06 0.0 0.0 0.0 0.0
0.396 -0.07725989818572998 -1.0246514081954956 2.249050885438919e-05 -5.8785080909729e-06 0.0 0.0 0.0 0.0
0.397 -0.09701375663280487 -1.0248593091964722 -4.883855581283569e-06 -5.325302481651306e-06 0.0 0.0 0.0 0.0
0.398 -0.11716395616531372 -1.0249263048171997 -1.3401731848716736e-06 -1.0564923286437988e-05 0.0 0.0 0.0 0.0
0.399 -0.1364884078502655 -1.0243656635284424 1.3232231140136719e-05 1.6391277313232422e-06 0.0 0.0 0.0 0.0
0.4 -0.1557188779115677 -1.0233455896377563 1.3860873878002167e-05 4.025176167488098e-06 0.0 0.0 0.0 0.0
0.401 -0.17526666820049286 -1.0223108530044556 6.4587220549583435e-06 1.8617138266563416e-06 0.0 0.0 0.0 0.0
0.402 -0.19559520483016968 -1.0203567743301392 1.2765638530254364e-05 -8.228234946727753e-06 0.0 0.0 0.0 0.0
0.403 -0.21555909514427185 -1.0181987285614014 -2.0932406187057495e-05 1.923181116580963e-06 0.0 0.0 0.0 0.0
0.404 -0.23573040962219238 -1.015425682067871 3.335531800985336e-05 3.119930624961853e-07 0.0 0.0 0.0 0.0
0.405 -0.2552841901779175 -1.0133330821990967 -1.8161721527576447e-05 -3.986060619354248e-06 0.0 0.0 0.0 0.0
0.406 -0.2746823728084564 -1.00984787940979 -7.120892405509949e-06 -1.2482516467571259e-05 0.0 0.0 0.0 0.0
0.407 -0.29349756240844727 -1.0060395002365112 -2.2742897272109985e-06 1.4753080904483795e-05 0.0 0.0 0.0 0.0
0.408 -0.3123956024646759 -1.000808835029602 -2.4218112230300903e-05 -1.9329600036144257e-05 0.0 0.0 0.0 0.0
0.409 -0.3331036865711212 -0.9975692629814148 1.7801299691200256e-05 2.3934990167617798e-06 0.0 0.0 0.0 0.0
0.41 -0.35274580121040344 -0.992963433265686 -2.71480530500412e-06 1.1269934475421906e-05 0.0 0.0 0.0 0.0
0.411 -0.3720642626285553 -0.9880767464637756 -3.7122517824172974e-06 1.1442229151725769e-05 0.0 0.0 0.0 0.0
0.412 -0.391056090593338 -0.983012855052948 8.137896656990051e-06 2.498086541891098e-05 0.0 0.0 0.0 0.0
0.413 -0.40978074073791504 -0.976728618144989 -1.0125339031219482e-05 3.2988376915454865e-05 0.0 0.0 0.0 0.0
0.414 -0.4281702935695648 -0.9714009761810303 5.080364644527435e-06 -5.2424147725105286e-06 0.0 0.0 0.0 0.0
0.415 -0.44840770959854126 -0.9639757871627808 1.7500482499599457e-05 -7.356517016887665e-06 0.0 0.0 0.0 0.0
0.416 -0.4680481553077698 -0.9569131731987 6.183981895446777e-07 -7.242895662784576e-06 0.0 0.0 0.0 0.0
0.417 -0.4855402708053589 -0.9503870606422424 8.340924978256226e-06 -1.336168497800827e-05 0.0 0.0 0.0 0.0
0.418 -0.5045747756958008 -0.9423168897628784 1.0322779417037964e-05 -8.308328688144684e-06 0.0 0.0 0.0 0.0
0.419 -0.5230162739753723 -0.9340648651123047 7.124617695808411e-06 -1.1679716408252716e-05 0.0 0.0 0.0 0.0
0.42 -0.5407505631446838 -0.9253504872322083 1.6616657376289368e-05 -1.4867633581161499e-05 0.0 0.0 0.0 0.0
0.421 -0.5600606203079224 -0.9167319536209106 2.216733992099762e-05 2.22865492105484e-06 0.0 0.0 0.0 0.0
0.422 -0.5777590274810791 -0.906887412071228 -1.6750767827033997e-05 -1.0914169251918793e-05 0.0 0.0 0.0 0.0
0.423 -0.5958939790725708 -0.8976148962974548 6.659887731075287e-06 -6.4373016357421875e-06 0.0 0.0 0.0 0.0
0.424 -0.6142404079437256 -0.8880549073219299 1.236703246831894e-05 2.0409002900123596e-05 0.0 0.0 0.0 0.0
0.425 -0.6320000886917114 -0.8775909543037415 1.941341906785965e-05 2.779066562652588e-06 0.0 0.0 0.0 0.0
0.426 -0.6494113206863403 -0.8670587539672852 -3.7727877497673035e-06 9.16793942451477e-06 0.0 0.0 0.0 0.0
0.427 -0.6662074327468872 -0.8556606769561768 -1.0410323739051819e-05 -1.835078001022339e-05 0.0 0.0 0.0 0.0
0.428 -0.6831772923469543 -0.8444554805755615 -1.0984949767589569e-05 -5.033798515796661e-06 0.0 0.0 0.0 0.0
0.429 -0.7003220319747925 -0.8329267501831055 -2.1872110664844513e-05 8.619390428066254e-06 0.0 0.0 0.0 0.0
0.43 -0.7166416645050049 -0.8204370141029358 -1.7564743757247925e-05 6.8303197622299194e-06 0.0 0.0 0.0 0.0
0.431 -0.7332420349121094 -0.8077980279922485 2.613849937915802e-05 -6.434507668018341e-06 0.0 0.0 0.0 0.0
0.432 -0.7498448491096497 -0.795312762260437 1.4500692486763e-06 8.338131010532379e-06 0.0 0.0 0.0 0.0
0.433 -0.766227126121521 -0.7815117835998535 -9.214505553245544e-06 1.7284415662288666e-05 0.0 0.0 0.0 0.0
0.434 -0.7818090915679932 -0.7689099311828613 -4.75812703371048e-06 4.293397068977356e-06 0.0 0.0 0.0 0.0
0.435 -0.7967736124992371 -0.7551100850105286 -1.1330470442771912e-05 -6.631016731262207e-06 0.0 0.0 0.0 0.0
0.436 -0.8121345639228821 -0.7411766052246094 8.493661880493164e-07 -5.8980658650398254e-06 0.0 0.0 0.0 0.0
0.437 -0.8268688321113586 -0.7270873188972473 -9.986571967601776e-06 -2.649892121553421e-05 0.0 0.0 0.0 0.0
0.438 -0.8418204188346863 -0.7106674909591675 1.2852251529693604e-07 3.5995617508888245e-06 0.0 0.0 0.0 0.0
0.439 -0.8560698628425598 -0.6965222954750061 7.202848792076111e-06 -7.635913789272308e-06 0.0 0.0 0.0 0.0
0.44 -0.8704743981361389 -0.6802971363067627 -1.4089979231357574e-05 1.4645978808403015e-05 0.0 0.0 0.0 0.0
0.441 -0.8844044208526611 -0.6654661893844604 7.0231035351753235e-06 -8.738599717617035e-06 0.0 0.0 0.0 0.0
0.442 -0.8981928825378418 -0.6492522954940796 -9.891577064990997e-06 -1.964997500181198e-05 0.0 0.0 0.0 0.0
0.443 -0.911409854888916 -0.6326968669891357 -9.943731129169464e-06 1.4761462807655334e-06 0.0 0.0 0.0 0.0
0.444 -0.923994243144989 -0.6166062951087952 8.23289155960083e-07 1.2217089533805847e-05 0.0 0.0 0.0 0.0
0.445 -0.9362583756446838 -0.5993325114250183 -5.512498319149017e-06 -2.905726432800293e-06 0.0 0.0 0.0 0.0
0.446 -0.9485607147216797 -0.582221269607544 9.57399606704712e-07 -4.692003130912781e-06 0.0 0.0 0.0 0.0
0.447 -0.9603679180145264 -0.5641968846321106 1.409091055393219e-06 3.129243850708008e-06 0.0 0.0 0.0 0.0
0.448 -0.9721910953521729 -0.5466362833976746 7.813796401023865e-06 -2.0559877157211304e-05 0.0 0.0 0.0 0.0
0.449 -0.9836912155151367 -0.5279256105422974 -4.3958425521850586e-07 6.372109055519104e-06 0.0 0.0 0.0 0.0
0.45 -0.9945361018180847 -0.5095376968383789 1.1045485734939575e-06 2.2814609110355377e-05 0.0 0.0 0.0 0.0
0.451 -1.0047670602798462 -0.4929278492927551 1.8756836652755737e-06 1.3438984751701355e-06 0.0 0.0 0.0 0.0
0.452 -1.0152662992477417 -0.47283825278282166 -4.240311682224274e-06 -7.580965757369995e-07 0.0 0.0 0.0 0.0
0.453 -1.0250660181045532 -0.4541439414024353 -2.376735210418701e-06 -5.166046321392059e-06 0.0 0.0 0.0 0.0
0.454 -1.0339289903640747 -0.4349733591079712 -6.834045052528381e-06 1.0223127901554108e-05 0.0 0.0 0.0 0.0
0.455 -1.0430549383163452 -0.4142163395881653 1.0086223483085632e-06 4.892237484455109e-06 0.0 0.0 0.0 0.0
0.456 -1.0513687133789062 -0.39467763900756836 -1.7220154404640198e-06 -1.7960555851459503e-05 0.0 0.0 0.0 0.0
0.457 -1.0600342750549316 -0.37566837668418884 1.6248784959316254e-05 -1.2529082596302032e-05 0.0 0.0 0.0 0.0
0.458 -1.06765878200531 -0.3553740382194519 1.866742968559265e-05 -5.422160029411316e-06 0.0 0.0 0.0 0.0
0.459 -1.0750126838684082 -0.3348737359046936 1.0875053703784943e-05 1.3610348105430603e-05 0.0 0.0 0.0 0.0
0.46 -1.0817856788635254 -0.3156306743621826 2.162531018257141e-05 -2.445373684167862e-05 0.0 0.0 0.0 0.0
0.461 -1.0881863832473755 -0.29360294342041016 -4.05777245759964e-06 4.872679710388184e-06 0.0 0.0 0.0 0.0
0.462 -1.0937426090240479 -0.2737245261669159 2.332497388124466e-05 6.0070306062698364e-06 0.0 0.0 0.0 0.0
0.463 -1.0995146036148071 -0.25236979126930237 -1.4436431229114532e-05 5.302950739860535e-06 0.0 0.0 0.0 0.0
0.464 -1.1047157049179077 -0.23165728151798248 3.575347363948822e-06 2.421438694000244e-08 0.0 0.0 0.0 0.0
0.465 -1.109315037727356 -0.2093956023454666 -1.799222081899643e-05 4.2924657464027405e-06 0.0 0.0 0.0 0.0
0.466 -1.114208459854126 -0.18844160437583923 -1.968350261449814e-05 1.6145408153533936e-05 0.0 0.0 0.0 0.0
0.467 -1.1180012226104736 -0.16653737425804138 -2.9439106583595276e-06 8.0084428191185e-06 0.0 0.0 0.0 0.0
0.468 -1.1210542917251587 -0.14603182673454285 1.2680888175964355e-05 1.753680408000946e-06 0.0 0.0 0.0 0.0
0.469 -1.123518466949463 -0.12381038069725037 1.927092671394348e-05 3.2391399145126343e-06 0.0 0.0 0.0 0.0
0.47 -1.1262142658233643 -0.10206621885299683 -1.528952270746231e-05 2.8833746910095215e-06 0.0 0.0 0.0 0.0
0.471 -1.1280523538589478 -0.08044659346342087 3.632158041000366e-07 8.41636210680008e-06 0.0 0.0 0.0 0.0
0.472 -1.12903892993927 -0.05875938758254051 5.541369318962097e-07 8.884817361831665e-07 0.0 0.0 0.0 0.0
0.473 -1.1300723552703857 -0.03589807078242302 4.9602240324020386e-06 -1.062639057636261e-05 0.0 0.0 0.0 0.0
0.474 -1.1306958198547363 -0.014929463155567646 9.085051715373993e-06 2.334732562303543e-05 0.0 0.0 0.0 0.0
0.475 -1.1306465864181519 0.007417256012558937 -1.612398773431778e-05 2.4108216166496277e-05 0.0 0.0 0.0 0.0
0.476 -1.1305302381515503 0.029553644359111786 3.193505108356476e-05 -4.369765520095825e-06 0.0 0.0 0.0 0.0
0.477 -1.129778504371643 0.051348887383937836 -4.0140002965927124e-07 9.900890290737152e-06 0.0 0.0 0.0 0.0
0.478 -1.128065824508667 0.07339738309383392 -2.5311484932899475e-05 -1.820456236600876e-05 0.0 0.0 0.0 0.0
0.479 -1.1260040998458862 0.09478117525577545 -1.1222437024116516e-05 -5.696900188922882e-06 0.0 0.0 0.0 0.0
0.48 -1.1234053373336792 0.11627714335918427 5.66430389881134e-06 -6.835907697677612e-06 0.0 0.0 0.0 0.0
0.481 -1.1210345029830933 0.1380375474691391 3.648921847343445e-06 2.520717680454254e-05 0.0 0.0 0.0 0.0
0.482 -1.1180742979049683 0.16098709404468536 -1.2272968888282776e-05 -1.4214776456356049e-05 0.0 0.0 0.0 0.0
0.483 -1.1138917207717896 0.18311774730682373 4.357658326625824e-06 1.601874828338623e-06 0.0 0.0 0.0 0.0
0.484 -1.1097608804702759 0.20463116466999054 1.3476237654685974e-06 4.481524229049683e-06 0.0 0.0 0.0 0.0
0.485 -1.1050078868865967 0.22561770677566528 -7.694587111473083e-06 -1.3678334653377533e-05 0.0 0.0 0.0 0.0
0.486 -1.1000336408615112 0.24745827913284302 -1.960713416337967e-05 -1.7064623534679413e-05 0.0 0.0 0.0 0.0
0.487 -1.094151496887207 0.26766854524612427 -6.248243153095245e-06 2.6452355086803436e-05 0.0 0.0 0.0 0.0
0.488 -1.087903380393982 0.2896708548069 5.309469997882843e-06 -7.618218660354614e-07 0.0 0.0 0.0 0.0
0.489 -1.0808275938034058 0.3114922344684601 -1.6629695892333984e-05 4.5066699385643005e-06 0.0 0.0 0.0 0.0
0.49 -1.0740493535995483 0.3336619734764099 1.0685063898563385e-05 -3.0742958188056946e-05 0.0 0.0 0.0 0.0
0.491 -1.0667356252670288 0.3532661497592926 -9.702518582344055e-06 2.1653249859809875e-06 0.0 0.0 0.0 0.0
0.492 -1.0588650703430176 0.3748120963573456 1.1231750249862671e-05 9.628012776374817e-06 0.0 0.0 0.0 0.0
0.493 -1.0500737428665161 0.39382827281951904 1.74669548869133e-05 4.61190938949585e-06 0.0 0.0 0.0 0.0
0.494 -1.041122317314148 0.41367632150650024 -1.0065734386444092e-05 5.159527063369751e-07 0.0 0.0 0.0 0.0
0.495 -1.0315980911254883 0.43460312485694885 3.5585835576057434e-06 5.495734512805939e-06 0.0 0.0 0.0 0.0
0.496 -1.0222105979919434 0.4543263912200928 1.474190503358841e-05 2.345070242881775e-06 0.0 0.0 0.0 0.0
0.497 -1.011777639389038 0.47463279962539673 -3.768131136894226e-06 -1.334305852651596e-05 0.0 0.0 0.0 0.0
0.498 -1.0007662773132324 0.4945482313632965 6.9765374064445496e-06 -1.3807788491249084e-05 0.0 0.0 0.0 0.0
0.499 -0.9890223741531372 0.5142205357551575 -2.855435013771057e-06 6.856396794319153e-06 0.0 0.0 0.0 0.0
0.5 -0.9787017703056335 0.5317630767822266 3.680586814880371e-06 -3.5390257835388184e-07 0.0 0.0 0.0 0.0
0.501 -0.9667490720748901 0.5511924028396606 -1.0345131158828735e-05 3.133527934551239e-05 0.0 0.0 0.0 0.0
0.502 -0.954428493976593 0.5696195960044861 -1.2417323887348175e-05 -3.3865682780742645e-05 0.0 0.0 0.0 0.0
0.503 -0.9419442415237427 0.586758553981781 -1.1967495083808899e-05 1.2007541954517365e-05 0.0 0.0 0.0 0.0
0.504 -0.9285080432891846 0.604608952999115 -8.404254913330078e-06 1.9040890038013458e-05 0.0 0.0 0.0 0.0
0.505 -0.9153134226799011 0.6220974922180176 1.2945383787155151e-07 5.475245416164398e-06 0.0 0.0 0.0 0.0
0.506 -0.9013194441795349 0.6397791504859924 -1.9120052456855774e-06 -8.126720786094666e-06 0.0 0.0 0.0 0.0
0.507 -0.8871949315071106 0.6570683121681213 -4.5634806156158447e-07 -4.258938133716583e-06 0.0 0.0 0.0 0.0
0.508 -0.8726238012313843 0.6733528971672058 4.244968295097351e-06 -3.2456591725349426e-06 0.0 0.0 0.0 0.0
0.509 -0.8585131764411926 0.6896875500679016 7.653608918190002e-06 7.394701242446899e-06 0.0 0.0 0.0 0.0
0.51 -0.8429943323135376 0.7056005001068115 -2.7865171432495117e-06 -2.266373485326767e-05 0.0 0.0 0.0 0.0
0.511 -0.8276369571685791 0.7208584547042847 -2.6170164346694946e-06 5.298294126987457e-06 0.0 0.0 0.0 0.0
0.512 -0.8117284178733826 0.7358981370925903 -1.7666257917881012e-05 7.781200110912323e-06 0.0 0.0 0.0 0.0
0.513 -0.7957427501678467 0.7509137392044067 3.7746503949165344e-06 -1.3130716979503632e-05 0.0 0.0 0.0 0.0
0.514 -0.7790187001228333 0.7650720477104187 -1.9414350390434265e-05 7.086433470249176e-06 0.0 0.0 0.0 0.0
0.515 -0.7622944116592407 0.7795252203941345 1.3783574104309082e-05 2.1979212760925293e-07 0.0 0.0 0.0 0.0
0.516 -0.7451233863830566 0.7935903668403625 9.617768228054047e-06 -1.2423843145370483e-05 0.0 0.0 0.0 0.0
0.517 -0.7280718088150024 0.8070652484893799 -1.1363066732883453e-05 9.012408554553986e-06 0.0 0.0 0.0 0.0
0.518 -0.7105659246444702 0.8197295665740967 1.484900712966919e-05 5.318783223628998e-06 0.0 0.0 0.0 0.0
0.519 -0.6935732960700989 0.8314928412437439 2.191774547100067e-05 -1.964438706636429e-05 0.0 0.0 0.0 0.0
0.52 -0.6749172806739807 0.8442245125770569 3.0780211091041565e-06 -3.723427653312683e-06 0.0 0.0 0.0 0.0
0.521 -0.6563759446144104 0.8564744591712952 -1.203920692205429e-05 7.316470146179199e-06 0.0 0.0 0.0 0.0
0.522 -0.6379597783088684 0.8677269220352173 9.924173355102539e-06 -1.0797753930091858e-05 0.0 0.0 0.0 0.0
0.523 -0.6188861131668091 0.8787292242050171 -2.6850029826164246e-06 -1.5494413673877716e-05 0.0 0.0 0.0 0.0
0.524 -0.5997739434242249 0.8888615965843201 -1.6269274055957794e-05 7.1981921792030334e-06 0.0 0.0 0.0 0.0
0.525 -0.5814805626869202 0.8992927670478821 1.5667639672756195e-05 -2.0489096641540527e-08 0.0 0.0 0.0 0.0
0.526 -0.5620534420013428 0.9088356494903564 -2.477876842021942e-05 -1.1057592928409576e-05 0.0 0.0 0.0 0.0
0.527 -0.5423119068145752 0.9176226258277893 1.6081146895885468e-05 -2.314336597919464e-06 0.0 0.0 0.0 0.0
0.528 -0.5234165191650391 0.9275892972946167 -2.0306557416915894e-05 -1.4943070709705353e-05 0.0 0.0 0.0 0.0
0.529 -0.5022738575935364 0.9354648590087891 3.271736204624176e-06 -1.3757497072219849e-05 0.0 0.0 0.0 0.0
0.53 -0.48409146070480347 0.942959189414978 -1.5004537999629974e-05 -1.095607876777649e-05 0.0 0.0 0.0 0.0
0.531 -0.4624903202056885 0.9507250785827637 1.8849968910217285e-06 -1.3930723071098328e-05 0.0 0.0 0.0 0.0
0.532 -0.4429004490375519 0.9583659172058105 8.088536560535431e-06 -1.3869255781173706e-05 0.0 0.0 0.0 0.0
0.533 -0.4226759970188141 0.9649773240089417 3.912486135959625e-06 2.1345913410186768e-06 0.0 0.0 0.0 0.0
0.534 -0.40183284878730774 0.970664918422699 2.874806523323059e-05 4.4638291001319885e-06 0.0 0.0 0.0 0.0
0.535 -0.3813508152961731 0.9763129949569702 -3.2838433980941772e-06 1.1528842151165009e-05 0.0 0.0 0.0 0.0
0.536 -0.3615172207355499 0.9818363785743713 1.7146579921245575e-05 5.988404154777527e-07 0.0 0.0 0.0 0.0
0.537 -0.3397480249404907 0.9863372445106506 -1.7071142792701721e-06 1.904461532831192e-05 0.0 0.0 0.0 0.0
0.538 -0.32002130150794983 0.9915237426757812 6.407499313354492e-07 -1.4114193618297577e-05 0.0 0.0 0.0 0.0
0.539 -0.2994619309902191 0.9953112602233887 -1.582130789756775e-05 2.1600164473056793e-05 0.0 0.0 0.0 0.0
0.54 -0.2783828377723694 0.9998582601547241 6.151385605335236e-06 -1.372210681438446e-05 0.0 0.0 0.0 0.0
0.541 -0.2577153444290161 1.00240957736969 -1.3285316526889801e-05 -1.3540498912334442e-05 0.0 0.0 0.0 0.0
0.542 -0.2370198369026184 1.0042186975479126 -9.995885193347931e-06 5.0710514187812805e-06 0.0 0.0 0.0 0.0
0.543 -0.21580080687999725 1.0076318979263306 -2.923421561717987e-06 -2.800486981868744e-06 0.0 0.0 0.0 0.0
0.544 -0.1948988288640976 1.0090210437774658 1.2877397239208221e-05 9.9940225481987e-06 0.0 0.0 0.0 0.0
0.545 -0.17452013492584229 1.0101042985916138 -8.302740752696991e-06 3.5492703318595886e-06 0.0 0.0 0.0 0.0
0.546 -0.1541024148464203 1.0111688375473022 1.1535361409187317e-05 7.580965757369995e-07 0.0 0.0 0.0 0.0
0.547 -0.1330059915781021 1.012429118156433 -3.811158239841461e-05 -9.101815521717072e-06 0.0 0.0 0.0 0.0
0.548 -0.11231772601604462 1.0121785402297974 8.841976523399353e-06 1.7032958567142487e-05 0.0 0.0 0.0 0.0
0.549 -0.09103042632341385 1.011673927307129 2.798624336719513e-06 9.851530194282532e-06 0.0 0.0 0.0 0.0
0.55 -0.07084818184375763 1.0113258361816406 -8.918344974517822e-06 -1.1095777153968811e-05 0.0 0.0 0.0 0.0
0.551 -0.05000032112002373 1.0109937191009521 1.6313977539539337e-05 -9.233132004737854e-06 0.0 0.0 0.0 0.0
0.552 -0.030047554522752762 1.0099074840545654 6.3283368945121765e-06 -1.6994774341583252e-05 0.0 0.0 0.0 0.0
0.553 -0.009567459113895893 1.0070927143096924 -2.6924535632133484e-06 4.148110747337341e-06 0.0 0.0 0.0 0.0
0.554 0.01098801102489233 1.0054877996444702 -8.270144462585449e-07 -1.1986121535301208e-05 0.0 0.0 0.0 0.0
0.555 0.03186051920056343 1.0026651620864868 1.307949423789978e-05 -1.481175422668457e-05 0.0 0.0 0.0 0.0
0.556 0.05125856772065163 0.9992981553077698 -1.2346543371677399e-05 -6.097368896007538e-06 0.0 0.0 0.0 0.0
0.557 0.07136360555887222 0.9956409931182861 -1.5321187674999237e-05 -3.862194716930389e-06 0.0 0.0 0.0 0.0
0.558 0.09174627810716629 0.9917061924934387 4.2282044887542725e-06 -5.23589551448822e-06 0.0 0.0 0.0 0.0
0.559 0.11149542778730392 0.9879279732704163 -6.381422281265259e-06 -1.0951422154903412e-05 0.0 0.0 0.0 0.0
0.56 0.13154111802577972 0.9835941195487976 5.097128450870514e-06 -1.2733973562717438e-05 0.0 0.0 0.0 0.0
0.561 0.15165168046951294 0.9790880084037781 -2.1032989025115967e-05 2.2640451788902283e-06 0.0 0.0 0.0 0.0
0.562 0.16864174604415894 0.9734612703323364 1.4710240066051483e-05 2.0157545804977417e-05 0.0 0.0 0.0 0.0
0.563 0.1891745924949646 0.9676526188850403 -9.601004421710968e-06 7.36583024263382e-06 0.0 0.0 0.0 0.0
0.564 0.20882999897003174 0.9616648554801941 -1.2911856174468994e-05 -3.914348781108856e-06 0.0 0.0 0.0 0.0
0.565 0.22741912305355072 0.9547819495201111 -1.4891847968101501e-06 3.0132010579109192e-05 0.0 0.0 0.0 0.0
0.566 0.24605265259742737 0.9482255578041077 3.4580007195472717e-06 -2.1628104150295258e-05 0.0 0.0 0.0 0.0
0.567 0.26544541120529175 0.9409924149513245 1.402292400598526e-05 -9.673647582530975e-06 0.0 0.0 0.0 0.0
0.568 0.2836019992828369 0.933987021446228 -2.5881454348564148e-05 2.0050443708896637e-05 0.0 0.0 0.0 0.0
0.569 0.30133360624313354 0.9263147115707397 -5.816109478473663e-06 1.8252991139888763e-05 0.0 0.0 0.0 0.0
0.57 0.31971022486686707 0.9180425405502319 -2.5908462703227997e-05 -1.9665807485580444e-05 0.0 0.0 0.0 0.0
0.571 0.3373827338218689 0.9094988703727722 -1.3729557394981384e-05 5.610287189483643e-06 0.0 0.0 0.0 0.0
0.572 0.3551837205886841 0.901159942150116 4.69014048576355e-06 -4.49642539024353e-06 0.0 0.0 0.0 0.0
0.573 0.3724307417869568 0.8921074867248535 1.0933727025985718e-06 -1.1592172086238861e-05 0.0 0.0 0.0 0.0
0.574 0.3911961615085602 0.8823835849761963 -1.8042512238025665e-05 -7.664784789085388e-06 0.0 0.0 0.0 0.0
0.575 0.40700870752334595 0.8733533024787903 -3.5390257835388184e-06 -6.983056664466858e-06 0.0 0.0 0.0 0.0
0.576 0.42353081703186035 0.8636054396629333 -2.036895602941513e-05 1.3334676623344421e-05 0.0 0.0 0.0 0.0
0.577 0.4408029615879059 0.8526889085769653 -1.1185184121131897e-06 9.698793292045593e-06 0.0 0.0 0.0 0.0
0.578 0.45746690034866333 0.8420031070709229 -1.9253231585025787e-05 1.8814578652381897e-05 0.0 0.0 0.0 0.0
0.579 0.4732901155948639 0.8315558433532715 -2.2960826754570007e-05 -3.0351802706718445e-06 0.0 0.0 0.0 0.0
0.58 0.48920735716819763 0.8204547762870789 1.3969838619232178e-07 -1.434236764907837e-06 0.0 0.0 0.0 0.0
0.581 0.5057650804519653 0.8084143996238708 7.699243724346161e-06 1.387856900691986e-05 0.0 0.0 0.0 0.0
0.582 0.5213372707366943 0.7976352572441101 6.358139216899872e-06 -1.6172416508197784e-05 0.0 0.0 0.0 0.0
0.583 0.5357819199562073 0.7858566045761108 -7.420778274536133e-06 1.1397525668144226e-05 0.0 0.0 0.0 0.0
0.584 0.5518453121185303 0.7726161479949951 -3.0042603611946106e-05 1.121126115322113e-05 0.0 0.0 0.0 0.0
0.585 0.5655529499053955 0.7609884738922119 6.472691893577576e-07 1.194886863231659e-05 0.0 0.0 0.0 0.0
0.586 0.5805123448371887 0.7481877207756042 1.3280659914016724e-05 7.500872015953064e-06 0.0 0.0 0.0 0.0
0.587 0.594559907913208 0.73566073179245 1.8807128071784973e-05 -4.916451871395111e-06 0.0 0.0 0.0 0.0
0.588 0.608993649482727 0.7228363752365112 5.457550287246704e-07 -1.5655532479286194e-05 0.0 0.0 0.0 0.0
0.589 0.6229633688926697 0.7088233232498169 -1.1983327567577362e-05 -2.1958723664283752e-05 0.0 0.0 0.0 0.0
0.59 0.6362617611885071 0.6965302228927612 -1.5702098608016968e-06 1.2159347534179688e-05 0.0 0.0 0.0 0.0
0.591 0.6505011916160583 0.6813245415687561 -8.69855284690857e-06 -1.662224531173706e-05 0.0 0.0 0.0 0.0
0.592 0.6626327037811279 0.6677387952804565 -1.3115815818309784e-05 1.1408701539039612e-05 0.0 0.0 0.0 0.0
0.593 0.6750280261039734 0.6532611846923828 1.8724240362644196e-05 -3.818422555923462e-07 0.0 0.0 0.0 0.0
0.594 0.6880818009376526 0.6383302807807922 -5.799345672130585e-06 -6.350688636302948e-06 0.0 0.0 0.0 0.0
0.595 0.7002067565917969 0.6238643527030945 1.7123296856880188e-05 -1.735147088766098e-05 0.0 0.0 0.0 0.0
0.596 0.7119133472442627 0.6094188690185547 1.4476478099822998e-05 -1.0902993381023407e-05 0.0 0.0 0.0 0.0
0.597 0.7235898375511169 0.5945786833763123 1.042243093252182e-05 -8.217990398406982e-06 0.0 0.0 0.0 0.0
0.598 0.7351052761077881 0.5789852142333984 1.9109807908535004e-05 -2.8681941330432892e-05 0.0 0.0 0.0 0.0
0.599 0.7459492087364197 0.5639217495918274 1.0227784514427185e-05 -1.6082078218460083e-05 0.0 0.0 0.0 0.0
0.6 0.7563445568084717 0.5480676293373108 9.838491678237915e-06 -4.287809133529663e-06 0.0 0.0 0.0 0.0
0.601 0.7668811678886414 0.5321776866912842 -1.219380646944046e-05 2.1426938474178314e-05 0.0 0.0 0.0 0.0
0.602 0.7767111659049988 0.5171964764595032 -9.641051292419434e-06 1.214444637298584e-05 0.0 0.0 0.0 0.0
0.603 0.7873256206512451 0.5002666711807251 8.663162589073181e-06 -2.472754567861557e-05 0.0 0.0 0.0 0.0
0.604 0.7962729334831238 0.4836958348751068 -1.3214536011219025e-05 2.865958958864212e-05 0.0 0.0 0.0 0.0
0.605 0.805979311466217 0.4681670367717743 -1.1576339602470398e-05 -5.734153091907501e-06 0.0 0.0 0.0 0.0
0.606 0.8155050873756409 0.45133858919143677 -3.2133422791957855e-05 -7.189810276031494e-06 0.0 0.0 0.0 0.0
0.607 0.823297381401062 0.4357891380786896 -2.677086740732193e-05 4.6566128730773926e-08 0.0 0.0 0.0 0.0
0.608 0.8314913511276245 0.41844427585601807 -6.332993507385254e-08 7.964670658111572e-06 0.0 0.0 0.0 0.0
0.609 0.8397793173789978 0.40101203322410583 -9.119510650634766e-06 -8.559785783290863e-06 0.0 0.0 0.0 0.0
0.61 0.8482959866523743 0.3832554221153259 -1.821015030145645e-05 1.7512589693069458e-05 0.0 0.0 0.0 0.0
0.611 0.8553645014762878 0.3673788905143738 -1.0076910257339478e-06 -1.7566606402397156e-05 0.0 0.0 0.0 0.0
0.612 0.8626721501350403 0.34880349040031433 -4.908069968223572e-07 4.973262548446655e-07 0.0 0.0 0.0 0.0
0.613 0.8696988821029663 0.3319399356842041 2.2023916244506836e-05 8.351169526576996e-06 0.0 0.0 0.0 0.0
0.614 0.8762655258178711 0.31476542353630066 1.9431114196777344e-05 -3.8994476199150085e-06 0.0 0.0 0.0 0.0
0.615 0.8824672102928162 0.2974296808242798 -1.6307458281517029e-06 1.2522563338279724e-05 0.0 0.0 0.0 0.0
0.616 0.887987494468689 0.2788120210170746 -2.824794501066208e-05 1.8114224076271057e-05 0.0 0.0 0.0 0.0
0.617 0.893852710723877 0.2606082260608673 -2.8315000236034393e-05 6.108544766902924e-06 0.0 0.0 0.0 0.0
0.618 0.8990444540977478 0.24215735495090485 -1.7834827303886414e-06 4.997476935386658e-06 0.0 0.0 0.0 0.0
0.619 0.9038482904434204 0.22506557404994965 -4.539266228675842e-06 1.0884366929531097e-05 0.0 0.0 0.0 0.0
0.62 0.9094348549842834 0.20665977895259857 2.813246101140976e-05 -1.9956380128860474e-05 0.0 0.0 0.0 0.0
0.621 0.9138283133506775 0.18873649835586548 -2.7946196496486664e-05 3.836117684841156e-06 0.0 0.0 0.0 0.0
0.622 0.9168866872787476 0.17106790840625763 7.78399407863617e-06 -2.057291567325592e-06 0.0 0.0 0.0 0.0
0.623 0.9209457635879517 0.1521579772233963 -7.000751793384552e-06 7.399357855319977e-06 0.0 0.0 0.0 0.0
0.624 0.924949586391449 0.13379958271980286 -2.5406479835510254e-06 -1.775100827217102e-06 0.0 0.0 0.0 0.0
0.625 0.9272850155830383 0.11389229446649551 2.5890767574310303e-06 5.391426384449005e-06 0.0 0.0 0.0 0.0
0.626 0.9304147958755493 0.09649733453989029 2.3505650460720062e-05 1.7051585018634796e-05 0.0 0.0 0.0 0.0
0.627 0.9327917695045471 0.07724473625421524 4.842877388000488e-06 9.049661457538605e-06 0.0 0.0 0.0 0.0
0.628 0.9351128935813904 0.05875813215970993 1.985020935535431e-05 2.7921050786972046e-06 0.0 0.0 0.0 0.0
0.629 0.936989963054657 0.04060732200741768 8.580274879932404e-06 -1.3045966625213623e-05 0.0 0.0 0.0 0.0
0.63 0.9383437633514404 0.021992383524775505 -8.608214557170868e-06 1.9818544387817383e-05 0.0 0.0 0.0 0.0
0.631 0.939885139465332 0.00289793498814106 9.508803486824036e-07 -3.5976991057395935e-06 0.0 0.0 0.0 0.0
0.632 0.940522313117981 -0.015502599067986012 -1.187250018119812e-05 -6.523914635181427e-06 0.0 0.0 0.0 0.0
0.633 0.9407869577407837 -0.03634863719344139 -1.163966953754425e-05 1.201685518026352e-05 0.0 0.0 0.0 0.0
0.634 0.941182017326355 -0.05322372540831566 2.133939415216446e-05 8.093193173408508e-07 0.0 0.0 0.0 0.0
0.635 0.9413067102432251 -0.07347902655601501 2.0734965801239014e-05 -8.545815944671631e-06 0.0 0.0 0.0 0.0
0.636 0.9406524896621704 -0.09171590209007263 3.257766366004944e-06 -4.425644874572754e-06 0.0 0.0 0.0 0.0
0.637 0.9391244053840637 -0.1118151843547821 9.620562195777893e-07 -1.976359635591507e-05 0.0 0.0 0.0 0.0
0.638 0.9381007552146912 -0.13012802600860596 -5.338340997695923e-06 4.888232797384262e-05 0.0 0.0 0.0 0.0
0.639 0.9366681575775146 -0.14974865317344666 -1.1159107089042664e-05 -2.686586230993271e-05 0.0 0.0 0.0 0.0
0.64 0.9347632527351379 -0.1681673228740692 2.5160610675811768e-05 6.770715117454529e-07 0.0 0.0 0.0 0.0
0.641 0.932236909866333 -0.18776854872703552 1.5692785382270813e-06 1.4540739357471466e-05 0.0 0.0 0.0 0.0
0.642 0.9303508996963501 -0.2066250741481781 5.16790896654129e-06 -1.3969838619232178e-06 0.0 0.0 0.0 0.0
0.643 0.9272776246070862 -0.22517794370651245 -9.253621101379395e-06 2.096407115459442e-06 0.0 0.0 0.0 0.0
0.644 0.9241764545440674 -0.24270115792751312 1.004151999950409e-05 -2.5508925318717957e-05 0.0 0.0 0.0 0.0
0.645 0.9204728603363037 -0.2619655430316925 2.755783498287201e-06 1.9895844161510468e-05 0.0 0.0 0.0 0.0
0.646 0.9162853360176086 -0.2814147174358368 6.3264742493629456e-06 1.8154270946979523e-05 0.0 0.0 0.0 0.0
0.647 0.9118149876594543 -0.30078554153442383 2.5663524866104126e-05 3.59145924448967e-05 0.0 0.0 0.0 0.0
0.648 0.9069944620132446 -0.31899788975715637 -1.2945383787155151e-07 1.2665987014770508e-06 0.0 0.0 0.0 0.0
0.649 0.9028571248054504 -0.3385845124721527 -1.2652948498725891e-05 -1.0409392416477203e-05 0.0 0.0 0.0 0.0
0.65 0.8973450660705566 -0.35596150159835815 1.005176454782486e-05 -1.0849907994270325e-05 0.0 0.0 0.0 0.0
0.651 0.8915174603462219 -0.3748507499694824 -9.509734809398651e-06 2.0189210772514343e-05 0.0 0.0 0.0 0.0
0.652 0.8849398493766785 -0.3941064178943634 -4.644505679607391e-06 -2.0172446966171265e-06 0.0 0.0 0.0 0.0
0.653 0.8786417841911316 -0.41170981526374817 -2.9848888516426086e-05 2.9578804969787598e-06 0.0 0.0 0.0 0.0
0.654 0.8723363280296326 -0.42982667684555054 -1.2021511793136597e-05 3.086123615503311e-05 0.0 0.0 0.0 0.0
0.655 0.8656970858573914 -0.4479754865169525 -1.6381964087486267e-06 2.0908191800117493e-05 0.0 0.0 0.0 0.0
0.656 0.8581016659736633 -0.4670950770378113 9.94652509689331e-06 5.29363751411438e-06 0.0 0.0 0.0 0.0
0.657 0.8502542972564697 -0.48379752039909363 5.988404154777527e-06 2.1929852664470673e-05 0.0 0.0 0.0 0.0
0.658 0.8427211046218872 -0.5018940567970276 1.575704663991928e-05 -1.0280869901180267e-05 0.0 0.0 0.0 0.0
0.659 0.8336823582649231 -0.5196106433868408 2.9910355806350708e-05 8.347444236278534e-06 0.0 0.0 0.0 0.0
0.66 0.8253363966941833 -0.5379059314727783 -1.740735024213791e-05 5.112960934638977e-07 0.0 0.0 0.0 0.0
0.661 0.8157315850257874 -0.5554018020629883 -2.297479659318924e-05 -4.149973392486572e-06 0.0 0.0 0.0 0.0
0.662 0.8054436445236206 -0.5741835832595825 -1.249648630619049e-05 2.5647692382335663e-05 0.0 0.0 0.0 0.0
0.663 0.7966915965080261 -0.5905883312225342 -1.9507482647895813e-05 3.139488399028778e-06 0.0 0.0 0.0 0.0
0.664 0.7868454456329346 -0.6077043414115906 -4.595145583152771e-06 3.1754374504089355e-05 0.0 0.0 0.0 0.0
0.665 0.7769632935523987 -0.6226022839546204 1.0311603546142578e-05 8.363276720046997e-06 0.0 0.0 0.0 0.0
0.666 0.7658717632293701 -0.6403744220733643 -2.503208816051483e-05 -5.755573511123657e-07 0.0 0.0 0.0 0.0
0.667 0.7540976405143738 -0.6570455431938171 2.04332172870636e-06 1.4948658645153046e-05 0.0 0.0 0.0 0.0
0.668 0.7426208853721619 -0.6737905144691467 5.466863512992859e-07 4.205852746963501e-06 0.0 0.0 0.0 0.0
0.669 0.7298348546028137 -0.6906124353408813 -1.3630837202072144e-05 6.260350346565247e-06 0.0 0.0 0.0 0.0
0.67 0.7171354293823242 -0.7074874043464661 -1.059751957654953e-05 7.107853889465332e-06 0.0 0.0 0.0 0.0
0.671 0.7061993479728699 -0.7227075695991516 1.8132850527763367e-06 5.1604583859443665e-06 0.0 0.0 0.0 0.0
0.672 0.6896194219589233 -0.7396013736724854 1.016072928905487e-06 1.802109181880951e-05 0.0 0.0 0.0 0.0
0.673 0.6799977421760559 -0.7537840604782104 1.2170523405075073e-05 1.2293457984924316e-06 0.0 0.0 0.0 0.0
0.674 0.6659437417984009 -0.7693524956703186 -1.6748905181884766e-05 -9.363517165184021e-06 0.0 0.0 0.0 0.0
0.675 0.6530863642692566 -0.7844874858856201 -4.586763679981232e-06 1.0195188224315643e-05 0.0 0.0 0.0 0.0
0.676 0.6366450786590576 -0.8003628253936768 -9.86643135547638e-06 1.4153309166431427e-05 0.0 0.0 0.0 0.0
0.677 0.6237245202064514 -0.8139241933822632 2.671964466571808e-06 -3.17208468914032e-06 0.0 0.0 0.0 0.0
0.678 0.607630729675293 -0.8289008140563965 2.0203180611133575e-05 5.708076059818268e-06 0.0 0.0 0.0 0.0
0.679 0.5926676392555237 -0.8429660201072693 2.1787360310554504e-05 -3.41758131980896e-05 0.0 0.0 0.0 0.0
0.68 0.5772708654403687 -0.8570325374603271 -2.919696271419525e-06 -4.2049214243888855e-06 0.0 0.0 0.0 0.0
0.681 0.5619502663612366 -0.8698166608810425 -1.7821788787841797e-05 -2.321135252714157e-05 0.0 0.0 0.0 0.0
0.682 0.544616162776947 -0.8835071325302124 -2.130866050720215e-06 2.9765069484710693e-06 0.0 0.0 0.0 0.0
0.683 0.5277963876724243 -0.8966676592826843 1.4408491551876068e-05 -3.2549723982810974e-06 0.0 0.0 0.0 0.0
0.684 0.5105845332145691 -0.9095904231071472 -1.2219883501529694e-05 -1.0833144187927246e-05 0.0 0.0 0.0 0.0
0.685 0.4940747916698456 -0.9217817187309265 -2.952292561531067e-07 -5.991198122501373e-06 0.0 0.0 0.0 0.0
0.686 0.47735336422920227 -0.934366762638092 -1.757591962814331e-05 9.464100003242493e-06 0.0 0.0 0.0 0.0
0.687 0.45953088998794556 -0.9459099769592285 6.531365215778351e-06 3.471970558166504e-06 0.0 0.0 0.0 0.0
0.688 0.4409564435482025 -0.9572783708572388 -2.592243254184723e-05 -2.3227185010910034e-06 0.0 0.0 0.0 0.0
0.689 0.4225900173187256 -0.9683975577354431 9.466893970966339e-06 -1.669861376285553e-06 0.0 0.0 0.0 0.0
0.69 0.40300002694129944 -0.9784992337226868 6.754882633686066e-06 -9.854324162006378e-06 0.0 0.0 0.0 0.0
0.691 0.38491079211235046 -0.9896824955940247 -1.5696510672569275e-05 1.057889312505722e-05 0.0 0.0 0.0 0.0
0.692 0.36619147658348083 -0.9995579123497009 8.864328265190125e-06 3.93204391002655e-06 0.0 0.0 0.0 0.0
0.693 0.3462778329849243 -1.0095734596252441 -4.0940940380096436e-06 -1.3580545783042908e-05 0.0 0.0 0.0 0.0
0.694 0.3257097601890564 -1.0185717344284058 -1.2910924851894379e-05 7.245689630508423e-06 0.0 0.0 0.0 0.0
0.695 0.30643871426582336 -1.0280206203460693 -1.7611309885978699e-06 -4.64264303445816e-06 0.0 0.0 0.0 0.0
0.696 0.2843805253505707 -1.036632776260376 4.450790584087372e-06 4.5960769057273865e-06 0.0 0.0 0.0 0.0
0.697 0.2642107605934143 -1.0445632934570312 1.1846423149108887e-06 1.6949139535427094e-05 0.0 0.0 0.0 0.0
0.698 0.2438279241323471 -1.051980972290039 1.3898126780986786e-05 -2.337619662284851e-06 0.0 0.0 0.0 0.0
0.699 0.22350849211215973 -1.0588093996047974 -1.210719347000122e-08 2.5490298867225647e-06 0.0 0.0 0.0 0.0
0.7 0.201772540807724 -1.0661698579788208 -4.404224455356598e-06 -7.292255759239197e-07 0.0 0.0 0.0 0.0
0.701 0.18050239980220795 -1.072980284690857 -2.7055852115154266e-05 -3.752298653125763e-06 0.0 0.0 0.0 0.0
0.702 0.160065159201622 -1.0788671970367432 3.259629011154175e-08 6.779097020626068e-06 0.0 0.0 0.0 0.0
0.703 0.13743533194065094 -1.083728551864624 1.0648742318153381e-05 -4.014000296592712e-06 0.0 0.0 0.0 0.0
0.704 0.11598195135593414 -1.0886683464050293 -3.693625330924988e-05 -2.115406095981598e-05 0.0 0.0 0.0 0.0
0.705 0.09275262802839279 -1.0939072370529175 5.488283932209015e-06 4.144385457038879e-06 0.0 0.0 0.0 0.0
0.706 0.0712231919169426 -1.0973901748657227 1.191999763250351e-05 -3.048218786716461e-06 0.0 0.0 0.0 0.0
0.707 0.048125382512807846 -1.101035475730896 -1.1193566024303436e-05 1.0477378964424133e-06 0.0 0.0 0.0 0.0
0.708 0.02504960261285305 -1.1043354272842407 3.894791007041931e-06 2.3447908461093903e-05 0.0 0.0 0.0 0.0
0.709 0.0030515193939208984 -1.1069034337997437 -3.4812837839126587e-06 1.0252930223941803e-05 0.0 0.0 0.0 0.0
0.71 -0.019848104566335678 -1.1084942817687988 -7.317401468753815e-06 -1.780688762664795e-06 0.0 0.0 0.0 0.0
0.711 -0.04241880774497986 -1.11034095287323 -7.990747690200806e-07 -6.737187504768372e-06 0.0 0.0 0.0 0.0
0.712 -0.0676317811012268 -1.1114487648010254 2.1842308342456818e-05 6.971880793571472e-06 0.0 0.0 0.0 0.0
0.713 -0.08896976709365845 -1.112778902053833 2.7650967240333557e-06 -9.921379387378693e-06 0.0 0.0 0.0 0.0
0.714 -0.11232179403305054 -1.1132378578186035 -1.0700896382331848e-05 -5.228444933891296e-06 0.0 0.0 0.0 0.0
0.715 -0.13561467826366425 -1.1119405031204224 5.638226866722107e-06 1.2527219951152802e-05 0.0 0.0 0.0 0.0
0.716 -0.15863853693008423 -1.1109188795089722 -1.1917203664779663e-05 -1.280568540096283e-06 0.0 0.0 0.0 0.0
0.717 -0.18247124552726746 -1.1093660593032837 9.811483323574066e-06 -1.5148892998695374e-05 0.0 0.0 0.0 0.0
0.718 -0.2054525911808014 -1.1071065664291382 1.0617077350616455e-05 -9.154900908470154e-07 0.0 0.0 0.0 0.0
0.719 -0.23039890825748444 -1.1040343046188354 5.325302481651306e-06 -4.680827260017395e-06 0.0 0.0 0.0 0.0
0.72 -0.25316280126571655 -1.1011582612991333 -4.757195711135864e-06 3.0463561415672302e-06 0.0 0.0 0.0 0.0
0.721 -0.2781134843826294 -1.0973608493804932 -1.3887882232666016e-05 1.1955387890338898e-05 0.0 0.0 0.0 0.0
0.722 -0.29938456416130066 -1.0933117866516113 -1.9341707229614258e-05 1.8768012523651123e-05 0.0 0.0 0.0 0.0
0.723 -0.3235430419445038 -1.0877938270568848 -7.364898920059204e-06 1.5740282833576202e-05 0.0 0.0 0.0 0.0
0.724 -0.3461249768733978 -1.0828707218170166 -2.448633313179016e-05 7.774680852890015e-06 0.0 0.0 0.0 0.0
0.725 -0.3692321479320526 -1.0763026475906372 -9.955838322639465e-07 -9.18656587600708e-06 0.0 0.0 0.0 0.0
0.726 -0.39303141832351685 -1.0690875053405762 -1.3763085007667542e-05 -8.21426510810852e-06 0.0 0.0 0.0 0.0
0.727 -0.4164528250694275 -1.062170386314392 3.045797348022461e-05 9.938143193721771e-06 0.0 0.0 0.0 0.0
0.728 -0.44077515602111816 -1.0540937185287476 1.594889909029007e-05 -1.141335815191269e-05 0.0 0.0 0.0 0.0
0.729 -0.46141234040260315 -1.0469046831130981 9.689480066299438e-06 -7.062219083309174e-06 0.0 0.0 0.0 0.0
0.73 -0.4830646216869354 -1.0386581420898438 2.218596637248993e-05 5.51808625459671e-06 0.0 0.0 0.0 0.0
0.731 -0.5060285329818726 -1.0280975103378296 -2.0743347704410553e-05 4.376843571662903e-05 0.0 0.0 0.0 0.0
0.732 -0.5293163061141968 -1.018555998802185 -1.7286278307437897e-05 1.013185828924179e-05 0.0 0.0 0.0 0.0
0.733 -0.5504910349845886 -1.0077632665634155 -2.8253532946109772e-05 -6.039626896381378e-06 0.0 0.0 0.0 0.0
0.734 -0.5726966261863708 -0.9968294501304626 3.868620842695236e-05 -9.815208613872528e-06 0.0 0.0 0.0 0.0
0.735 -0.5944858193397522 -0.9848693013191223 6.05359673500061e-06 5.294568836688995e-06 0.0 0.0 0.0 0.0
0.736 -0.6161815524101257 -0.9726232886314392 -2.138689160346985e-05 7.450580596923828e-07 0.0 0.0 0.0 0.0
0.737 -0.6366028785705566 -0.9599077701568604 4.890374839305878e-06 3.441423177719116e-05 0.0 0.0 0.0 0.0
0.738 -0.6569572687149048 -0.946431577205658 -1.848861575126648e-05 1.1820346117019653e-05 0.0 0.0 0.0 0.0
0.739 -0.6785314679145813 -0.9320462346076965 -1.840014010667801e-05 7.656402885913849e-06 0.0 0.0 0.0 0.0
0.74 -0.6986739039421082 -0.9177192449569702 2.5995075702667236e-05 -1.486111432313919e-05 0.0 0.0 0.0 0.0
0.741 -0.7179256677627563 -0.9041294455528259 -1.073349267244339e-05 1.2516975402832031e-06 0.0 0.0 0.0 0.0
0.742 -0.7379444241523743 -0.8884955644607544 1.0272487998008728e-05 -1.3008713722229004e-05 0.0 0.0 0.0 0.0
0.743 -0.757498562335968 -0.8730744123458862 9.569339454174042e-06 6.057322025299072e-06 0.0 0.0 0.0 0.0
0.744 -0.7758356928825378 -0.855899453163147 9.465031325817108e-06 -1.7862766981124878e-06 0.0 0.0 0.0 0.0
0.745 -0.7932644486427307 -0.8403397798538208 5.8514997363090515e-06 -1.4612451195716858e-05 0.0 0.0 0.0 0.0
0.746 -0.811558187007904 -0.8219717144966125 7.148832082748413e-06 -8.56257975101471e-06 0.0 0.0 0.0 0.0
0.747 -0.8281514644622803 -0.8058906197547913 -4.462897777557373e-06 -5.502253770828247e-06 0.0 0.0 0.0 0.0
0.748 -0.8464496731758118 -0.7861952185630798 2.1169893443584442e-05 -5.662441253662109e-07 0.0 0.0 0.0 0.0
0.749 -0.8619641065597534 -0.7686285972595215 7.3462724685668945e-06 -4.325062036514282e-06 0.0 0.0 0.0 0.0
0.75 -0.8781324028968811 -0.7506588697433472 1.1854805052280426e-05 2.411194145679474e-06 0.0 0.0 0.0 0.0
0.751 -0.8951786756515503 -0.7296906113624573 2.4559907615184784e-05 -8.299946784973145e-06 0.0 0.0 0.0 0.0
0.752 -0.9105165600776672 -0.709932267665863 -1.3224780559539795e-06 -1.6491860151290894e-05 0.0 0.0 0.0 0.0
0.753 -0.9243583083152771 -0.6909590363502502 -6.835907697677612e-07 9.259209036827087e-06 0.0 0.0 0.0 0.0
0.754 -0.9380594491958618 -0.6709873080253601 5.0514936447143555e-06 2.1822750568389893e-05 0.0 0.0 0.0 0.0
0.755 -0.9511768817901611 -0.649898111820221 -4.126690328121185e-06 2.273358404636383e-06 0.0 0.0 0.0 0.0
0.756 -0.9636543393135071 -0.6262432336807251 -7.21123069524765e-06 -1.637544482946396e-05 0.0 0.0 0.0 0.0
0.757 -0.9779191017150879 -0.6073858141899109 -5.90737909078598e-06 -1.2131407856941223e-05 0.0 0.0 0.0 0.0
0.758 -0.9902216196060181 -0.5851501226425171 4.7497451305389404e-07 3.341212868690491e-05 0.0 0.0 0.0 0.0
0.759 -1.001729965209961 -0.5627008080482483 -6.270594894886017e-06 -7.040798664093018e-06 0.0 0.0 0.0 0.0
0.76 -1.0122601985931396 -0.5416514873504639 1.8037855625152588e-05 9.04873013496399e-06 0.0 0.0 0.0 0.0
0.761 -1.021895408630371 -0.5192506313323975 3.3155083656311035e-06 1.889653503894806e-06 0.0 0.0 0.0 0.0
0.762 -1.0326982736587524 -0.4962550699710846 -9.807758033275604e-06 5.325302481651306e-06 0.0 0.0 0.0 0.0
0.763 -1.041162133216858 -0.4735223352909088 -5.057081580162048e-06 -3.1813979148864746e-06 0.0 0.0 0.0 0.0
0.764 -1.0503623485565186 -0.44884440302848816 6.956979632377625e-07 -1.3303011655807495e-05 0.0 0.0 0.0 0.0
0.765 -1.058428406715393 -0.42761072516441345 -2.0973384380340576e-06 1.3488344848155975e-05 0.0 0.0 0.0 0.0
0.766 -1.06610107421875 -0.40366822481155396 5.564652383327484e-06 -1.538824290037155e-05 0.0 0.0 0.0 0.0
0.767 -1.072305679321289 -0.3809809386730194 -1.0765157639980316e-05 -1.0397285223007202e-05 0.0 0.0 0.0 0.0
0.768 -1.0783400535583496 -0.35650908946990967 1.399219036102295e-05 -9.926967322826385e-06 0.0 0.0 0.0 0.0
0.769 -1.0843241214752197 -0.33280134201049805 9.299255907535553e-06 8.544884622097015e-06 0.0 0.0 0.0 0.0
0.77 -1.0892250537872314 -0.3091467320919037 5.0906091928482056e-06 -6.642192602157593e-06 0.0 0.0 0.0 0.0
0.771 -1.0936554670333862 -0.28584375977516174 -4.120171070098877e-06 2.2687017917633057e-06 0.0 0.0 0.0 0.0
0.772 -1.097722053527832 -0.26095202565193176 2.6971101760864258e-06 -1.121126115322113e-05 0.0 0.0 0.0 0.0
0.773 -1.1013661623001099 -0.23731692135334015 1.1796131730079651e-05 -2.5559216737747192e-05 0.0 0.0 0.0 0.0
0.774 -1.1041033267974854 -0.2123403400182724 4.868954420089722e-06 2.0963139832019806e-05 0.0 0.0 0.0 0.0
0.775 -1.1064883470535278 -0.18849682807922363 -9.443610906600952e-06 -6.6729262471199036e-06 0.0 0.0 0.0 0.0
0.776 -1.1082698106765747 -0.16479311883449554 -2.070888876914978e-05 -1.552421599626541e-05 0.0 0.0 0.0 0.0
0.777 -1.1091934442520142 -0.14098690450191498 -1.6072764992713928e-05 3.1348317861557007e-06 0.0 0.0 0.0 0.0
0.778 -1.109188437461853 -0.11807512491941452 1.1570751667022705e-05 -1.6868114471435547e-05 0.0 0.0 0.0 0.0
0.779 -1.1087315082550049 -0.09456697106361389 -8.172355592250824e-06 9.263865649700165e-06 0.0 0.0 0.0 0.0
0.78 -1.1080042123794556 -0.06926970183849335 -9.065493941307068e-06 -8.530914783477783e-06 0.0 0.0 0.0 0.0
0.781 -1.1067094802856445 -0.04453340545296669 -4.725530743598938e-06 -2.1741725504398346e-05 0.0 0.0 0.0 0.0
0.782 -1.1054534912109375 -0.020832911133766174 -1.2647360563278198e-06 1.537613570690155e-06 0.0 0.0 0.0 0.0
0.783 -1.1031525135040283 0.0009113457053899765 -1.498498022556305e-06 -8.10716301202774e-06 0.0 0.0 0.0 0.0
0.784 -1.0997878313064575 0.024466343224048615 -7.223337888717651e-06 2.2438354790210724e-05 0.0 0.0 0.0 0.0
0.785 -1.0963413715362549 0.04753241688013077 -1.219380646944046e-05 -3.970041871070862e-05 0.0 0.0 0.0 0.0
0.786 -1.092739224433899 0.07011457532644272 9.577721357345581e-06 1.0677613317966461e-05 0.0 0.0 0.0 0.0
0.787 -1.0880070924758911 0.09342484921216965 1.2498348951339722e-06 3.7727877497673035e-06 0.0 0.0 0.0 0.0
0.788 -1.082745909690857 0.11682870239019394 -4.357658326625824e-06 -2.7725473046302795e-06 0.0 0.0 0.0 0.0
0.789 -1.0775668621063232 0.13804833590984344 2.171844244003296e-06 7.79423862695694e-06 0.0 0.0 0.0 0.0
0.79 -1.071624994277954 0.16092374920845032 -1.2200325727462769e-05 1.587066799402237e-05 0.0 0.0 0.0 0.0
0.791 -1.0646311044692993 0.18328505754470825 -2.0116567611694336e-06 1.391582190990448e-05 0.0 0.0 0.0 0.0
0.792 -1.0575515031814575 0.2052927017211914 -1.6354024410247803e-06 -8.551403880119324e-06 0.0 0.0 0.0 0.0
0.793 -1.0505942106246948 0.22525107860565186 1.4923512935638428e-05 1.7181038856506348e-05 0.0 0.0 0.0 0.0
0.794 -1.0420162677764893 0.24771319329738617 1.0446645319461823e-05 1.4621764421463013e-07 0.0 0.0 0.0 0.0
0.795 -1.0336525440216064 0.26905301213264465 5.671754479408264e-06 -2.12816521525383e-05 0.0 0.0 0.0 0.0
0.796 -1.0250229835510254 0.2895137071609497 -6.314367055892944e-07 -8.246861398220062e-06 0.0 0.0 0.0 0.0
0.797 -1.015688180923462 0.31017953157424927 8.646398782730103e-06 6.7409127950668335e-06 0.0 0.0 0.0 0.0
0.798 -1.0057432651519775 0.33214229345321655 -7.615424692630768e-06 -1.1587515473365784e-05 0.0 0.0 0.0 0.0
0.799 -0.995685338973999 0.35092654824256897 -9.311363101005554e-06 -1.3257376849651337e-05 0.0 0.0 0.0 0.0
0.8 -0.9855037927627563 0.36944714188575745 -3.766268491744995e-06 -1.7466023564338684e-05 0.0 0.0 0.0 0.0
0.801 -0.9741247892379761 0.3887251615524292 2.4596229195594788e-06 3.444962203502655e-06 0.0 0.0 0.0 0.0
0.802 -0.9633615016937256 0.40698105096817017 2.3136846721172333e-05 2.355128526687622e-05 0.0 0.0 0.0 0.0
0.803 -0.9516976475715637 0.42560580372810364 -1.2569129467010498e-05 2.2697262465953827e-05 0.0 0.0 0.0 0.0
0.804 -0.9402668476104736 0.446780800819397 6.015412509441376e-06 -3.411993384361267e-05 0.0 0.0 0.0 0.0
0.805 -0.9275531768798828 0.46309471130371094 -3.60049307346344e-06 -1.5875324606895447e-05 0.0 0.0 0.0 0.0
0.806 -0.9149250388145447 0.48103398084640503 2.6337802410125732e-06 -1.130625605583191e-06 0.0 0.0 0.0 0.0
0.807 -0.9016299843788147 0.49731698632240295 2.2045336663722992e-05 1.6881152987480164e-05 0.0 0.0 0.0 0.0
0.808 -0.8891709446907043 0.5145158767700195 3.3834949135780334e-06 -1.2709759175777435e-05 0.0 0.0 0.0 0.0
0.809 -0.8750545978546143 0.5303059220314026 -2.356152981519699e-05 -1.1939555406570435e-06 0.0 0.0 0.0 0.0
0.81 -0.8598217964172363 0.5486978888511658 -7.502734661102295e-06 6.132759153842926e-06 0.0 0.0 0.0 0.0
0.811 -0.8464311957359314 0.5642728209495544 1.646392047405243e-05 2.886168658733368e-06 0.0 0.0 0.0 0.0
0.812 -0.8317126631736755 0.5796087384223938 8.540228009223938e-06 -1.780688762664795e-06 0.0 0.0 0.0 0.0
0.813 -0.8173477053642273 0.5948200821876526 -3.148801624774933e-06 1.050904393196106e-05 0.0 0.0 0.0 0.0
0.814 -0.8023868203163147 0.6092733144760132 7.017515599727631e-06 4.237983375787735e-05 0.0 0.0 0.0 0.0
0.815 -0.7873424887657166 0.6228169202804565 -2.346467226743698e-05 -1.830514520406723e-05 0.0 0.0 0.0 0.0
0.816 -0.7735217213630676 0.6366798877716064 6.886199116706848e-06 -1.3280659914016724e-06 0.0 0.0 0.0 0.0
0.817 -0.7562631964683533 0.6498644351959229 -1.7395243048667908e-05 -7.166527211666107e-06 0.0 0.0 0.0 0.0
0.818 -0.740498423576355 0.6630449295043945 -1.1555850505828857e-05 1.874379813671112e-05 0.0 0.0 0.0 0.0
0.819 -0.7235333323478699 0.6770044565200806 -1.0744668543338776e-05 -2.0499341189861298e-05 0.0 0.0 0.0 0.0
0.82 -0.7071105241775513 0.6893464922904968 -5.425885319709778e-06 3.632158041000366e-07 0.0 0.0 0.0 0.0
0.821 -0.6920529007911682 0.7002720832824707 -2.4310313165187836e-05 1.8841587007045746e-05 0.0 0.0 0.0 0.0
0.822 -0.6763038635253906 0.7131646871566772 8.195638656616211e-08 -7.715076208114624e-06 0.0 0.0 0.0 0.0
0.823 -0.6587296724319458 0.7237748503684998 3.711320459842682e-06 1.1060386896133423e-05 0.0 0.0 0.0 0.0
0.824 -0.6422232389450073 0.734021782875061 6.774440407752991e-06 -1.2721866369247437e-05 0.0 0.0 0.0 0.0
0.825 -0.62419593334198 0.7461069822311401 -7.358379662036896e-06 4.87547367811203e-06 0.0 0.0 0.0 0.0
0.826 -0.6063041090965271 0.7553983926773071 -9.170733392238617e-06 -3.2316893339157104e-06 0.0 0.0 0.0 0.0
0.827 -0.5898171663284302 0.7652161717414856 9.970739483833313e-06 -1.1156313121318817e-05 0.0 0.0 0.0 0.0
0.828 -0.5720812678337097 0.7732957005500793 -1.1484138667583466e-05 1.4211051166057587e-05 0.0 0.0 0.0 0.0
0.829 -0.5545632839202881 0.7833898067474365 4.752539098262787e-06 9.229406714439392e-06 0.0 0.0 0.0 0.0
0.83 -0.5377718806266785 0.7918044924736023 3.5027042031288147e-06 -1.1074356734752655e-05 0.0 0.0 0.0 0.0
0.831 -0.5186295509338379 0.8010956645011902 -4.456378519535065e-06 -3.2028183341026306e-06 0.0 0.0 0.0 0.0
0.832 -0.5015323758125305 0.8083905577659607 -8.52532684803009e-06 -3.742985427379608e-06 0.0 0.0 0.0 0.0
0.833 -0.48518288135528564 0.8147461414337158 -1.239776611328125e-05 -8.968636393547058e-07 0.0 0.0 0.0 0.0
0.834 -0.4666805863380432 0.8230052590370178 -1.130625605583191e-06 -1.9500963389873505e-05 0.0 0.0 0.0 0.0
0.835 -0.4473925530910492 0.8295044898986816 -1.1026859283447266e-06 -3.3061951398849487e-06 0.0 0.0 0.0 0.0
0.836 -0.43069887161254883 0.8355762362480164 2.1995045244693756e-05 -2.1588988602161407e-05 0.0 0.0 0.0 0.0
0.837 -0.41196030378341675 0.842303454875946 3.0452385544776917e-05 -1.1920928955078125e-06 0.0 0.0 0.0 0.0
0.838 -0.39383092522621155 0.8466322422027588 -1.0959804058074951e-05 3.19136306643486e-05 0.0 0.0 0.0 0.0
0.839 -0.37664321064949036 0.8524569869041443 -1.2227334082126617e-05 -1.7296522855758667e-05 0.0 0.0 0.0 0.0
0.84 -0.3575596213340759 0.8565239310264587 -1.1147931218147278e-06 -1.323409378528595e-05 0.0 0.0 0.0 0.0
0.841 -0.3379790186882019 0.861907422542572 1.641456037759781e-05 1.1508353054523468e-05 0.0 0.0 0.0 0.0
0.842 -0.32076317071914673 0.8670448660850525 -9.700655937194824e-06 1.2448057532310486e-05 0.0 0.0 0.0 0.0
0.843 -0.30283644795417786 0.8700215816497803 1.5087425708770752e-07 9.446404874324799e-06 0.0 0.0 0.0 0.0
0.844 -0.2849249839782715 0.8736417889595032 1.1436641216278076e-06 2.0995736122131348e-05 0.0 0.0 0.0 0.0
0.845 -0.2669386863708496 0.8767316341400146 1.539662480354309e-05 1.0866671800613403e-05 0.0 0.0 0.0 0.0
0.846 -0.24871204793453217 0.879368245601654 -1.0165385901927948e-05 1.2197531759738922e-05 0.0 0.0 0.0 0.0
0.847 -0.23095285892486572 0.8823697566986084 7.598660886287689e-06 -5.017966032028198e-06 0.0 0.0 0.0 0.0
0.848 -0.2131045013666153 0.884530782699585 2.0381994545459747e-05 -2.789311110973358e-06 0.0 0.0 0.0 0.0
0.849 -0.19426971673965454 0.8871745467185974 -2.108141779899597e-05 1.1527910828590393e-05 0.0 0.0 0.0 0.0
0.85 -0.17619363963603973 0.8879679441452026 -4.3585896492004395e-06 -2.1979212760925293e-05 0.0 0.0 0.0 0.0
0.851 -0.1579013168811798 0.889601469039917 7.536262273788452e-06 -2.0246952772140503e-06 0.0 0.0 0.0 0.0
0.852 -0.14163295924663544 0.8901626467704773 -3.742985427379608e-06 -3.045424818992615e-07 0.0 0.0 0.0 0.0
0.853 -0.12354965507984161 0.8902680277824402 7.826834917068481e-06 -6.21844083070755e-06 0.0 0.0 0.0 0.0
0.854 -0.1054857149720192 0.8907487988471985 9.734183549880981e-06 -9.756535291671753e-06 0.0 0.0 0.0 0.0
0.855 -0.08770881593227386 0.8904844522476196 -2.098269760608673e-06 2.1451152861118317e-05 0.0 0.0 0.0 0.0
0.856 -0.06950557231903076 0.8899524211883545 -6.5444037318229675e-06 -3.4151598811149597e-06 0.0 0.0 0.0 0.0
0.857 -0.051200564950704575 0.8895984292030334 -8.521601557731628e-07 1.56499445438385e-05 0.0 0.0 0.0 0.0
0.858 -0.034125011414289474 0.8878092765808105 -1.3194046914577484e-05 -5.007721483707428e-06 0.0 0.0 0.0 0.0
0.859 -0.016370095312595367 0.8881419897079468 -1.3692304491996765e-05 1.8358230590820312e-05 0.0 0.0 0.0 0.0
0.86 -0.0008562495931982994 0.8861874938011169 1.5558674931526184e-05 1.404155045747757e-05 0.0 0.0 0.0 0.0
0.861 0.017273837700486183 0.8847858309745789 -4.050694406032562e-05 -1.7259269952774048e-05 0.0 0.0 0.0 0.0
0.862 0.03385663032531738 0.8819580674171448 6.813555955886841e-06 -1.6178004443645477e-05 0.0 0.0 0.0 0.0
0.863 0.05141741782426834 0.879480242729187 -1.5920959413051605e-05 1.8123537302017212e-06 0.0 0.0 0.0 0.0
0.864 0.06909023225307465 0.8771223425865173 -2.1265819668769836e-05 -8.510425686836243e-06 0.0 0.0 0.0 0.0
0.865 0.08664970844984055 0.8746392726898193 1.7297454178333282e-05 -2.8998591005802155e-05 0.0 0.0 0.0 0.0
0.866 0.10370127856731415 0.8705790638923645 -2.0503997802734375e-05 1.2712553143501282e-05 0.0 0.0 0.0 0.0
0.867 0.11958390474319458 0.8674349784851074 -2.3079104721546173e-05 -1.067575067281723e-05 0.0 0.0 0.0 0.0
0.868 0.13711950182914734 0.8636011481285095 -5.861744284629822e-06 2.911314368247986e-06 0.0 0.0 0.0 0.0
0.869 0.1520763337612152 0.8595829010009766 -1.7413869500160217e-05 -2.1969899535179138e-05 0.0 0.0 0.0 0.0
0.87 0.16926118731498718 0.8550874590873718 5.288049578666687e-06 -2.000853419303894e-05 0.0 0.0 0.0 0.0
0.871 0.1858169287443161 0.8508569002151489 -1.4698132872581482e-05 -6.948597729206085e-06 0.0 0.0 0.0 0.0
0.872 0.20215149223804474 0.8451986312866211 -2.0053237676620483e-05 1.091696321964264e-05 0.0 0.0 0.0 0.0
0.873 0.21769660711288452 0.8403586149215698 -1.7918646335601807e-06 -4.675239324569702e-06 0.0 0.0 0.0 0.0
0.874 0.2332858294248581 0.8360920548439026 -2.5190412998199463e-05 9.98377799987793e-07 0.0 0.0 0.0 0.0
0.875 0.25043734908103943 0.8298131823539734 9.106472134590149e-06 -4.674308001995087e-06 0.0 0.0 0.0 0.0
0.876 0.2652992010116577 0.8228693008422852 -3.298372030258179e-05 -7.771886885166168e-06 0.0 0.0 0.0 0.0
0.877 0.28012391924858093 0.8188450336456299 -2.6114284992218018e-06 -1.3513490557670593e-06 0.0 0.0 0.0 0.0
0.878 0.2946435511112213 0.8126187324523926 -2.405606210231781e-06 1.4812685549259186e-05 0.0 0.0 0.0 0.0
0.879 0.31211477518081665 0.8057276606559753 -1.008063554763794e-05 6.609596312046051e-06 0.0 0.0 0.0 0.0
0.88 0.32822588086128235 0.7986636161804199 -1.4419667422771454e-05 -1.8102116882801056e-05 0.0 0.0 0.0 0.0
0.881 0.3424485921859741 0.792039692401886 -2.865120768547058e-05 1.4263205230236053e-05 0.0 0.0 0.0 0.0
0.882 0.35781511664390564 0.7842602729797363 -1.6353093087673187e-05 -2.602115273475647e-06 0.0 0.0 0.0 0.0
0.883 0.37172627449035645 0.7770538926124573 -1.8761493265628815e-05 7.655471563339233e-06 0.0 0.0 0.0 0.0
0.884 0.3866930902004242 0.7696739435195923 7.675960659980774e-06 2.0079314708709717e-06 0.0 0.0 0.0 0.0
0.885 0.4000955820083618 0.7615285515785217 7.763504981994629e-06 1.659151166677475e-05 0.0 0.0 0.0 0.0
0.886 0.4150467813014984 0.7538629174232483 1.5521422028541565e-05 -1.1268071830272675e-05 0.0 0.0 0.0 0.0
0.887 0.43106284737586975 0.7446528673171997 -1.1059455573558807e-05 2.9169023036956787e-06 0.0 0.0 0.0 0.0
0.888 0.4436872899532318 0.7368232607841492 -2.6231631636619568e-05 -3.978610038757324e-06 0.0 0.0 0.0 0.0
0.889 0.4582403302192688 0.7273066639900208 1.2508593499660492e-05 1.1325813829898834e-05 0.0 0.0 0.0 0.0
0.89 0.4719868302345276 0.7191986441612244 1.6940757632255554e-06 -7.320195436477661e-07 0.0 0.0 0.0 0.0
0.891 0.4844578504562378 0.7099894881248474 1.271907240152359e-05 1.479126513004303e-05 0.0 0.0 0.0 0.0
0.892 0.49797579646110535 0.7006556391716003 -6.5015628933906555e-06 1.160893589258194e-05 0.0 0.0 0.0 0.0
0.893 0.5111922025680542 0.6911637187004089 -6.4158812165260315e-06 1.1257827281951904e-05 0.0 0.0 0.0 0.0
0.894 0.5261580944061279 0.6816352009773254 -8.05780291557312e-06 -2.421252429485321e-05 0.0 0.0 0.0 0.0
0.895 0.5381888747215271 0.6717119216918945 -7.799826562404633e-06 -3.7169083952903748e-06 0.0 0.0 0.0 0.0
0.896 0.5515771508216858 0.661716103553772 2.215895801782608e-05 1.1856667697429657e-05 0.0 0.0 0.0 0.0
0.897 0.5635328888893127 0.6511138677597046 -2.48616561293602e-05 -3.106705844402313e-05 0.0 0.0 0.0 0.0
0.898 0.5768367052078247 0.6397780776023865 -2.4065375328063965e-06 -2.766028046607971e-06 0.0 0.0 0.0 0.0
0.899 0.5875520706176758 0.6305458545684814 1.9241124391555786e-05 6.834045052528381e-06 0.0 0.0 0.0 0.0
0.9 0.599514365196228 0.6183048486709595 -9.937211871147156e-07 7.241964340209961e-06 0.0 0.0 0.0 0.0
0.901 0.6117171049118042 0.6080114841461182 2.1739862859249115e-05 -7.506459951400757e-07 0.0 0.0 0.0 0.0
0.902 0.6246416568756104 0.5967587232589722 -1.1506490409374237e-05 6.658025085926056e-06 0.0 0.0 0.0 0.0
0.903 0.6368103623390198 0.583810031414032 -5.5693089962005615e-06 2.9217451810836792e-05 0.0 0.0 0.0 0.0
0.904 0.6476951837539673 0.5726813673973083 -3.080815076828003e-05 2.400018274784088e-06 0.0 0.0 0.0 0.0
0.905 0.658745527267456 0.5613517761230469 -4.190951585769653e-06 -1.991167664527893e-06 0.0 0.0 0.0 0.0
0.906 0.6689343452453613 0.5496112108230591 -2.6703812181949615e-05 2.3934058845043182e-05 0.0 0.0 0.0 0.0
0.907 0.6801354885101318 0.5375540256500244 1.8865801393985748e-05 -2.624746412038803e-05 0.0 0.0 0.0 0.0
0.908 0.6911101937294006 0.524643063545227 1.0767951607704163e-05 -8.90437513589859e-06 0.0 0.0 0.0 0.0
0.909 0.7011331915855408 0.5121580958366394 2.5303103029727936e-05 1.545250415802002e-05 0.0 0.0 0.0 0.0
0.91 0.7123624086380005 0.4989672303199768 3.2223761081695557e-06 -3.520399332046509e-06 0.0 0.0 0.0 0.0
0.911 0.721449077129364 0.48798707127571106 -1.5529803931713104e-05 6.898306310176849e-06 0.0 0.0 0.0 0.0
0.912 0.7312413454055786 0.4722839593887329 1.0659918189048767e-05 -1.1255964636802673e-05 0.0 0.0 0.0 0.0
0.913 0.7415885925292969 0.4599711298942566 6.4997002482414246e-06 -1.0505318641662598e-05 0.0 0.0 0.0 0.0
0.914 0.7509638667106628 0.44708630442619324 -1.1310912668704987e-05 4.070717841386795e-05 0.0 0.0 0.0 0.0
0.915 0.7600759863853455 0.43288666009902954 -2.6943162083625793e-06 -1.6298145055770874e-06 0.0 0.0 0.0 0.0
0.916 0.7694177031517029 0.4194117486476898 1.671537756919861e-05 -1.775100827217102e-05 0.0 0.0 0.0 0.0
0.917 0.7783024907112122 0.40515100955963135 1.4980323612689972e-05 1.7807818949222565e-05 0.0 0.0 0.0 0.0
0.918 0.7875422239303589 0.3921404778957367 1.647789031267166e-05 5.7211145758628845e-06 0.0 0.0 0.0 0.0
0.919 0.7962560653686523 0.3768146336078644 1.9993633031845093e-05 5.932524800300598e-07 0.0 0.0 0.0 0.0
0.92 0.8037337064743042 0.36291706562042236 -9.06083732843399e-06 -1.628883183002472e-06 0.0 0.0 0.0 0.0
0.921 0.8114049434661865 0.3481452465057373 -2.5957822799682617e-05 -1.462642103433609e-05 0.0 0.0 0.0 0.0
0.922 0.819047212600708 0.3345612585544586 -5.00120222568512e-06 -2.980232238769531e-07 0.0 0.0 0.0 0.0
0.923 0.8268263936042786 0.319193571805954 2.8994865715503693e-05 -1.2306496500968933e-05 0.0 0.0 0.0 0.0
0.924 0.834134042263031 0.3031509518623352 -3.273598849773407e-06 -6.314367055892944e-07 0.0 0.0 0.0 0.0
0.925 0.8413462042808533 0.289259135723114 1.5087425708770752e-07 3.2139942049980164e-05 0.0 0.0 0.0 0.0
0.926 0.84820955991745 0.27345919609069824 1.2693926692008972e-06 1.7813406884670258e-05 0.0 0.0 0.0 0.0
0.927 0.8553752899169922 0.2586582601070404 6.318092346191406e-06 -2.029724419116974e-05 0.0 0.0 0.0 0.0
0.928 0.8608216643333435 0.24315021932125092 -2.6880763471126556e-05 -6.6552311182022095e-06 0.0 0.0 0.0 0.0
0.929 0.8672140836715698 0.22813737392425537 8.234754204750061e-06 -2.3583881556987762e-05 0.0 0.0 0.0 0.0
0.93 0.8729407787322998 0.21241320669651031 -1.947302371263504e-05 -1.4842487871646881e-05 0.0 0.0 0.0 0.0
0.931 0.8785741329193115 0.19537289440631866 1.9161030650138855e-05 4.512816667556763e-05 0.0 0.0 0.0 0.0
0.932 0.8838104009628296 0.18003781139850616 3.591272979974747e-05 7.597729563713074e-06 0.0 0.0 0.0 0.0
0.933 0.8892720937728882 0.16328535974025726 -1.4998950064182281e-05 1.5768222510814667e-05 0.0 0.0 0.0 0.0
0.934 0.8944199085235596 0.14952731132507324 -1.2475065886974335e-05 -1.9043684005737305e-05 0.0 0.0 0.0 0.0
0.935 0.8987263441085815 0.1316218376159668 7.312744855880737e-06 -1.681782305240631e-05 0.0 0.0 0.0 0.0
0.936 0.9021404385566711 0.11530692875385284 5.520880222320557e-06 1.0682269930839539e-05 0.0 0.0 0.0 0.0
0.937 0.9066749215126038 0.09906960278749466 -1.065712422132492e-05 -1.9665807485580444e-05 0.0 0.0 0.0 0.0
0.938 0.9108542203903198 0.0825318843126297 -9.463168680667877e-06 -3.876909613609314e-05 0.0 0.0 0.0 0.0
0.939 0.9141131043434143 0.06470813602209091 -3.3867545425891876e-05 -2.2666528820991516e-05 0.0 0.0 0.0 0.0
0.94 0.9182686805725098 0.047954462468624115 5.522742867469788e-07 -1.877080649137497e-05 0.0 0.0 0.0 0.0
0.941 0.9209453463554382 0.030971553176641464 3.71420755982399e-05 1.2041069567203522e-05 0.0 0.0 0.0 0.0
0.942 0.9236270189285278 0.01532941684126854 2.6102177798748016e-05 -1.2642703950405121e-05 0.0 0.0 0.0 0.0
0.943 0.9259138703346252 -0.004536360502243042 1.0563991963863373e-05 -2.1221116185188293e-05 0.0 0.0 0.0 0.0
0.944 0.9276195764541626 -0.01950722187757492 1.926068216562271e-05 -2.5527551770210266e-06 0.0 0.0 0.0 0.0
0.945 0.9290441870689392 -0.03786950185894966 1.5003606677055359e-06 3.468245267868042e-06 0.0 0.0 0.0 0.0
0.946 0.9314393997192383 -0.05530523508787155 1.0341405868530273e-05 -1.6254372894763947e-05 0.0 0.0 0.0 0.0
0.947 0.9322927594184875 -0.07409876585006714 -2.968776971101761e-05 5.149282515048981e-06 0.0 0.0 0.0 0.0
0.948 0.9321640133857727 -0.08974365144968033 -3.2180920243263245e-05 9.590759873390198e-06 0.0 0.0 0.0 0.0
0.949 0.9337318539619446 -0.1076846495270729 -9.81893390417099e-06 2.60230153799057e-05 0.0 0.0 0.0 0.0
0.95 0.9342098832130432 -0.12495884299278259 -4.286877810955048e-06 -2.9811635613441467e-05 0.0 0.0 0.0 0.0
0.951 0.9338732957839966 -0.14338111877441406 -3.432855010032654e-06 7.878057658672333e-06 0.0 0.0 0.0 0.0
0.952 0.9331751465797424 -0.1615361124277115 6.981194019317627e-06 3.3285468816757202e-06 0.0 0.0 0.0 0.0
0.953 0.932425856590271 -0.18018598854541779 1.878105103969574e-05 3.4224241971969604e-05 0.0 0.0 0.0 0.0
0.954 0.9318870902061462 -0.19788764417171478 -1.0899268090724945e-05 -4.312954843044281e-06 0.0 0.0 0.0 0.0
0.955 0.9303319454193115 -0.21582481265068054 -1.3034790754318237e-05 -7.838942110538483e-06 0.0 0.0 0.0 0.0
0.956 0.9288876056671143 -0.2332572638988495 1.4497898519039154e-05 -3.4868717193603516e-06 0.0 0.0 0.0 0.0
0.957 0.9266433715820312 -0.25189968943595886 2.2668391466140747e-06 -9.898096323013306e-06 0.0 0.0 0.0 0.0
0.958 0.923875093460083 -0.26971498131752014 -1.2052245438098907e-05 -7.623806595802307e-06 0.0 0.0 0.0 0.0
0.959 0.9213398694992065 -0.2877219021320343 2.120155841112137e-05 3.0423514544963837e-05 0.0 0.0 0.0 0.0
0.96 0.9178825616836548 -0.30690282583236694 -9.926967322826385e-06 -1.0813586413860321e-05 0.0 0.0 0.0 0.0
0.961 0.9154869318008423 -0.32334408164024353 2.0827166736125946e-05 1.2407079339027405e-05 0.0 0.0 0.0 0.0
0.962 0.9113878607749939 -0.3417581617832184 2.7322210371494293e-05 8.324161171913147e-06 0.0 0.0 0.0 0.0
0.963 0.9073155522346497 -0.35955920815467834 2.837739884853363e-06 1.4141201972961426e-05 0.0 0.0 0.0 0.0
0.964 0.902077853679657 -0.3786449730396271 1.0417774319648743e-05 1.967698335647583e-05 0.0 0.0 0.0 0.0
0.965 0.8970848917961121 -0.39728251099586487 1.2200325727462769e-07 2.710241824388504e-05 0.0 0.0 0.0 0.0
0.966 0.8919212818145752 -0.4164259135723114 -9.75094735622406e-06 -1.1537224054336548e-05 0.0 0.0 0.0 0.0
0.967 0.8867027163505554 -0.43283313512802124 3.7606805562973022e-06 4.301406443119049e-05 0.0 0.0 0.0 0.0
0.968 0.880206823348999 -0.4514608085155487 -2.7866102755069733e-05 -1.842062920331955e-05 0.0 0.0 0.0 0.0
0.969 0.8750095367431641 -0.46813100576400757 1.7022714018821716e-05 -1.198984682559967e-05 0.0 0.0 0.0 0.0
0.97 0.8668831586837769 -0.48792198300361633 -2.3028813302516937e-05 -4.433095455169678e-06 0.0 0.0 0.0 0.0
0.971 0.8602365851402283 -0.5045933127403259 -2.6514753699302673e-06 2.1807849407196045e-05 0.0 0.0 0.0 0.0
0.972 0.8529993891716003 -0.522662878036499 -6.746500730514526e-06 7.818453013896942e-06 0.0 0.0 0.0 0.0
0.973 0.8440628051757812 -0.5409790873527527 2.321135252714157e-05 2.8545968234539032e-05 0.0 0.0 0.0 0.0
0.974 0.8358306288719177 -0.5583780407905579 1.6287900507450104e-05 -7.81472772359848e-06 0.0 0.0 0.0 0.0
0.975 0.8271225094795227 -0.5760221481323242 -1.979433000087738e-05 -1.8190592527389526e-05 0.0 0.0 0.0 0.0
0.976 0.818714439868927 -0.5925052762031555 -1.9138678908348083e-06 -1.8899329006671906e-05 0.0 0.0 0.0 0.0
0.977 0.8097754120826721 -0.6094815135002136 2.8388574719429016e-05 3.261305391788483e-05 0.0 0.0 0.0 0.0
0.978 0.7994204759597778 -0.6259304881095886 -3.310106694698334e-05 9.846873581409454e-06 0.0 0.0 0.0 0.0
0.979 0.7885569334030151 -0.6434288024902344 -2.3311935365200043e-05 -1.5330500900745392e-05 0.0 0.0 0.0 0.0
0.98 0.778042733669281 -0.6608862280845642 -1.2502074241638184e-05 -1.0721385478973389e-05 0.0 0.0 0.0 0.0
0.981 0.7669716477394104 -0.6779442429542542 -5.3783878684043884e-06 4.1962601244449615e-05 0.0 0.0 0.0 0.0
0.982 0.7552158832550049 -0.6946791410446167 1.4712102711200714e-05 2.7008354663848877e-08 0.0 0.0 0.0 0.0
0.983 0.7439382672309875 -0.7111009955406189 -1.2011267244815826e-05 1.3017095625400543e-05 0.0 0.0 0.0 0.0
0.984 0.7329393625259399 -0.7262688279151917 -2.0670704543590546e-05 -8.597038686275482e-06 0.0 0.0 0.0 0.0
0.985 0.7182571291923523 -0.7428470253944397 -2.7946196496486664e-05 5.9623271226882935e-06 0.0 0.0 0.0 0.0
0.986 0.7038578391075134 -0.7598884701728821 -1.1628493666648865e-05 8.728355169296265e-06 0.0 0.0 0.0 0.0
0.987 0.6921971440315247 -0.7735826373100281 2.634432166814804e-05 6.73346221446991e-07 0.0 0.0 0.0 0.0
0.988 0.6774149537086487 -0.7897875308990479 1.781061291694641e-05 -1.4742836356163025e-05 0.0 0.0 0.0 0.0
0.989 0.6632258296012878 -0.8051882982254028 1.062639057636261e-05 -2.0601786673069e-05 0.0 0.0 0.0 0.0
0.99 0.6476634740829468 -0.8198938369750977 2.0614825189113617e-05 -3.627873957157135e-05 0.0 0.0 0.0 0.0
0.991 0.633985161781311 -0.834321916103363 2.117455005645752e-05 4.155561327934265e-06 0.0 0.0 0.0 0.0
0.992 0.6194134950637817 -0.8480508923530579 3.353692591190338e-06 -2.1700747311115265e-05 0.0 0.0 0.0 0.0
0.993 0.6023421883583069 -0.8624706268310547 -1.2995675206184387e-05 -8.736737072467804e-06 0.0 0.0 0.0 0.0
0.994 0.5859115719795227 -0.8760218024253845 -3.734603524208069e-06 -1.0440126061439514e-06 0.0 0.0 0.0 0.0
0.995 0.570423424243927 -0.8886299729347229 -8.273869752883911e-06 1.0896474123001099e-07 0.0 0.0 0.0 0.0
0.996 0.552205502986908 -0.9031360745429993 8.361414074897766e-06 -1.9155442714691162e-05 0.0 0.0 0.0 0.0
0.997 0.5355127453804016 -0.9149532914161682 -1.459568738937378e-05 1.4575198292732239e-05 0.0 0.0 0.0 0.0
0.998 0.5168238878250122 -0.9284688234329224 -2.139247953891754e-05 6.31529837846756e-06 0.0 0.0 0.0 0.0
0.999 0.4996984302997589 -0.9396530389785767 -2.0405277609825134e-06 1.873355358839035e-05 0.0 0.0 0.0 0.0
1.0 0.48221370577812195 -0.9505888223648071 -1.008063554763794e-05 -2.766493707895279e-05 0.0 0.0 0.0 0.0
1.001 0.4642670452594757 -0.9611411690711975 3.236345946788788e-06 -2.146698534488678e-05 0.0 0.0 0.0 0.0
1.002 0.445316880941391 -0.9739459753036499 -3.042910248041153e-05 -1.0767020285129547e-05 0.0 0.0 0.0 0.0
1.003 0.42493513226509094 -0.9830828309059143 1.2323260307312012e-05 -1.3428740203380585e-05 0.0 0.0 0.0 0.0
1.004 0.40606871247291565 -0.9930312037467957 3.641471266746521e-07 -7.400289177894592e-06 0.0 0.0 0.0 0.0
1.005 0.3850911855697632 -1.0037113428115845 -1.1465512216091156e-05 -7.2820112109184265e-06 0.0 0.0 0.0 0.0
1.006 0.36657145619392395 -1.0114796161651611 1.6153790056705475e-05 -1.7375685274600983e-05 0.0 0.0 0.0 0.0
1.007 0.3450663983821869 -1.019926905632019 2.288166433572769e-05 3.0035153031349182e-05 0.0 0.0 0.0 0.0
1.008 0.32430797815322876 -1.0282609462738037 1.451931893825531e-05 -1.1657364666461945e-05 0.0 0.0 0.0 0.0
1.009 0.3026219606399536 -1.0356404781341553 2.7523376047611237e-05 -8.838251233100891e-07 0.0 0.0 0.0 0.0
1.01 0.2821046710014343 -1.0438292026519775 -1.0591931641101837e-05 -1.7308630049228668e-05 0.0 0.0 0.0 0.0
1.011 0.26133760809898376 -1.0511603355407715 1.3130716979503632e-05 1.9548460841178894e-06 0.0 0.0 0.0 0.0
1.012 0.2395910918712616 -1.0568957328796387 -4.2943283915519714e-06 -1.041218638420105e-05 0.0 0.0 0.0 0.0
1.013 0.21801067888736725 -1.0613681077957153 -1.1203810572624207e-05 2.4810433387756348e-06 0.0 0.0 0.0 0.0
1.014 0.19205428659915924 -1.0679562091827393 7.575377821922302e-06 -1.103617250919342e-05 0.0 0.0 0.0 0.0
1.015 0.17387349903583527 -1.0708239078521729 3.483332693576813e-05 -6.983056664466858e-06 0.0 0.0 0.0 0.0
1.016 0.14933323860168457 -1.0762602090835571 3.1818635761737823e-05 -1.5665777027606964e-05 0.0 0.0 0.0 0.0
1.017 0.12682349979877472 -1.0786635875701904 -1.4751218259334564e-05 2.7706846594810486e-06 0.0 0.0 0.0 0.0
1.018 0.10481955111026764 -1.0826822519302368 3.269873559474945e-06 3.958120942115784e-06 0.0 0.0 0.0 0.0
1.019 0.08351602405309677 -1.0853184461593628 9.834766387939453e-06 -1.7552636563777924e-05 0.0 0.0 0.0 0.0
1.02 0.058042749762535095 -1.085403323173523 1.7471611499786377e-05 -1.0271556675434113e-05 0.0 0.0 0.0 0.0
1.021 0.03758310154080391 -1.0866045951843262 2.5402754545211792e-05 -2.2817403078079224e-07 0.0 0.0 0.0 0.0
1.022 0.014003782533109188 -1.0888617038726807 -1.0595656931400299e-05 1.9371509552001953e-06 0.0 0.0 0.0 0.0
1.023 -0.008926142938435078 -1.087725281715393 1.9045546650886536e-06 1.540500670671463e-05 0.0 0.0 0.0 0.0
1.024 -0.03340212628245354 -1.0879158973693848 -7.634051144123077e-06 1.2284144759178162e-06 0.0 0.0 0.0 0.0
1.025 -0.055675704032182693 -1.0864700078964233 4.07462939620018e-05 -8.036382496356964e-06 0.0 0.0 0.0 0.0
1.026 -0.07825889438390732 -1.086154580116272 -3.4533441066741943e-06 -1.6909092664718628e-05 0.0 0.0 0.0 0.0
1.027 -0.10362531989812851 -1.0837726593017578 2.2007152438163757e-06 3.011990338563919e-05 0.0 0.0 0.0 0.0
1.028 -0.12393715232610703 -1.081212043762207 2.717692404985428e-05 -1.0563991963863373e-05 0.0 0.0 0.0 0.0
1.029 -0.1469564586877823 -1.0767775774002075 1.9303523004055023e-05 -1.774262636899948e-05 0.0 0.0 0.0 0.0
1.03 -0.16966691613197327 -1.073351502418518 1.8574297428131104e-05 3.741122782230377e-06 0.0 0.0 0.0 0.0
1.031 -0.19179758429527283 -1.0692790746688843 -3.0938535928726196e-06 -2.0028091967105865e-05 0.0 0.0 0.0 0.0
1.032 -0.2180253267288208 -1.062648892402649 1.4951452612876892e-05 -6.4838677644729614e-06 0.0 0.0 0.0 0.0
1.033 -0.23874881863594055 -1.0581952333450317 -1.9521452486515045e-05 -3.598630428314209e-06 0.0 0.0 0.0 0.0
1.034 -0.26074984669685364 -1.0517371892929077 1.5390105545520782e-05 -4.038121551275253e-05 0.0 0.0 0.0 0.0
1.035 -0.2835672199726105 -1.045208215713501 1.4615245163440704e-05 -2.8456561267375946e-05 0.0 0.0 0.0 0.0
1.036 -0.30676427483558655 -1.0361194610595703 -2.2864900529384613e-05 -4.751607775688171e-06 0.0 0.0 0.0 0.0
1.037 -0.32791128754615784 -1.029335379600525 -1.0975636541843414e-05 -1.4356337487697601e-05 0.0 0.0 0.0 0.0
1.038 -0.3500460982322693 -1.020803689956665 -5.840323865413666e-06 -3.414694219827652e-05 0.0 0.0 0.0 0.0
1.039 -0.37179824709892273 -1.011056661605835 -8.242204785346985e-07 -1.271907240152359e-05 0.0 0.0 0.0 0.0
1.04 -0.39301976561546326 -1.0009018182754517 -1.7395243048667908e-05 2.126488834619522e-05 0.0 0.0 0.0 0.0
1.041 -0.4139268398284912 -0.9904504418373108 1.8347054719924927e-05 -8.828938007354736e-06 0.0 0.0 0.0 0.0
1.042 -0.4322333335876465 -0.9820548892021179 -9.695068001747131e-06 -7.018446922302246e-06 0.0 0.0 0.0 0.0
1.043 -0.45292386412620544 -0.969964861869812 1.1448748409748077e-05 6.27618283033371e-06 0.0 0.0 0.0 0.0
1.044 -0.47460171580314636 -0.9577313661575317 -1.3840384781360626e-05 -2.969987690448761e-06 0.0 0.0 0.0 0.0
1.045 -0.4945068657398224 -0.9457027912139893 -1.1787749826908112e-05 -1.2694858014583588e-05 0.0 0.0 0.0 0.0
1.046 -0.5138228535652161 -0.9328312873840332 1.7705373466014862e-05 2.3096799850463867e-06 0.0 0.0 0.0 0.0
1.047 -0.5319148898124695 -0.9209832549095154 -4.81773167848587e-06 4.989095032215118e-06 0.0 0.0 0.0 0.0
1.048 -0.5504891276359558 -0.9060047268867493 2.2333115339279175e-05 -1.774076372385025e-05 0.0 0.0 0.0 0.0
1.049 -0.5684687495231628 -0.8921544551849365 6.656162440776825e-06 2.882443368434906e-06 0.0 0.0 0.0 0.0
1.05 -0.5865720510482788 -0.8764271140098572 5.587935447692871e-06 6.735324859619141e-06 0.0 0.0 0.0 0.0
1.051 -0.604159951210022 -0.8626510500907898 6.784684956073761e-06 -2.270098775625229e-05 0.0 0.0 0.0 0.0
1.052 -0.6237382888793945 -0.8448067903518677 -2.640020102262497e-05 -3.5297125577926636e-07 0.0 0.0 0.0 0.0
1.053 -0.6401036381721497 -0.8301745057106018 2.516433596611023e-05 -1.3715587556362152e-05 0.0 0.0 0.0 0.0
1.054 -0.6551382541656494 -0.8146975636482239 3.350060433149338e-05 -4.065968096256256e-05 0.0 0.0 0.0 0.0
1.055 -0.6707867383956909 -0.798333466053009 -2.7894042432308197e-05 -2.6807188987731934e-05 0.0 0.0 0.0 0.0
1.056 -0.6862990856170654 -0.7821668982505798 -4.469417035579681e-06 -1.1401250958442688e-05 0.0 0.0 0.0 0.0
1.057 -0.7003862857818604 -0.7634944319725037 -5.75091689825058e-06 7.71787017583847e-06 0.0 0.0 0.0 0.0
1.058 -0.7168915867805481 -0.7443993091583252 6.102956831455231e-06 2.068188041448593e-05 0.0 0.0 0.0 0.0
1.059 -0.7297254204750061 -0.7297214269638062 1.902412623167038e-05 -1.7902813851833344e-05 0.0 0.0 0.0 0.0
1.06 -0.7445390820503235 -0.7087507843971252 -1.1460855603218079e-05 1.0943040251731873e-06 0.0 0.0 0.0 0.0
1.061 -0.7575708031654358 -0.6908140778541565 -5.714595317840576e-06 -2.0131468772888184e-05 0.0 0.0 0.0 0.0
1.062 -0.7695441842079163 -0.6723390221595764 -9.033828973770142e-07 2.8089620172977448e-05 0.0 0.0 0.0 0.0
1.063 -0.7814573645591736 -0.6528776288032532 -5.377456545829773e-06 4.7907233238220215e-06 0.0 0.0 0.0 0.0
1.064 -0.7923555970191956 -0.6348129510879517 1.4516524970531464e-05 2.2528693079948425e-06 0.0 0.0 0.0 0.0
1.065 -0.8028239607810974 -0.6146539449691772 1.696869730949402e-05 -1.4085322618484497e-05 0.0 0.0 0.0 0.0
1.066 -0.8145788908004761 -0.59369957447052 -1.9214116036891937e-05 -3.0314549803733826e-06 0.0 0.0 0.0 0.0
1.067 -0.8244978785514832 -0.5744835138320923 -1.392606645822525e-05 -2.9491260647773743e-05 0.0 0.0 0.0 0.0
1.068 -0.8349245190620422 -0.5546647906303406 2.27196142077446e-05 2.1467916667461395e-05 0.0 0.0 0.0 0.0
1.069 -0.8427861928939819 -0.534380316734314 2.281181514263153e-05 9.316951036453247e-06 0.0 0.0 0.0 0.0
1.07 -0.8504515290260315 -0.5146886110305786 1.8034130334854126e-05 -1.6026198863983154e-05 0.0 0.0 0.0 0.0
1.071 -0.8576328754425049 -0.49375119805336 4.367902874946594e-06 7.416121661663055e-06 0.0 0.0 0.0 0.0
1.072 -0.8656743764877319 -0.47291791439056396 4.752539098262787e-06 -1.1589378118515015e-05 0.0 0.0 0.0 0.0
1.073 -0.8725559711456299 -0.45175379514694214 -6.466172635555267e-06 -1.155119389295578e-05 0.0 0.0 0.0 0.0
1.074 -0.8794755339622498 -0.43191102147102356 7.870607078075409e-06 2.3690052330493927e-05 0.0 0.0 0.0 0.0
1.075 -0.884514331817627 -0.41104844212532043 -2.5285407900810242e-05 -5.354173481464386e-06 0.0 0.0 0.0 0.0
1.076 -0.8900670409202576 -0.39040499925613403 7.352791726589203e-06 -3.218371421098709e-05 0.0 0.0 0.0 0.0
1.077 -0.8947702050209045 -0.36863040924072266 6.643123924732208e-06 2.4906359612941742e-05 0.0 0.0 0.0 0.0
1.078 -0.8982667922973633 -0.3494405746459961 -3.4924596548080444e-07 -2.019386738538742e-05 0.0 0.0 0.0 0.0
1.079 -0.9032254815101624 -0.32545846700668335 1.896824687719345e-05 1.6205012798309326e-07 0.0 0.0 0.0 0.0
1.08 -0.9062525629997253 -0.30606740713119507 -4.5280903577804565e-06 -1.452770084142685e-05 0.0 0.0 0.0 0.0
1.081 -0.9090057611465454 -0.2851085364818573 -5.232170224189758e-06 -6.904825568199158e-06 0.0 0.0 0.0 0.0
1.082 -0.9112431406974792 -0.2643653154373169 -1.3270415365695953e-05 5.278736352920532e-06 0.0 0.0 0.0 0.0
1.083 -0.9129246473312378 -0.24307581782341003 -5.815178155899048e-06 -2.301577478647232e-05 0.0 0.0 0.0 0.0
1.084 -0.9146768450737 -0.22112791240215302 7.160939276218414e-06 -1.65645033121109e-05 0.0 0.0 0.0 0.0
1.085 -0.9149540662765503 -0.20279477536678314 3.625638782978058e-06 -1.5866011381149292e-05 0.0 0.0 0.0 0.0
1.086 -0.9147922992706299 -0.18333370983600616 4.583969712257385e-06 -1.1838972568511963e-05 0.0 0.0 0.0 0.0
1.087 -0.9152721762657166 -0.16095782816410065 8.852221071720123e-06 -1.6089528799057007e-05 0.0 0.0 0.0 0.0
1.088 -0.9146316051483154 -0.14018093049526215 -1.6264617443084717e-05 -1.19013711810112e-05 0.0 0.0 0.0 0.0
1.089 -0.9134931564331055 -0.12088533490896225 -2.6170164346694946e-06 -7.701106369495392e-06 0.0 0.0 0.0 0.0
1.09 -0.9124042987823486 -0.10031172633171082 3.359280526638031e-06 -1.0455958545207977e-05 0.0 0.0 0.0 0.0
1.091 -0.9102972745895386 -0.08125822991132736 -4.6566128730773926e-07 1.2461096048355103e-05 0.0 0.0 0.0 0.0
1.092 -0.9076858162879944 -0.06100169196724892 1.6887672245502472e-05 1.7307698726654053e-05 0.0 0.0 0.0 0.0
1.093 -0.904668390750885 -0.041101545095443726 8.791685104370117e-07 -1.5016645193099976e-05 0.0 0.0 0.0 0.0
1.094 -0.9016229510307312 -0.021472910419106483 9.305775165557861e-06 -3.0295923352241516e-06 0.0 0.0 0.0 0.0
1.095 -0.898101270198822 -0.00015321560204029083 1.3018958270549774e-05 -6.929971277713776e-06 0.0 0.0 0.0 0.0
1.096 -0.8942849040031433 0.01951061189174652 1.9529834389686584e-06 -1.0943971574306488e-05 0.0 0.0 0.0 0.0
1.097 -0.8899931311607361 0.03667961061000824 -1.847837120294571e-05 -3.050081431865692e-06 0.0 0.0 0.0 0.0
1.098 -0.8849105834960938 0.057794179767370224 5.3085386753082275e-08 -2.1141022443771362e-06 0.0 0.0 0.0 0.0
1.099 -0.8805619478225708 0.07527576386928558 2.7475878596305847e-05 7.385388016700745e-07 0.0 0.0 0.0 0.0
1.1 -0.8750489950180054 0.09202862530946732 1.4069490134716034e-05 2.4819746613502502e-06 0.0 0.0 0.0 0.0
1.101 -0.8683710098266602 0.11307227611541748 -3.019813448190689e-05 -1.4281831681728363e-05 0.0 0.0 0.0 0.0
1.102 -0.8629618883132935 0.1286264955997467 -5.461275577545166e-06 -9.017996490001678e-06 0.0 0.0 0.0 0.0
1.103 -0.8561510443687439 0.1475761979818344 1.49579718708992e-05 -5.42961061000824e-07 0.0 0.0 0.0 0.0
1.104 -0.8492934703826904 0.16502165794372559 1.103617250919342e-05 -7.382594048976898e-06 0.0 0.0 0.0 0.0
1.105 -0.8422025442123413 0.18388678133487701 -4.863366484642029e-06 -1.422688364982605e-05 0.0 0.0 0.0 0.0
1.106 -0.8349735140800476 0.19940981268882751 -1.1700205504894257e-05 -7.892027497291565e-06 0.0 0.0 0.0 0.0
1.107 -0.8269284963607788 0.21756277978420258 2.806819975376129e-05 1.2365169823169708e-05 0.0 0.0 0.0 0.0
1.108 -0.8190931081771851 0.2330937683582306 -1.2501142919063568e-05 -8.074566721916199e-06 0.0 0.0 0.0 0.0
1.109 -0.8099579811096191 0.24992254376411438 2.9616057872772217e-06 -4.092603921890259e-05 0.0 0.0 0.0 0.0
1.11 -0.8017902374267578 0.2660564184188843 -1.5236437320709229e-05 -9.329989552497864e-06 0.0 0.0 0.0 0.0
1.111 -0.7926164269447327 0.28219446539878845 3.3657997846603394e-06 2.8526410460472107e-06 0.0 0.0 0.0 0.0
1.112 -0.7825065851211548 0.30063527822494507 -1.7377547919750214e-05 3.9798207581043243e-05 0.0 0.0 0.0 0.0
1.113 -0.7735239863395691 0.31496989727020264 -4.7404319047927856e-07 -8.22264701128006e-06 0.0 0.0 0.0 0.0
1.114 -0.7638010382652283 0.3301096260547638 -1.628231257200241e-05 -1.4705583453178406e-05 0.0 0.0 0.0 0.0
1.115 -0.754069447517395 0.34436917304992676 -4.8745423555374146e-06 -2.187676727771759e-05 0.0 0.0 0.0 0.0
1.116 -0.7433241009712219 0.3590802848339081 -9.498558938503265e-06 1.727137714624405e-05 0.0 0.0 0.0 0.0
1.117 -0.7335193753242493 0.372903972864151 -1.3127923011779785e-05 -2.023112028837204e-05 0.0 0.0 0.0 0.0
1.118 -0.7222275137901306 0.3875345289707184 -3.443751484155655e-05 -2.2129155695438385e-05 0.0 0.0 0.0 0.0
1.119 -0.7108653783798218 0.4015388488769531 1.1405907571315765e-05 -1.2312084436416626e-06 0.0 0.0 0.0 0.0
1.12 -0.6996132731437683 0.416060209274292 -1.26715749502182e-05 -5.681067705154419e-08 0.0 0.0 0.0 0.0
1.121 -0.6882100701332092 0.4297170042991638 4.539266228675842e-06 -1.2625008821487427e-05 0.0 0.0 0.0 0.0
1.122 -0.6763002276420593 0.44395822286605835 -1.3475306332111359e-05 -7.22147524356842e-06 0.0 0.0 0.0 0.0
1.123 -0.6648159623146057 0.4562150537967682 1.9525177776813507e-05 6.188638508319855e-06 0.0 0.0 0.0 0.0
1.124 -0.6535207033157349 0.46724390983581543 -1.1661089956760406e-05 -1.3845041394233704e-05 0.0 0.0 0.0 0.0
1.125 -0.640608012676239 0.4811292886734009 1.6017816960811615e-05 -2.5758519768714905e-05 0.0 0.0 0.0 0.0
1.126 -0.6287829279899597 0.4912911057472229 6.550922989845276e-06 2.0706094801425934e-05 0.0 0.0 0.0 0.0
1.127 -0.6161080002784729 0.5035403370857239 4.562549293041229e-06 1.4269724488258362e-05 0.0 0.0 0.0 0.0
1.128 -0.6024570465087891 0.5161904692649841 -1.8159858882427216e-05 -6.5015628933906555e-06 0.0 0.0 0.0 0.0
1.129 -0.590172529220581 0.5273281931877136 4.014931619167328e-06 -1.8843449652194977e-05 0.0 0.0 0.0 0.0
1.13 -0.5770485401153564 0.5386383533477783 9.768642485141754e-06 1.3537704944610596e-05 0.0 0.0 0.0 0.0
1.131 -0.5639530420303345 0.5487759709358215 -5.327165126800537e-07 -1.212581992149353e-05 0.0 0.0 0.0 0.0
1.132 -0.5501177906990051 0.5594072341918945 2.623535692691803e-06 -4.274770617485046e-06 0.0 0.0 0.0 0.0
1.133 -0.5380446314811707 0.5679360032081604 -2.406630665063858e-05 -1.4122575521469116e-05 0.0 0.0 0.0 0.0
1.134 -0.5229828953742981 0.5789056420326233 1.3140961527824402e-06 -2.440623939037323e-05 0.0 0.0 0.0 0.0
1.135 -0.5098536610603333 0.5888317823410034 -3.6731362342834473e-06 -1.6141682863235474e-05 0.0 0.0 0.0 0.0
1.136 -0.49685245752334595 0.5981755256652832 -2.8870999813079834e-06 -2.5416724383831024e-05 0.0 0.0 0.0 0.0
1.137 -0.4814053773880005 0.6078234910964966 2.274196594953537e-05 -1.793820410966873e-05 0.0 0.0 0.0 0.0
1.138 -0.4664810597896576 0.6164806485176086 1.1197291314601898e-05 -1.321360468864441e-05 0.0 0.0 0.0 0.0
1.139 -0.4544757902622223 0.6241055727005005 1.181475818157196e-05 9.217299520969391e-06 0.0 0.0 0.0 0.0
1.14 -0.43915385007858276 0.6325535774230957 5.184672772884369e-06 1.053977757692337e-05 0.0 0.0 0.0 0.0
1.141 -0.4258500635623932 0.6396892666816711 5.764886736869812e-07 1.9259750843048096e-06 0.0 0.0 0.0 0.0
1.142 -0.4115056097507477 0.6475374698638916 -1.1529773473739624e-05 3.9907172322273254e-06 0.0 0.0 0.0 0.0
1.143 -0.39582693576812744 0.6551092267036438 1.6431324183940887e-05 3.579072654247284e-06 0.0 0.0 0.0 0.0
1.144 -0.3808363676071167 0.6623952984809875 -3.684312105178833e-06 -2.684071660041809e-06 0.0 0.0 0.0 0.0
1.145 -0.36543676257133484 0.6695464849472046 -2.8898008167743683e-05 1.4668330550193787e-05 0.0 0.0 0.0 0.0
1.146 -0.35157421231269836 0.6756489872932434 -6.366521120071411e-06 -2.937670797109604e-05 0.0 0.0 0.0 0.0
1.147 -0.33673545718193054 0.6819858551025391 -2.082623541355133e-05 1.1011026799678802e-05 0.0 0.0 0.0 0.0
1.148 -0.3212665617465973 0.6887961030006409 7.383525371551514e-06 -9.088777005672455e-06 0.0 0.0 0.0 0.0
1.149 -0.3070279061794281 0.6934984922409058 -2.2358261048793793e-05 1.2336298823356628e-05 0.0 0.0 0.0 0.0
1.15 -0.29242050647735596 0.6981320381164551 -1.3239681720733643e-05 9.370967745780945e-06 0.0 0.0 0.0 0.0
1.151 -0.27630436420440674 0.7039583921432495 3.729015588760376e-06 -4.061497747898102e-06 0.0 0.0 0.0 0.0
1.152 -0.2606380581855774 0.7098998427391052 -1.9116327166557312e-05 -9.564682841300964e-06 0.0 0.0 0.0 0.0
1.153 -0.24572494626045227 0.7135086059570312 2.0730309188365936e-05 6.134621798992157e-06 0.0 0.0 0.0 0.0
1.154 -0.22982560098171234 0.7189988493919373 1.862645149230957e-09 -5.306676030158997e-06 0.0 0.0 0.0 0.0
1.155 -0.21512562036514282 0.7225132584571838 1.3298355042934418e-05 1.235026866197586e-05 0.0 0.0 0.0 0.0
1.156 -0.2004421055316925 0.7260701656341553 -2.0889565348625183e-05 -1.743622124195099e-05 0.0 0.0 0.0 0.0
1.157 -0.18497267365455627 0.7297524213790894 -2.6337802410125732e-06 4.90434467792511e-06 0.0 0.0 0.0 0.0
1.158 -0.17008675634860992 0.7322067022323608 -1.018960028886795e-05 1.6024336218833923e-05 0.0 0.0 0.0 0.0
1.159 -0.15451645851135254 0.7352725267410278 -3.974325954914093e-05 -1.4936551451683044e-05 0.0 0.0 0.0 0.0
1.16 -0.13888393342494965 0.7384783625602722 -3.827735781669617e-06 1.8971040844917297e-05 0.0 0.0 0.0 0.0
1.161 -0.12483219802379608 0.7401017546653748 6.604939699172974e-06 -9.043142199516296e-07 0.0 0.0 0.0 0.0
1.162 -0.10783762484788895 0.7430679202079773 -3.170128911733627e-05 -4.163011908531189e-07 0.0 0.0 0.0 0.0
1.163 -0.0919639989733696 0.7456334829330444 -3.7690624594688416e-06 -6.555579602718353e-06 0.0 0.0 0.0 0.0
1.164 -0.0772826224565506 0.7479763627052307 2.1197833120822906e-05 -5.709007382392883e-07 0.0 0.0 0.0 0.0
1.165 -0.060286860913038254 0.748346209526062 5.00120222568512e-07 -5.866400897502899e-06 0.0 0.0 0.0 0.0
1.166 -0.04712095111608505 0.7503116130828857 -2.2693537175655365e-05 -1.2258067727088928e-05 0.0 0.0 0.0 0.0
1.167 -0.031508918851614 0.750266969203949 5.182810127735138e-06 -1.3804994523525238e-05 0.0 0.0 0.0 0.0
1.168 -0.016395317390561104 0.7517755627632141 4.346482455730438e-06 5.591660737991333e-06 0.0 0.0 0.0 0.0
1.169 -0.0005675377324223518 0.7519665360450745 3.896653652191162e-06 -1.7890706658363342e-06 0.0 0.0 0.0 0.0
1.17 0.015159514732658863 0.7516999840736389 -1.2741424143314362e-05 1.4271587133407593e-05 0.0 0.0 0.0 0.0
1.171 0.031690336763858795 0.7517743706703186 -1.622922718524933e-05 1.9264407455921173e-05 0.0 0.0 0.0 0.0
1.172 0.04599247872829437 0.7519357204437256 -2.4087727069854736e-05 1.77677720785141e-05 0.0 0.0 0.0 0.0
1.173 0.06183874234557152 0.7511026263237 8.278526365756989e-06 3.6209821701049805e-06 0.0 0.0 0.0 0.0
1.174 0.07750555872917175 0.7503455281257629 -1.68653205037117e-05 -6.102025508880615e-06 0.0 0.0 0.0 0.0
1.175 0.0920315757393837 0.7489901185035706 -1.6108155250549316e-05 1.2833625078201294e-05 0.0 0.0 0.0 0.0
1.176 0.10721655189990997 0.7480409741401672 4.614703357219696e-06 -8.06618481874466e-06 0.0 0.0 0.0 0.0
1.177 0.12163913995027542 0.7461705207824707 -1.8933787941932678e-06 9.075738489627838e-06 0.0 0.0 0.0 0.0
1.178 0.139505073428154 0.7435989379882812 1.0102987289428711e-05 1.7249025404453278e-05 0.0 0.0 0.0 0.0
1.179 0.15175464749336243 0.7429614663124084 1.087784767150879e-06 2.507772296667099e-05 0.0 0.0 0.0 0.0
1.18 0.16946785151958466 0.7400611639022827 -3.691762685775757e-06 1.0242685675621033e-05 0.0 0.0 0.0 0.0
1.181 0.1831192821264267 0.7374608516693115 -3.417953848838806e-07 2.4938955903053284e-05 0.0 0.0 0.0 0.0
1.182 0.19754146039485931 0.7351955771446228 1.0803341865539551e-07 1.3467855751514435e-05 0.0 0.0 0.0 0.0
1.183 0.2117125540971756 0.7320098280906677 1.7238780856132507e-06 6.097368896007538e-06 0.0 0.0 0.0 0.0
1.184 0.227264404296875 0.7289419174194336 -4.4675543904304504e-06 1.643318682909012e-05 0.0 0.0 0.0 0.0
1.185 0.24142301082611084 0.7248314023017883 -3.807246685028076e-06 -2.8405338525772095e-07 0.0 0.0 0.0 0.0
1.186 0.2567083537578583 0.7211669683456421 1.8275342881679535e-05 -7.1944668889045715e-06 0.0 0.0 0.0 0.0
1.187 0.27236416935920715 0.7172719240188599 -7.488764822483063e-06 2.3387372493743896e-05 0.0 0.0 0.0 0.0
1.188 0.2879648208618164 0.71327805519104 -2.1690502762794495e-06 -2.2834166884422302e-05 0.0 0.0 0.0 0.0
1.189 0.3000866174697876 0.7093024849891663 -9.443610906600952e-06 -2.2981315851211548e-05 0.0 0.0 0.0 0.0
1.19 0.3166351914405823 0.7035855054855347 6.378628313541412e-06 8.814968168735504e-06 0.0 0.0 0.0 0.0
1.191 0.32883551716804504 0.698969841003418 1.3899058103561401e-05 -7.6051801443099976e-06 0.0 0.0 0.0 0.0
1.192 0.343355655670166 0.6933133006095886 -1.5195459127426147e-05 3.0156224966049194e-06 0.0 0.0 0.0 0.0
1.193 0.3580349385738373 0.687921404838562 -2.074986696243286e-06 -2.5909394025802612e-06 0.0 0.0 0.0 0.0
1.194 0.37318992614746094 0.6826121211051941 1.8161721527576447e-05 -2.6385299861431122e-05 0.0 0.0 0.0 0.0
1.195 0.3875066041946411 0.675832986831665 1.928769052028656e-06 2.135150134563446e-05 0.0 0.0 0.0 0.0
1.196 0.4014764428138733 0.6704827547073364 -1.2663193047046661e-05 1.252535730600357e-05 0.0 0.0 0.0 0.0
1.197 0.4152786433696747 0.6629806756973267 -1.1528842151165009e-05 3.4580007195472717e-06 0.0 0.0 0.0 0.0
1.198 0.4288881719112396 0.6573455333709717 -4.022382199764252e-06 8.647330105304718e-06 0.0 0.0 0.0 0.0
1.199 0.4416721761226654 0.6505404114723206 -1.7248094081878662e-06 -9.12696123123169e-08 0.0 0.0 0.0 0.0
1.2 0.45452192425727844 0.6439418196678162 1.6724690794944763e-05 -2.0662322640419006e-05 0.0 0.0 0.0 0.0
1.201 0.46835625171661377 0.6361329555511475 -4.823319613933563e-06 -3.307126462459564e-06 0.0 0.0 0.0 0.0
1.202 0.4823203682899475 0.6282486319541931 -9.637326002120972e-06 -1.5189871191978455e-05 0.0 0.0 0.0 0.0
1.203 0.497052937746048 0.6189801692962646 -9.677372872829437e-06 -1.4962628483772278e-05 0.0 0.0 0.0 0.0
1.204 0.5100305676460266 0.6117075085639954 -1.1494383215904236e-05 -3.2028183341026306e-06 0.0 0.0 0.0 0.0
1.205 0.5227037668228149 0.6040163040161133 -1.532025635242462e-05 -2.0470470190048218e-06 0.0 0.0 0.0 0.0
1.206 0.5353570580482483 0.5952507853507996 2.0675361156463623e-07 -1.1790543794631958e-05 0.0 0.0 0.0 0.0
1.207 0.5469183921813965 0.5871868133544922 -1.1934898793697357e-05 2.655666321516037e-05 0.0 0.0 0.0 0.0
1.208 0.559973955154419 0.5776179432868958 -1.3577751815319061e-05 3.772042691707611e-05 0.0 0.0 0.0 0.0
1.209 0.572465181350708 0.5679358839988708 -7.715076208114624e-06 1.242849975824356e-05 0.0 0.0 0.0 0.0
1.21 0.5854724049568176 0.55783611536026 -2.3078173398971558e-06 1.25151127576828e-05 0.0 0.0 0.0 0.0
1.211 0.5969518423080444 0.5494517683982849 1.519080251455307e-05 5.0533562898635864e-06 0.0 0.0 0.0 0.0
1.212 0.6093763113021851 0.5392023324966431 -1.6439706087112427e-05 -7.436610758304596e-06 0.0 0.0 0.0 0.0
1.213 0.621867835521698 0.527949333190918 1.213420182466507e-05 2.1929852664470673e-05 0.0 0.0 0.0 0.0
1.214 0.6331472396850586 0.5185924172401428 3.4030526876449585e-06 -4.713423550128937e-06 0.0 0.0 0.0 0.0
1.215 0.6447657942771912 0.5087258815765381 5.893409252166748e-06 9.48738306760788e-06 0.0 0.0 0.0 0.0
1.216 0.6552318334579468 0.49760621786117554 -6.59748911857605e-06 -2.4361535906791687e-05 0.0 0.0 0.0 0.0
1.217 0.6660667061805725 0.4865112602710724 -4.108063876628876e-06 1.3684853911399841e-05 0.0 0.0 0.0 0.0
1.218 0.6774389743804932 0.47561949491500854 5.2247196435928345e-06 -2.989545464515686e-07 0.0 0.0 0.0 0.0
1.219 0.6877581477165222 0.46442246437072754 7.870607078075409e-06 -7.092021405696869e-06 0.0 0.0 0.0 0.0
1.22 0.7001939415931702 0.4504127502441406 7.298775017261505e-06 1.6174279153347015e-05 0.0 0.0 0.0 0.0
1.221 0.709809422492981 0.43975070118904114 1.4491379261016846e-06 2.3208558559417725e-06 0.0 0.0 0.0 0.0
1.222 0.7200703024864197 0.42735397815704346 3.5818666219711304e-06 6.03310763835907e-06 0.0 0.0 0.0 0.0
1.223 0.7298409342765808 0.4158748388290405 -1.6313977539539337e-05 9.7593292593956e-06 0.0 0.0 0.0 0.0
1.224 0.7392805218696594 0.4028168320655823 2.8545036911964417e-06 -1.7182901501655579e-06 0.0 0.0 0.0 0.0
1.225 0.7487760782241821 0.3904511034488678 5.295500159263611e-06 -6.43264502286911e-06 0.0 0.0 0.0 0.0
1.226 0.7578108906745911 0.3783702850341797 -1.3949349522590637e-05 4.678033292293549e-06 0.0 0.0 0.0 0.0
1.227 0.76800537109375 0.3642967641353607 -2.4158507585525513e-05 -1.5108846127986908e-05 0.0 0.0 0.0 0.0
1.228 0.7768800854682922 0.3506699502468109 -2.2855587303638458e-05 -4.743225872516632e-06 0.0 0.0 0.0 0.0
1.229 0.785622775554657 0.3377601206302643 -6.09084963798523e-07 -5.408190190792084e-06 0.0 0.0 0.0 0.0
1.23 0.7941327095031738 0.32512450218200684 -6.057322025299072e-06 -1.2638978660106659e-05 0.0 0.0 0.0 0.0
1.231 0.8017840385437012 0.3115893304347992 -2.0085833966732025e-05 -2.6771798729896545e-05 0.0 0.0 0.0 0.0
1.232 0.8102999329566956 0.29718366265296936 -1.3830140233039856e-06 -3.9692968130111694e-06 0.0 0.0 0.0 0.0
1.233 0.8171703219413757 0.28253406286239624 -3.2597221434116364e-05 1.6988255083560944e-05 0.0 0.0 0.0 0.0
1.234 0.8252338767051697 0.26793521642684937 -2.812594175338745e-07 2.0198523998260498e-05 0.0 0.0 0.0 0.0
1.235 0.8325194120407104 0.2546194791793823 -4.884786903858185e-06 -4.133209586143494e-06 0.0 0.0 0.0 0.0
1.236 0.8396807909011841 0.23861421644687653 -3.6051496863365173e-06 5.918554961681366e-06 0.0 0.0 0.0 0.0
1.237 0.8460265398025513 0.2248888462781906 -7.759779691696167e-06 1.1999160051345825e-05 0.0 0.0 0.0 0.0
1.238 0.8528883457183838 0.2084006369113922 -3.458932042121887e-06 6.404705345630646e-06 0.0 0.0 0.0 0.0
1.239 0.8590601682662964 0.19300274550914764 -8.750706911087036e-06 2.112891525030136e-05 0.0 0.0 0.0 0.0
1.24 0.8644659519195557 0.17980775237083435 -1.103430986404419e-05 -1.203734427690506e-05 0.0 0.0 0.0 0.0
1.241 0.8698883056640625 0.1637091189622879 -9.377487003803253e-06 1.0779127478599548e-05 0.0 0.0 0.0 0.0
1.242 0.8756862282752991 0.1477411389350891 6.206333637237549e-06 1.7508864402770996e-07 0.0 0.0 0.0 0.0
1.243 0.880544900894165 0.13146524131298065 -2.15945765376091e-05 -1.2479722499847412e-06 0.0 0.0 0.0 0.0
1.244 0.8852954506874084 0.11484874039888382 7.0016831159591675e-06 2.9277987778186798e-05 0.0 0.0 0.0 0.0
1.245 0.8897307515144348 0.09994909912347794 -5.541369318962097e-06 -2.138875424861908e-05 0.0 0.0 0.0 0.0
1.246 0.8939003944396973 0.08257414400577545 -3.579072654247284e-06 1.898501068353653e-05 0.0 0.0 0.0 0.0
1.247 0.8977157473564148 0.0662296712398529 1.1824071407318115e-05 1.826789230108261e-05 0.0 0.0 0.0 0.0
1.248 0.900994062423706 0.05302952229976654 1.2628734111785889e-05 3.067776560783386e-05 0.0 0.0 0.0 0.0
1.249 0.9041882157325745 0.03450540080666542 1.0000541806221008e-05 9.723007678985596e-07 0.0 0.0 0.0 0.0
1.25 0.9072502851486206 0.019821790978312492 -9.471550583839417e-06 -1.1071562767028809e-05 0.0 0.0 0.0 0.0
1.251 0.9088035821914673 0.003114420920610428 -1.4425255358219147e-05 2.3677945137023926e-05 0.0 0.0 0.0 0.0
1.252 0.9111785888671875 -0.01626468449831009 1.7900951206684113e-05 8.247792720794678e-06 0.0 0.0 0.0 0.0
1.253 0.9135329127311707 -0.032638128846883774 -1.80024653673172e-06 -1.8924474716186523e-06 0.0 0.0 0.0 0.0
1.254 0.915215015411377 -0.050253357738256454 -2.6524998247623444e-05 -5.967915058135986e-06 0.0 0.0 0.0 0.0
1.255 0.9163094162940979 -0.06715694814920425 -3.0885450541973114e-05 -1.0097399353981018e-05 0.0 0.0 0.0 0.0
1.256 0.9170539975166321 -0.08236020058393478 -5.99399209022522e-06 1.2767501175403595e-05 0.0 0.0 0.0 0.0
1.257 0.9177443385124207 -0.09926702082157135 -9.323470294475555e-06 -1.8756836652755737e-06 0.0 0.0 0.0 0.0
1.258 0.9173862934112549 -0.116157166659832 1.0171905159950256e-05 1.2479722499847412e-07 0.0 0.0 0.0 0.0
1.259 0.9169802665710449 -0.1342078447341919 3.6191195249557495e-06 2.857297658920288e-05 0.0 0.0 0.0 0.0
1.26 0.9165232181549072 -0.15147751569747925 -1.2835487723350525e-05 3.317650407552719e-05 0.0 0.0 0.0 0.0
1.261 0.915640115737915 -0.16857123374938965 -6.6086649894714355e-06 6.502494215965271e-06 0.0 0.0 0.0 0.0
1.262 0.9147933721542358 -0.18446208536624908 9.601935744285583e-06 -1.0635703802108765e-05 0.0 0.0 0.0 0.0
1.263 0.9128206968307495 -0.20317038893699646 -5.925074219703674e-06 -9.097158908843994e-06 0.0 0.0 0.0 0.0
1.264 0.9113077521324158 -0.21964344382286072 -6.2175095081329346e-06 -1.8209218978881836e-05 0.0 0.0 0.0 0.0
1.265 0.9093770384788513 -0.23544853925704956 6.34416937828064e-06 -5.953013896942139e-06 0.0 0.0 0.0 0.0
1.266 0.9055456519126892 -0.2544494569301605 1.1109746992588043e-05 -1.62515789270401e-06 0.0 0.0 0.0 0.0
1.267 0.9024109244346619 -0.27045369148254395 -7.729046046733856e-06 -5.858950316905975e-06 0.0 0.0 0.0 0.0
1.268 0.8991225957870483 -0.2887846529483795 3.885477781295776e-06 1.8688850104808807e-05 0.0 0.0 0.0 0.0
1.269 0.895729660987854 -0.3057805001735687 -2.4353154003620148e-05 5.670823156833649e-06 0.0 0.0 0.0 0.0
1.27 0.8913382887840271 -0.32343700528144836 -2.481602132320404e-05 3.4403055906295776e-05 0.0 0.0 0.0 0.0
1.271 0.8874438405036926 -0.3382730185985565 6.426125764846802e-07 -8.165836334228516e-06 0.0 0.0 0.0 0.0
1.272 0.8823314309120178 -0.3549101650714874 3.0176714062690735e-05 3.681797534227371e-05 0.0 0.0 0.0 0.0
1.273 0.8766989707946777 -0.37279072403907776 1.1518597602844238e-05 1.4789402484893799e-06 0.0 0.0 0.0 0.0
1.274 0.8707932233810425 -0.38904595375061035 -1.1549331247806549e-05 8.940696716308594e-06 0.0 0.0 0.0 0.0
1.275 0.8648368120193481 -0.4056043028831482 1.901201903820038e-05 -3.0742958188056946e-06 0.0 0.0 0.0 0.0
1.276 0.8578539490699768 -0.423002153635025 2.354755997657776e-05 9.313225746154785e-10 0.0 0.0 0.0 0.0
1.277 0.8515375852584839 -0.43892642855644226 2.2100284695625305e-06 2.4784356355667114e-05 0.0 0.0 0.0 0.0
1.278 0.8453143239021301 -0.4541868567466736 7.5893476605415344e-06 -6.708316504955292e-06 0.0 0.0 0.0 0.0
1.279 0.8379116654396057 -0.46965935826301575 -1.6643665730953217e-05 -1.07642263174057e-05 0.0 0.0 0.0 0.0
1.28 0.8293726444244385 -0.4858754575252533 1.480989158153534e-05 4.547648131847382e-06 0.0 0.0 0.0 0.0
1.281 0.8214384913444519 -0.5011802315711975 -2.58544459939003e-05 -1.1644326150417328e-05 0.0 0.0 0.0 0.0
1.282 0.8127257823944092 -0.5172480940818787 4.580244421958923e-06 6.6123902797698975e-06 0.0 0.0 0.0 0.0
1.283 0.8033944368362427 -0.5333606004714966 -3.7141144275665283e-06 -1.4416873455047607e-05 0.0 0.0 0.0 0.0
1.284 0.794493556022644 -0.5490124821662903 -1.833215355873108e-05 -4.31109219789505e-06 0.0 0.0 0.0 0.0
1.285 0.7840041518211365 -0.5651942491531372 -6.009824573993683e-06 -2.3198314011096954e-05 0.0 0.0 0.0 0.0
1.286 0.7771832942962646 -0.5771461725234985 1.1052936315536499e-05 2.626795321702957e-05 0.0 0.0 0.0 0.0
1.287 0.7656649351119995 -0.5924932360649109 2.4382025003433228e-06 1.700781285762787e-05 0.0 0.0 0.0 0.0
1.288 0.7545408606529236 -0.607685923576355 -1.4808028936386108e-06 -9.160488843917847e-06 0.0 0.0 0.0 0.0
1.289 0.7441601157188416 -0.6208360195159912 1.8299557268619537e-05 2.098269760608673e-06 0.0 0.0 0.0 0.0
1.29 0.73198401927948 -0.6359036564826965 -1.615472137928009e-05 1.7249025404453278e-05 0.0 0.0 0.0 0.0
1.291 0.7204092144966125 -0.6494960188865662 -2.104043960571289e-05 2.0345672965049744e-05 0.0 0.0 0.0 0.0
1.292 0.7092905640602112 -0.6625362634658813 -4.532746970653534e-06 -1.4494173228740692e-05 0.0 0.0 0.0 0.0
1.293 0.6969925761222839 -0.6765372157096863 1.1092051863670349e-05 1.0615214705467224e-05 0.0 0.0 0.0 0.0
1.294 0.6860161423683167 -0.6887202858924866 -7.300637662410736e-06 -5.116686224937439e-06 0.0 0.0 0.0 0.0
1.295 0.6727850437164307 -0.7013383507728577 1.912284642457962e-05 1.058913767337799e-05 0.0 0.0 0.0 0.0
1.296 0.6589490175247192 -0.7144834995269775 1.189298927783966e-06 2.6766210794448853e-06 0.0 0.0 0.0 0.0
1.297 0.6466563940048218 -0.7264212369918823 -2.3078173398971558e-06 7.429160177707672e-06 0.0 0.0 0.0 0.0
1.298 0.6322104930877686 -0.7379385232925415 2.712290734052658e-05 -3.275647759437561e-05 0.0 0.0 0.0 0.0
1.299 0.6176097989082336 -0.7508397102355957 -9.784474968910217e-06 4.476867616176605e-06 0.0 0.0 0.0 0.0
1.3 0.6045969724655151 -0.7616021633148193 -2.41817906498909e-05 1.0136514902114868e-05 0.0 0.0 0.0 0.0
1.301 0.5897077322006226 -0.7728880047798157 -1.6082078218460083e-05 1.6876496374607086e-05 0.0 0.0 0.0 0.0
1.302 0.5759168267250061 -0.7831887006759644 1.3667158782482147e-05 1.5450641512870789e-06 0.0 0.0 0.0 0.0
1.303 0.5623005032539368 -0.7923657298088074 1.8844380974769592e-05 -6.810761988162994e-06 0.0 0.0 0.0 0.0
1.304 0.5435926914215088 -0.8038956522941589 -1.9175931811332703e-06 -1.5562400221824646e-06 0.0 0.0 0.0 0.0
1.305 0.5309842824935913 -0.8112968802452087 1.3781711459159851e-05 7.078982889652252e-06 0.0 0.0 0.0 0.0
1.306 0.5163257718086243 -0.8203858137130737 -3.341585397720337e-06 -1.1973083019256592e-05 0.0 0.0 0.0 0.0
1.307 0.4988429546356201 -0.8307663798332214 1.1272728443145752e-05 1.809746026992798e-05 0.0 0.0 0.0 0.0
1.308 0.48224878311157227 -0.8403956294059753 6.016343832015991e-07 1.684483140707016e-05 0.0 0.0 0.0 0.0
1.309 0.4665164053440094 -0.8487251996994019 1.3820827007293701e-05 1.928769052028656e-05 0.0 0.0 0.0 0.0
1.31 0.449204683303833 -0.856665313243866 7.91158527135849e-06 -7.79610127210617e-06 0.0 0.0 0.0 0.0
1.311 0.4346117377281189 -0.8628665208816528 1.5597790479660034e-05 2.0518898963928223e-05 0.0 0.0 0.0 0.0
1.312 0.41862648725509644 -0.8702444434165955 -1.4804303646087646e-05 1.5078112483024597e-06 0.0 0.0 0.0 0.0
1.313 0.40214404463768005 -0.8771306872367859 -1.0661780834197998e-05 2.6971101760864258e-05 0.0 0.0 0.0 0.0
1.314 0.3855285048484802 -0.8828027844429016 1.9016675651073456e-05 1.597963273525238e-05 0.0 0.0 0.0 0.0
1.315 0.3671155869960785 -0.888798713684082 2.5816261768341064e-06 -5.45009970664978e-06 0.0 0.0 0.0 0.0
1.316 0.3493340313434601 -0.8952441811561584 3.139674663543701e-05 2.1103769540786743e-06 0.0 0.0 0.0 0.0
1.317 0.3317267596721649 -0.9017881751060486 -1.245737075805664e-05 -1.9670464098453522e-05 0.0 0.0 0.0 0.0
1.318 0.31635478138923645 -0.9051621556282043 -5.9157609939575195e-06 4.381872713565826e-06 0.0 0.0 0.0 0.0
1.319 0.29791924357414246 -0.9097360968589783 4.926696419715881e-07 1.1356547474861145e-05 0.0 0.0 0.0 0.0
1.32 0.27816471457481384 -0.9145272374153137 -1.4091841876506805e-05 2.3352913558483124e-05 0.0 0.0 0.0 0.0
1.321 0.26499077677726746 -0.91646409034729 -2.5890767574310303e-07 -1.3890676200389862e-05 0.0 0.0 0.0 0.0
1.322 0.24616459012031555 -0.9207056164741516 -8.37910920381546e-06 -9.686686098575592e-06 0.0 0.0 0.0 0.0
1.323 0.2286432832479477 -0.9231323003768921 -1.4365650713443756e-05 -5.153007805347443e-06 0.0 0.0 0.0 0.0
1.324 0.20951688289642334 -0.9262031316757202 -1.1261552572250366e-05 8.295290172100067e-06 0.0 0.0 0.0 0.0
1.325 0.189519464969635 -0.9281005263328552 -6.23706728219986e-06 2.2664666175842285e-05 0.0 0.0 0.0 0.0
1.326 0.17245621979236603 -0.9297703504562378 3.487803041934967e-06 -1.653376966714859e-05 0.0 0.0 0.0 0.0
1.327 0.15520159900188446 -0.9322382807731628 4.890374839305878e-06 8.242204785346985e-06 0.0 0.0 0.0 0.0
1.328 0.14011627435684204 -0.9314872026443481 -2.983957529067993e-06 -2.6794150471687317e-06 0.0 0.0 0.0 0.0
1.329 0.119595967233181 -0.9334935545921326 5.548819899559021e-06 -1.0896474123001099e-06 0.0 0.0 0.0 0.0
1.33 0.10268162935972214 -0.9333045482635498 1.6790814697742462e-05 1.5981495380401611e-06 0.0 0.0 0.0 0.0
1.331 0.0855468213558197 -0.9327659606933594 -2.183951437473297e-05 -1.0505318641662598e-05 0.0 0.0 0.0 0.0
1.332 0.06676561385393143 -0.9316695928573608 -1.0146759450435638e-05 9.760260581970215e-07 0.0 0.0 0.0 0.0
1.333 0.04745524749159813 -0.930841863155365 -6.813555955886841e-06 -6.87967985868454e-06 0.0 0.0 0.0 0.0
1.334 0.030786704272031784 -0.9294303059577942 -7.3071569204330444e-06 -8.577480912208557e-07 0.0 0.0 0.0 0.0
1.335 0.0110623212531209 -0.9277574419975281 -4.326924681663513e-06 1.7315149307250977e-05 0.0 0.0 0.0 0.0
1.336 -0.005995631217956543 -0.9254454374313354 5.120411515235901e-06 1.1317431926727295e-05 0.0 0.0 0.0 0.0
1.337 -0.020780647173523903 -0.9230666756629944 2.574268728494644e-05 1.014210283756256e-06 0.0 0.0 0.0 0.0
1.338 -0.041022006422281265 -0.9194629788398743 -1.3836659491062164e-05 -3.343448042869568e-07 0.0 0.0 0.0 0.0
1.339 -0.05581939220428467 -0.9169970750808716 2.913177013397217e-06 1.330394297838211e-05 0.0 0.0 0.0 0.0
1.34 -0.07448792457580566 -0.9124678373336792 1.0030344128608704e-05 2.835877239704132e-06 0.0 0.0 0.0 0.0
1.341 -0.09365293383598328 -0.9076825380325317 -4.5709311962127686e-06 1.560896635055542e-05 0.0 0.0 0.0 0.0
1.342 -0.11159561574459076 -0.903465986251831 -1.478102058172226e-05 -1.1273659765720367e-05 0.0 0.0 0.0 0.0
1.343 -0.12413939833641052 -0.8995505571365356 1.5745870769023895e-05 -1.510418951511383e-05 0.0 0.0 0.0 0.0
1.344 -0.14266003668308258 -0.8941997289657593 -1.3289973139762878e-06 -4.152767360210419e-06 0.0 0.0 0.0 0.0
1.345 -0.15794827044010162 -0.8888187408447266 1.8589198589324951e-06 -1.1982396245002747e-05 0.0 0.0 0.0 0.0
1.346 -0.1750161051750183 -0.8828207850456238 4.324130713939667e-06 -1.3844110071659088e-05 0.0 0.0 0.0 0.0
1.347 -0.19107931852340698 -0.876720130443573 1.0066665709018707e-05 -2.0259059965610504e-05 0.0 0.0 0.0 0.0
1.348 -0.2092377245426178 -0.8692094087600708 3.258697688579559e-05 1.5026889741420746e-05 0.0 0.0 0.0 0.0
1.349 -0.22569650411605835 -0.8623599410057068 1.94646418094635e-06 6.115995347499847e-06 0.0 0.0 0.0 0.0
1.35 -0.24304120242595673 -0.8557729125022888 2.0246952772140503e-06 1.2265518307685852e-05 0.0 0.0 0.0 0.0
1.351 -0.25686684250831604 -0.8486154079437256 -1.0584481060504913e-05 7.531605660915375e-06 0.0 0.0 0.0 0.0
1.352 -0.2721094787120819 -0.8411455154418945 -1.002289354801178e-05 4.471279680728912e-06 0.0 0.0 0.0 0.0
1.353 -0.2876744568347931 -0.8312255144119263 1.4938414096832275e-06 4.143454134464264e-06 0.0 0.0 0.0 0.0
1.354 -0.30267834663391113 -0.8230167031288147 4.8102810978889465e-06 2.0490959286689758e-05 0.0 0.0 0.0 0.0
1.355 -0.3175307810306549 -0.8146647810935974 -4.686415195465088e-06 5.62518835067749e-07 0.0 0.0 0.0 0.0
1.356 -0.3326931595802307 -0.8047691583633423 -1.8835067749023438e-05 5.893409252166748e-06 0.0 0.0 0.0 0.0
1.357 -0.34680667519569397 -0.7958575487136841 1.673121005296707e-05 -1.2557953596115112e-05 0.0 0.0 0.0 0.0
1.358 -0.359948992729187 -0.7869833707809448 -8.547678589820862e-06 -2.4046748876571655e-06 0.0 0.0 0.0 0.0
1.359 -0.3763221204280853 -0.7757471799850464 -1.0834075510501862e-05 1.5958212316036224e-05 0.0 0.0 0.0 0.0
1.36 -0.3894808292388916 -0.7655147314071655 -6.818212568759918e-06 1.324433833360672e-05 0.0 0.0 0.0 0.0
1.361 -0.4027695059776306 -0.7556718587875366 1.0312534868717194e-05 -4.656612873077393e-06 0.0 0.0 0.0 0.0
1.362 -0.4165472090244293 -0.7440110445022583 -6.69620931148529e-07 1.6944482922554016e-05 0.0 0.0 0.0 0.0
1.363 -0.42911383509635925 -0.7339923977851868 1.1648982763290405e-05 -9.59448516368866e-06 0.0 0.0 0.0 0.0
1.364 -0.44083285331726074 -0.7226080298423767 4.122406244277954e-05 -1.0778196156024933e-05 0.0 0.0 0.0 0.0
1.365 -0.4543426036834717 -0.709871232509613 7.231719791889191e-06 -9.685754776000977e-06 0.0 0.0 0.0 0.0
1.366 -0.4680991470813751 -0.6976735591888428 1.2410804629325867e-05 -2.8936192393302917e-06 0.0 0.0 0.0 0.0
1.367 -0.4797016680240631 -0.6860501170158386 -4.880130290985107e-06 1.7303042113780975e-05 0.0 0.0 0.0 0.0
1.368 -0.49053359031677246 -0.6743159890174866 -2.0945444703102112e-05 -2.214685082435608e-06 0.0 0.0 0.0 0.0
1.369 -0.5039892792701721 -0.6609768867492676 4.529021680355072e-06 7.024034857749939e-06 0.0 0.0 0.0 0.0
1.37 -0.5149787664413452 -0.647975504398346 -8.987262845039368e-06 6.362795829772949e-06 0.0 0.0 0.0 0.0
1.371 -0.5235027074813843 -0.6376494765281677 -1.4756806194782257e-05 -3.4458935260772705e-07 0.0 0.0 0.0 0.0
1.372 -0.5352491736412048 -0.6239534616470337 -2.5003217160701752e-05 5.696900188922882e-06 0.0 0.0 0.0 0.0
1.373 -0.5445114374160767 -0.6101601719856262 2.400018274784088e-06 9.48738306760788e-06 0.0 0.0 0.0 0.0
1.374 -0.5560553073883057 -0.5964535474777222 -3.4458935260772705e-08 -1.1847354471683502e-05 0.0 0.0 0.0 0.0
1.375 -0.566159725189209 -0.581734836101532 1.3406388461589813e-05 -5.69317489862442e-06 0.0 0.0 0.0 0.0
1.376 -0.5757227540016174 -0.5678653120994568 9.519048035144806e-06 7.57165253162384e-07 0.0 0.0 0.0 0.0
1.377 -0.586600661277771 -0.5526316165924072 -1.5292316675186157e-06 -3.6228448152542114e-06 0.0 0.0 0.0 0.0
1.378 -0.59420245885849 -0.5401249527931213 4.3567270040512085e-06 1.1013820767402649e-05 0.0 0.0 0.0 0.0
1.379 -0.6031268239021301 -0.5254117250442505 1.3746321201324463e-06 9.406358003616333e-08 0.0 0.0 0.0 0.0
1.38 -0.6104075908660889 -0.5121321082115173 -2.0409002900123596e-05 -7.171183824539185e-08 0.0 0.0 0.0 0.0
1.381 -0.6185662150382996 -0.49732235074043274 -1.2439675629138947e-05 2.5238841772079468e-06 0.0 0.0 0.0 0.0
1.382 -0.6269611120223999 -0.48117661476135254 9.71369445323944e-07 -1.6452744603157043e-05 0.0 0.0 0.0 0.0
1.383 -0.6335495114326477 -0.46772831678390503 -3.3779069781303406e-06 6.06197863817215e-06 0.0 0.0 0.0 0.0
1.384 -0.6418613195419312 -0.4509117603302002 2.0675361156463623e-07 -1.5886500477790833e-05 0.0 0.0 0.0 0.0
1.385 -0.6493884921073914 -0.4343551695346832 2.2351741790771484e-07 -1.375097781419754e-05 0.0 0.0 0.0 0.0
1.386 -0.6553365588188171 -0.41984468698501587 7.078051567077637e-08 5.71180135011673e-06 0.0 0.0 0.0 0.0
1.387 -0.6613888740539551 -0.4048788547515869 -6.953254342079163e-06 -9.692274034023285e-06 0.0 0.0 0.0 0.0
1.388 -0.666885256767273 -0.39003118872642517 -1.1455267667770386e-07 1.0553747415542603e-05 0.0 0.0 0.0 0.0
1.389 -0.6717948317527771 -0.37425222992897034 -9.964220225811005e-06 1.1516734957695007e-05 0.0 0.0 0.0 0.0
1.39 -0.6773052215576172 -0.35838696360588074 4.1369348764419556e-06 4.034489393234253e-06 0.0 0.0 0.0 0.0
1.391 -0.6831417679786682 -0.3411434292793274 -8.530914783477783e-07 -1.9035302102565765e-05 0.0 0.0 0.0 0.0
1.392 -0.6874564290046692 -0.3264133632183075 1.0139308869838715e-05 -1.5140511095523834e-05 0.0 0.0 0.0 0.0
1.393 -0.6928746104240417 -0.3082437217235565 1.8938444554805756e-05 -1.3892538845539093e-05 0.0 0.0 0.0 0.0
1.394 -0.6952891945838928 -0.29472973942756653 7.558614015579224e-06 -2.8206966817378998e-05 0.0 0.0 0.0 0.0
1.395 -0.6996760368347168 -0.2769063711166382 -1.4419667422771454e-05 -1.9567087292671204e-06 0.0 0.0 0.0 0.0
1.396 -0.7020450830459595 -0.26365283131599426 -1.2654811143875122e-05 3.995373845100403e-06 0.0 0.0 0.0 0.0
1.397 -0.7060896158218384 -0.24464432895183563 -6.449408829212189e-06 8.192844688892365e-06 0.0 0.0 0.0 0.0
1.398 -0.7090539336204529 -0.22754421830177307 1.673586666584015e-05 6.348825991153717e-06 0.0 0.0 0.0 0.0
1.399 -0.7110518217086792 -0.21211259067058563 -6.426125764846802e-08 -1.1070631444454193e-05 0.0 0.0 0.0 0.0
1.4 -0.7128120064735413 -0.19669562578201294 -6.555579602718353e-06 -2.957228571176529e-05 0.0 0.0 0.0 0.0
1.401 -0.7144201397895813 -0.17989426851272583 1.3908371329307556e-05 4.327856004238129e-06 0.0 0.0 0.0 0.0
1.402 -0.7162878513336182 -0.16255150735378265 1.6828998923301697e-05 4.947185516357422e-06 0.0 0.0 0.0 0.0
1.403 -0.7170603275299072 -0.1465480923652649 1.6291625797748566e-05 7.958151400089264e-06 0.0 0.0 0.0 0.0
1.404 -0.7183366417884827 -0.12985128164291382 -1.9937753677368164e-05 1.6223639249801636e-06 0.0 0.0 0.0 0.0
1.405 -0.718567430973053 -0.11326496303081512 8.831731975078583e-06 5.651265382766724e-06 0.0 0.0 0.0 0.0
1.406 -0.7186486721038818 -0.09905315935611725 7.051043212413788e-06 2.116244286298752e-05 0.0 0.0 0.0 0.0
1.407 -0.7182967662811279 -0.08331310749053955 -8.09505581855774e-06 3.548339009284973e-07 0.0 0.0 0.0 0.0
1.408 -0.7178657054901123 -0.06424438953399658 1.8953345715999603e-05 3.501772880554199e-07 0.0 0.0 0.0 0.0
1.409 -0.7168652415275574 -0.047121889889240265 5.341134965419769e-06 -5.217269062995911e-06 0.0 0.0 0.0 0.0
1.41 -0.7157738208770752 -0.03250022977590561 1.5087425708770752e-07 3.5511329770088196e-06 0.0 0.0 0.0 0.0
1.411 -0.7147603631019592 -0.015715036541223526 1.1101365089416504e-05 3.2791867852211e-06 0.0 0.0 0.0 0.0
1.412 -0.7126003503799438 0.0006967931985855103 -8.7665393948555e-06 -8.034519851207733e-06 0.0 0.0 0.0 0.0
1.413 -0.710435152053833 0.015784068033099174 -8.589588105678558e-06 -2.3676082491874695e-05 0.0 0.0 0.0 0.0
1.414 -0.7077248096466064 0.032196078449487686 3.1385570764541626e-07 9.052455425262451e-06 0.0 0.0 0.0 0.0
1.415 -0.7051571607589722 0.04902806133031845 -6.1336904764175415e-06 -6.6356733441352844e-06 0.0 0.0 0.0 0.0
1.416 -0.702197253704071 0.06591053307056427 8.518807590007782e-06 1.2265518307685852e-05 0.0 0.0 0.0 0.0
1.417 -0.6990313529968262 0.08209144324064255 -1.895613968372345e-05 -3.538094460964203e-06 0.0 0.0 0.0 0.0
1.418 -0.6956117153167725 0.09639614075422287 1.1058524250984192e-05 -9.329058229923248e-06 0.0 0.0 0.0 0.0
1.419 -0.6916490197181702 0.1120343804359436 -1.5103258192539215e-05 -1.919921487569809e-05 0.0 0.0 0.0 0.0
1.42 -0.687445342540741 0.12748654186725616 -3.7262216210365295e-06 5.335547029972076e-06 0.0 0.0 0.0 0.0
1.421 -0.6829690337181091 0.144191712141037 6.886199116706848e-06 -1.722574234008789e-05 0.0 0.0 0.0 0.0
1.422 -0.6774439811706543 0.15936627984046936 -6.402842700481415e-06 8.326955139636993e-06 0.0 0.0 0.0 0.0
1.423 -0.6725567579269409 0.17481444776058197 -8.258037269115448e-06 -6.84056431055069e-06 0.0 0.0 0.0 0.0
1.424 -0.666650116443634 0.19193658232688904 9.14745032787323e-06 -1.1269934475421906e-05 0.0 0.0 0.0 0.0
1.425 -0.6620069146156311 0.20488761365413666 4.721805453300476e-07 -1.7415732145309448e-07 0.0 0.0 0.0 0.0
1.426 -0.6550772786140442 0.2213985025882721 2.9122456908226013e-06 1.970399171113968e-05 0.0 0.0 0.0 0.0
1.427 -0.6491904854774475 0.235153928399086 -3.49879264831543e-05 -6.509944796562195e-06 0.0 0.0 0.0 0.0
1.428 -0.6423735618591309 0.2514955997467041 -1.57039612531662e-05 -1.5555880963802338e-05 0.0 0.0 0.0 0.0
1.429 -0.6352967619895935 0.26607853174209595 -6.239861249923706e-06 -2.960674464702606e-06 0.0 0.0 0.0 0.0
1.43 -0.6280622482299805 0.28062793612480164 4.802830517292023e-06 2.2163614630699158e-05 0.0 0.0 0.0 0.0
1.431 -0.6199759244918823 0.29617393016815186 -2.5416724383831024e-05 3.680586814880371e-06 0.0 0.0 0.0 0.0
1.432 -0.6131544709205627 0.30975809693336487 9.213574230670929e-06 1.144595444202423e-06 0.0 0.0 0.0 0.0
1.433 -0.6049909591674805 0.3238012492656708 -4.5495107769966125e-06 -2.5046057999134064e-05 0.0 0.0 0.0 0.0
1.434 -0.5967044234275818 0.33695685863494873 -1.0376796126365662e-05 8.05594027042389e-06 0.0 0.0 0.0 0.0
1.435 -0.5879082679748535 0.35171279311180115 2.723187208175659e-06 1.6835518181324005e-05 0.0 0.0 0.0 0.0
1.436 -0.5797231793403625 0.36448541283607483 1.118052750825882e-05 -8.584000170230865e-06 0.0 0.0 0.0 0.0
1.437 -0.5709457397460938 0.37862062454223633 2.0612962543964386e-05 1.3694167137145996e-05 0.0 0.0 0.0 0.0
1.438 -0.5594290494918823 0.3938636779785156 -4.773028194904327e-06 -1.710839569568634e-06 0.0 0.0 0.0 0.0
1.439 -0.5511592030525208 0.40570616722106934 -8.400529623031616e-07 4.7227367758750916e-06 0.0 0.0 0.0 0.0
1.44 -0.5415071845054626 0.4180493950843811 -2.843327820301056e-06 -4.035420715808868e-06 0.0 0.0 0.0 0.0
1.441 -0.5301699638366699 0.4317409098148346 2.571381628513336e-06 9.519048035144806e-06 0.0 0.0 0.0 0.0
1.442 -0.5212961435317993 0.44305703043937683 -2.7725473046302795e-06 -1.0058283805847168e-05 0.0 0.0 0.0 0.0
1.443 -0.5101355910301208 0.45538604259490967 -1.355726271867752e-05 -1.4046207070350647e-05 0.0 0.0 0.0 0.0
1.444 -0.4984135925769806 0.4689105451107025 1.2733973562717438e-05 -5.811452865600586e-06 0.0 0.0 0.0 0.0
1.445 -0.48705944418907166 0.4820575416088104 -1.2604519724845886e-05 -9.73232090473175e-06 0.0 0.0 0.0 0.0
1.446 -0.4756641983985901 0.4929446280002594 1.301988959312439e-05 -4.145316779613495e-06 0.0 0.0 0.0 0.0
1.447 -0.4648466110229492 0.5037767887115479 5.284324288368225e-06 -3.1068921089172363e-06 0.0 0.0 0.0 0.0
1.448 -0.45308664441108704 0.5162148475646973 2.4567358195781708e-05 2.214685082435608e-06 0.0 0.0 0.0 0.0
1.449 -0.4409677982330322 0.5262846350669861 -1.563131809234619e-05 -2.3946166038513184e-05 0.0 0.0 0.0 0.0
1.45 -0.42706942558288574 0.5380498170852661 -4.834495484828949e-06 -2.1991319954395294e-05 0.0 0.0 0.0 0.0
1.451 -0.41553857922554016 0.5485015511512756 -1.1747702956199646e-05 3.8363970816135406e-05 0.0 0.0 0.0 0.0
1.452 -0.40323731303215027 0.5583552718162537 7.889233529567719e-06 -1.628883183002472e-06 0.0 0.0 0.0 0.0
1.453 -0.39027196168899536 0.5687651038169861 -1.0093674063682556e-05 3.8780272006988525e-06 0.0 0.0 0.0 0.0
1.454 -0.37633222341537476 0.5790561437606812 -9.085051715373993e-06 8.298084139823914e-07 0.0 0.0 0.0 0.0
1.455 -0.3631121814250946 0.5876879692077637 8.016824722290039e-06 -2.415478229522705e-05 0.0 0.0 0.0 0.0
1.456 -0.34929758310317993 0.598118007183075 3.2354146242141724e-06 -2.0262785255908966e-05 0.0 0.0 0.0 0.0
1.457 -0.33685460686683655 0.6064760088920593 5.21540641784668e-07 1.5236437320709229e-05 0.0 0.0 0.0 0.0
1.458 -0.3230745494365692 0.6154703497886658 5.105510354042053e-06 -1.4943070709705353e-05 0.0 0.0 0.0 0.0
1.459 -0.30709394812583923 0.624809980392456 8.410774171352386e-06 -4.920177161693573e-06 0.0 0.0 0.0 0.0
1.46 -0.2944392263889313 0.6333659291267395 -1.9053928554058075e-05 -1.0591000318527222e-05 0.0 0.0 0.0 0.0
1.461 -0.2786177396774292 0.6407269835472107 1.1189840734004974e-05 -5.146488547325134e-06 0.0 0.0 0.0 0.0
1.462 -0.2652011811733246 0.647849440574646 -8.219853043556213e-06 -1.5049241483211517e-05 0.0 0.0 0.0 0.0
1.463 -0.25116923451423645 0.6554347276687622 -1.7124228179454803e-05 -1.8298625946044922e-05 0.0 0.0 0.0 0.0
1.464 -0.23449164628982544 0.662879228591919 -1.4573335647583008e-05 4.609115421772003e-06 0.0 0.0 0.0 0.0
1.465 -0.22129200398921967 0.6689677238464355 -5.513429641723633e-06 -5.598179996013641e-06 0.0 0.0 0.0 0.0
1.466 -0.20658674836158752 0.6762703061103821 9.207986295223236e-06 6.8070366978645325e-06 0.0 0.0 0.0 0.0
1.467 -0.18959036469459534 0.6829128265380859 -2.2674910724163055e-05 -1.7397105693817139e-06 0.0 0.0 0.0 0.0
1.468 -0.17351417243480682 0.6883894801139832 -1.7141923308372498e-05 -3.0406750738620758e-05 0.0 0.0 0.0 0.0
1.469 -0.15856249630451202 0.6938981413841248 -1.4055520296096802e-05 -2.0366162061691284e-05 0.0 0.0 0.0 0.0
1.47 -0.14260117709636688 0.6991592645645142 -8.862465620040894e-06 -1.871492713689804e-05 0.0 0.0 0.0 0.0
1.471 -0.12642046809196472 0.7043221592903137 -1.4659017324447632e-05 4.229135811328888e-06 0.0 0.0 0.0 0.0
1.472 -0.11144212633371353 0.7079825401306152 -8.927658200263977e-06 4.482455551624298e-06 0.0 0.0 0.0 0.0
1.473 -0.09372923523187637 0.713330864906311 -1.073349267244339e-05 -7.180497050285339e-06 0.0 0.0 0.0 0.0
1.474 -0.07895594090223312 0.7169232368469238 -7.096678018569946e-07 6.942078471183777e-06 0.0 0.0 0.0 0.0
1.475 -0.0641094371676445 0.7206960916519165 -1.6364268958568573e-05 -1.1938624083995819e-05 0.0 0.0 0.0 0.0
1.476 -0.047158122062683105 0.7241544127464294 -1.0313466191291809e-05 3.997236490249634e-06 0.0 0.0 0.0 0.0
1.477 -0.029748214408755302 0.72678542137146 -1.3474375009536743e-05 -1.6568228602409363e-05 0.0 0.0 0.0 0.0
1.478 -0.013196185231208801 0.7287448048591614 6.274320185184479e-06 1.8530525267124176e-05 0.0 0.0 0.0 0.0
1.479 0.004019935615360737 0.7320295572280884 1.573283225297928e-05 -6.400980055332184e-06 0.0 0.0 0.0 0.0
1.48 0.02065788023173809 0.7343986630439758 7.391907274723053e-06 8.355826139450073e-06 0.0 0.0 0.0 0.0
1.481 0.03716155141592026 0.7362438440322876 -4.032626748085022e-07 1.5981495380401611e-06 0.0 0.0 0.0 0.0
1.482 0.05175372213125229 0.7375463247299194 -1.637730747461319e-05 5.848705768585205e-07 0.0 0.0 0.0 0.0
1.483 0.06862535327672958 0.7384328842163086 7.5837597250938416e-06 2.3422762751579285e-06 0.0 0.0 0.0 0.0
1.484 0.0855550467967987 0.7381047010421753 -1.4569610357284546e-05 6.002373993396759e-06 0.0 0.0 0.0 0.0
1.485 0.10435251891613007 0.7391801476478577 -1.101754605770111e-06 8.820556104183197e-06 0.0 0.0 0.0 0.0
1.486 0.12084020674228668 0.7386012673377991 -1.8152408301830292e-05 -2.5541521608829498e-05 0.0 0.0 0.0 0.0
1.487 0.13792265951633453 0.7380297780036926 -1.6804784536361694e-05 -2.277083694934845e-06 0.0 0.0 0.0 0.0
1.488 0.15337201952934265 0.7373680472373962 6.159767508506775e-06 3.618188202381134e-06 0.0 0.0 0.0 0.0
1.489 0.16966693103313446 0.7374850511550903 7.844530045986176e-06 6.331130862236023e-06 0.0 0.0 0.0 0.0
1.49 0.18541446328163147 0.7356579303741455 2.6384368538856506e-06 2.2777356207370758e-05 0.0 0.0 0.0 0.0
1.491 0.20295915007591248 0.7340461611747742 -3.3583492040634155e-06 -2.639368176460266e-06 0.0 0.0 0.0 0.0
1.492 0.21955062448978424 0.7318975329399109 -5.5283308029174805e-06 2.575106918811798e-06 0.0 0.0 0.0 0.0
1.493 0.23650184273719788 0.728961706161499 1.1494383215904236e-05 -1.084897667169571e-05 0.0 0.0 0.0 0.0
1.494 0.25398409366607666 0.7258152961730957 2.1224841475486755e-06 7.656402885913849e-06 0.0 0.0 0.0 0.0
1.495 0.26914381980895996 0.7230744957923889 -1.245737075805664e-05 -8.717179298400879e-07 0.0 0.0 0.0 0.0
1.496 0.2855055332183838 0.7192075848579407 -2.055428922176361e-06 -5.947425961494446e-06 0.0 0.0 0.0 0.0
1.497 0.3032177984714508 0.715981125831604 -7.295981049537659e-06 2.0182691514492035e-05 0.0 0.0 0.0 0.0
1.498 0.318367063999176 0.7111722230911255 -4.244036972522736e-06 2.219807356595993e-05 0.0 0.0 0.0 0.0
1.499 0.33462804555892944 0.7068964838981628 1.5478581190109253e-06 4.361383616924286e-06 0.0 0.0 0.0 0.0
1.5 0.35236307978630066 0.7020809054374695 -1.581292599439621e-05 -2.0983628928661346e-05 0.0 0.0 0.0 0.0
1.501 0.36774954199790955 0.696426272392273 2.726912498474121e-06 -5.8785080909729e-06 0.0 0.0 0.0 0.0
1.502 0.3839547634124756 0.6910755038261414 1.953914761543274e-06 3.764405846595764e-06 0.0 0.0 0.0 0.0
1.503 0.3980658948421478 0.6857114434242249 -6.592832505702972e-06 7.730908691883087e-06 0.0 0.0 0.0 0.0
1.504 0.41361361742019653 0.6787501573562622 -2.221483737230301e-05 2.2854655981063843e-05 0.0 0.0 0.0 0.0
1.505 0.4289746582508087 0.6726546287536621 -5.010515451431274e-07 -5.2694231271743774e-06 0.0 0.0 0.0 0.0
1.506 0.4464322328567505 0.6648568511009216 -6.81169331073761e-06 4.445202648639679e-06 0.0 0.0 0.0 0.0
1.507 0.4608016610145569 0.6583572030067444 -1.170579344034195e-05 -1.7527490854263306e-05 0.0 0.0 0.0 0.0
1.508 0.4737870693206787 0.6521961092948914 -5.634501576423645e-07 1.6151927411556244e-05 0.0 0.0 0.0 0.0
1.509 0.48939236998558044 0.6436173319816589 1.3690441846847534e-06 -9.599141776561737e-06 0.0 0.0 0.0 0.0
1.51 0.502991795539856 0.6357342600822449 -1.6053207218647003e-05 1.6250647604465485e-05 0.0 0.0 0.0 0.0
1.511 0.5177512168884277 0.6277293562889099 -1.6588717699050903e-05 1.4011748135089874e-05 0.0 0.0 0.0 0.0
1.512 0.535041093826294 0.61055988073349 -2.5779008865356445e-06 -8.204951882362366e-07 0.0 0.0 0.0 0.0
1.513 0.5464815497398376 0.6093634963035583 -3.8603320717811584e-06 5.299225449562073e-07 0.0 0.0 0.0 0.0
1.514 0.5601993203163147 0.5994547605514526 1.4052726328372955e-05 -4.889443516731262e-06 0.0 0.0 0.0 0.0
1.515 0.5751914381980896 0.5890665054321289 -1.0989606380462646e-06 -8.859671652317047e-06 0.0 0.0 0.0 0.0
1.516 0.5881018042564392 0.5805865526199341 1.8504448235034943e-05 -1.9793398678302765e-05 0.0 0.0 0.0 0.0
1.517 0.6009242534637451 0.5705157518386841 -1.5088357031345367e-05 -2.2258609533309937e-07 0.0 0.0 0.0 0.0
1.518 0.6141083240509033 0.5589858889579773 -6.83218240737915e-06 -7.769092917442322e-06 0.0 0.0 0.0 0.0
1.519 0.6263098120689392 0.5495709776878357 -8.042901754379272e-06 1.5039928257465363e-05 0.0 0.0 0.0 0.0
1.52 0.6387383937835693 0.5383207201957703 -2.127513289451599e-05 1.651514321565628e-05 0.0 0.0 0.0 0.0
1.521 0.651652991771698 0.5267427563667297 -2.1068379282951355e-05 -8.394941687583923e-06 0.0 0.0 0.0 0.0
1.522 0.664150595664978 0.5146665573120117 -2.863071858882904e-05 -3.5101547837257385e-06 0.0 0.0 0.0 0.0
1.523 0.6769756078720093 0.5022490620613098 1.0007992386817932e-05 -2.152286469936371e-05 0.0 0.0 0.0 0.0
1.524 0.688991904258728 0.4945840537548065 -1.477077603340149e-06 -3.847293555736542e-06 0.0 0.0 0.0 0.0
1.525 0.698276698589325 0.4804776608943939 6.516464054584503e-06 -1.3805925846099854e-05 0.0 0.0 0.0 0.0
1.526 0.709734320640564 0.46648404002189636 -2.220645546913147e-05 4.489906132221222e-06 0.0 0.0 0.0 0.0
1.527 0.7193573117256165 0.4552799463272095 1.3153068721294403e-05 9.532086551189423e-06 0.0 0.0 0.0 0.0
1.528 0.730398952960968 0.441386342048645 -1.1285766959190369e-05 -6.038695573806763e-06 0.0 0.0 0.0 0.0
1.529 0.7409684062004089 0.42855748534202576 -1.637078821659088e-05 -9.999610483646393e-06 0.0 0.0 0.0 0.0
1.53 0.7511937618255615 0.41424480080604553 -1.693330705165863e-05 -1.4483928680419922e-05 0.0 0.0 0.0 0.0
1.531 0.7596730589866638 0.40236133337020874 4.063360393047333e-06 1.4037825167179108e-05 0.0 0.0 0.0 0.0
1.532 0.769002377986908 0.38976624608039856 -1.4523044228553772e-05 4.2146071791648865e-05 0.0 0.0 0.0 0.0
1.533 0.7783088088035583 0.3749646246433258 -5.6549906730651855e-06 -2.3441389203071594e-06 0.0 0.0 0.0 0.0
1.534 0.7874297499656677 0.36137038469314575 -8.827075362205505e-06 -1.5618279576301575e-05 0.0 0.0 0.0 0.0
1.535 0.794885516166687 0.3472188413143158 -1.2373551726341248e-05 4.082918167114258e-06 0.0 0.0 0.0 0.0
1.536 0.8056454658508301 0.32955202460289 -5.033798515796661e-06 -1.1399388313293457e-06 0.0 0.0 0.0 0.0
1.537 0.811815619468689 0.3179839849472046 -9.088777005672455e-06 8.330680429935455e-06 0.0 0.0 0.0 0.0
1.538 0.8193804621696472 0.3030637800693512 -4.1602179408073425e-05 4.079192876815796e-06 0.0 0.0 0.0 0.0
1.539 0.8259625434875488 0.2897985279560089 -8.891336619853973e-06 -3.296881914138794e-07 0.0 0.0 0.0 0.0
1.54 0.8327709436416626 0.2746738791465759 -7.647089660167694e-06 9.456649422645569e-06 0.0 0.0 0.0 0.0
1.541 0.8389325141906738 0.25996553897857666 2.1029263734817505e-06 -6.26780092716217e-07 0.0 0.0 0.0 0.0
1.542 0.8455561995506287 0.24439771473407745 -2.7534551918506622e-05 -1.0672956705093384e-06 0.0 0.0 0.0 0.0
1.543 0.8517698645591736 0.22982491552829742 -2.1385028958320618e-05 3.298744559288025e-06 0.0 0.0 0.0 0.0
1.544 0.857052206993103 0.2139851599931717 -1.7395243048667908e-05 2.015475183725357e-05 0.0 0.0 0.0 0.0
1.545 0.8621618747711182 0.19986756145954132 5.116686224937439e-06 1.7201527953147888e-06 0.0 0.0 0.0 0.0
1.546 0.8674224615097046 0.18342049419879913 4.936940968036652e-06 -1.5869736671447754e-06 0.0 0.0 0.0 0.0
1.547 0.8708597421646118 0.16864728927612305 -1.3356097042560577e-05 1.198798418045044e-05 0.0 0.0 0.0 0.0
1.548 0.8749536871910095 0.15249890089035034 1.7192214727401733e-06 -4.90434467792511e-06 0.0 0.0 0.0 0.0
1.549 0.8794182538986206 0.13687753677368164 3.61073762178421e-06 1.6911886632442474e-05 0.0 0.0 0.0 0.0
1.55 0.8831203579902649 0.12006906419992447 2.4665147066116333e-05 2.8789974749088287e-05 0.0 0.0 0.0 0.0
1.551 0.8873090147972107 0.10365862399339676 -2.7027912437915802e-05 2.257712185382843e-05 0.0 0.0 0.0 0.0
1.552 0.8896538615226746 0.09072902053594589 -1.1984258890151978e-05 5.587935447692871e-09 0.0 0.0 0.0 0.0
1.553 0.8919808864593506 0.07487424463033676 -3.624986857175827e-05 1.212581992149353e-05 0.0 0.0 0.0 0.0
1.554 0.8945062756538391 0.0602584034204483 5.1138922572135925e-06 1.1718831956386566e-05 0.0 0.0 0.0 0.0
1.555 0.896202027797699 0.04124859347939491 -9.727664291858673e-06 1.898501068353653e-05 0.0 0.0 0.0 0.0
1.556 0.8978488445281982 0.025880785658955574 -7.394701242446899e-06 1.0188668966293335e-05 0.0 0.0 0.0 0.0
1.557 0.899120032787323 0.009969254955649376 2.9510818421840668e-05 9.323470294475555e-06 0.0 0.0 0.0 0.0
1.558 0.9003481864929199 -0.005368824116885662 -1.4749355614185333e-05 -2.1938234567642212e-05 0.0 0.0 0.0 0.0
1.559 0.9007510542869568 -0.01966680958867073 6.8675726652145386e-06 -5.4622069001197815e-06 0.0 0.0 0.0 0.0
1.56 0.9004907011985779 -0.036126524209976196 -6.209127604961395e-06 1.7095357179641724e-05 0.0 0.0 0.0 0.0
1.561 0.9010306596755981 -0.051745735108852386 -6.203539669513702e-06 -2.2873282432556152e-06 0.0 0.0 0.0 0.0
1.562 0.9006432294845581 -0.06929975748062134 5.14741986989975e-06 -1.228228211402893e-05 0.0 0.0 0.0 0.0
1.563 0.9001421332359314 -0.0857485830783844 -1.7306767404079437e-05 -4.7031790018081665e-07 0.0 0.0 0.0 0.0
1.564 0.8992851376533508 -0.09981204569339752 -1.8331222236156464e-05 -1.4145858585834503e-05 0.0 0.0 0.0 0.0
1.565 0.8981962203979492 -0.11481895297765732 -1.8290244042873383e-05 6.435438990592957e-07 0.0 0.0 0.0 0.0
1.566 0.8962222337722778 -0.1313733011484146 1.0522082448005676e-05 -1.3456679880619049e-05 0.0 0.0 0.0 0.0
1.567 0.8940838575363159 -0.14628782868385315 -6.650574505329132e-06 2.9243528842926025e-07 0.0 0.0 0.0 0.0
1.568 0.8918443322181702 -0.16131047904491425 1.7474405467510223e-05 -8.375383913516998e-06 0.0 0.0 0.0 0.0
1.569 0.8895015716552734 -0.17800062894821167 7.825903594493866e-06 5.790963768959045e-06 0.0 0.0 0.0 0.0
1.57 0.8865737915039062 -0.19373059272766113 1.935381442308426e-05 1.4021061360836029e-05 0.0 0.0 0.0 0.0
1.571 0.8836590647697449 -0.2081798017024994 2.601277083158493e-05 1.710839569568634e-05 0.0 0.0 0.0 0.0
1.572 0.8808608055114746 -0.22328810393810272 2.6170164346694946e-06 1.504458487033844e-05 0.0 0.0 0.0 0.0
1.573 0.8755518794059753 -0.23836573958396912 -7.929280400276184e-06 5.684792995452881e-06 0.0 0.0 0.0 0.0
1.574 0.871859610080719 -0.2527778744697571 7.310882210731506e-07 3.332272171974182e-06 0.0 0.0 0.0 0.0
1.575 0.8683815598487854 -0.26929178833961487 -6.88992440700531e-06 9.406358003616333e-08 0.0 0.0 0.0 0.0
1.576 0.8631905317306519 -0.28374600410461426 2.610962837934494e-05 -1.7055310308933258e-05 0.0 0.0 0.0 0.0
1.577 0.8583465218544006 -0.2991391122341156 1.1849217116832733e-05 -1.3340264558792114e-05 0.0 0.0 0.0 0.0
1.578 0.8540139198303223 -0.31053680181503296 -2.850499004125595e-05 3.229361027479172e-05 0.0 0.0 0.0 0.0
1.579 0.8485687971115112 -0.3261473774909973 -1.1220574378967285e-05 4.3762847781181335e-06 0.0 0.0 0.0 0.0
1.58 0.8415221571922302 -0.3426200747489929 -1.1364929378032684e-05 2.0575709640979767e-05 0.0 0.0 0.0 0.0
1.581 0.8360002636909485 -0.3543676733970642 -8.655712008476257e-06 -4.41819429397583e-06 0.0 0.0 0.0 0.0
1.582 0.828668475151062 -0.37094539403915405 -5.034729838371277e-06 8.413568139076233e-06 0.0 0.0 0.0 0.0
1.583 0.8239687085151672 -0.3818764388561249 5.988404154777527e-07 -2.5843270123004913e-05 0.0 0.0 0.0 0.0
1.584 0.8143941164016724 -0.39708712697029114 1.7452985048294067e-06 3.342237323522568e-05 0.0 0.0 0.0 0.0
1.585 0.8096683621406555 -0.4097851514816284 6.931833922863007e-06 1.6028992831707e-05 0.0 0.0 0.0 0.0
1.586 0.8029907941818237 -0.42285674810409546 4.3762847781181335e-06 -4.462897777557373e-06 0.0 0.0 0.0 0.0
1.587 0.7949541211128235 -0.43622446060180664 1.8406659364700317e-05 9.67271625995636e-06 0.0 0.0 0.0 0.0
1.588 0.7871862649917603 -0.44986918568611145 -1.2928619980812073e-05 1.2071803212165833e-05 0.0 0.0 0.0 0.0
1.589 0.7781153917312622 -0.4630831480026245 -1.7851591110229492e-05 2.0234845578670502e-05 0.0 0.0 0.0 0.0
1.59 0.7709269523620605 -0.4764629304409027 -2.684071660041809e-05 7.5018033385276794e-06 0.0 0.0 0.0 0.0
1.591 0.762355387210846 -0.4871949255466461 2.897065132856369e-05 1.2512318789958954e-05 0.0 0.0 0.0 0.0
1.592 0.7531847357749939 -0.501234769821167 -3.512948751449585e-06 -1.8863007426261902e-05 0.0 0.0 0.0 0.0
1.593 0.7439922094345093 -0.5135231018066406 -1.650676131248474e-05 -8.590519428253174e-06 0.0 0.0 0.0 0.0
1.594 0.7354228496551514 -0.5243806838989258 -1.1538155376911163e-05 5.009584128856659e-06 0.0 0.0 0.0 0.0
1.595 0.7263420224189758 -0.535461962223053 8.48621129989624e-06 -6.921589374542236e-06 0.0 0.0 0.0 0.0
1.596 0.7128800749778748 -0.5494278073310852 -6.322748959064484e-06 -5.910173058509827e-06 0.0 0.0 0.0 0.0
1.597 0.7056053280830383 -0.5600587129592896 9.921379387378693e-06 9.268522262573242e-06 0.0 0.0 0.0 0.0
1.598 0.6966956853866577 -0.5702726244926453 -1.2598000466823578e-05 -4.480592906475067e-06 0.0 0.0 0.0 0.0
1.599 0.6852772831916809 -0.5832400321960449 5.776062607765198e-06 8.05780291557312e-06 0.0 0.0 0.0 0.0
1.6 0.6775823831558228 -0.5910090208053589 9.281560778617859e-06 1.7655082046985626e-05 0.0 0.0 0.0 0.0
1.601 0.6646345853805542 -0.6026677489280701 1.2411735951900482e-05 2.1830201148986816e-06 0.0 0.0 0.0 0.0
1.602 0.6557959318161011 -0.611536979675293 2.707354724407196e-06 -8.301809430122375e-06 0.0 0.0 0.0 0.0
1.603 0.6423149704933167 -0.6249106526374817 -1.3737007975578308e-05 -2.4652108550071716e-06 0.0 0.0 0.0 0.0
1.604 0.6304200291633606 -0.6338658332824707 9.822659194469452e-06 -5.653128027915955e-06 0.0 0.0 0.0 0.0
1.605 0.62003093957901 -0.643008828163147 -2.50060111284256e-06 1.4026649296283722e-05 0.0 0.0 0.0 0.0
1.606 0.6075661182403564 -0.6535592079162598 1.4592893421649933e-05 -1.276843249797821e-06 0.0 0.0 0.0 0.0
1.607 0.598630428314209 -0.6599962711334229 8.285976946353912e-06 7.368624210357666e-06 0.0 0.0 0.0 0.0
1.608 0.583829402923584 -0.6750731468200684 1.344829797744751e-05 -5.675479769706726e-06 0.0 0.0 0.0 0.0
1.609 0.5725101828575134 -0.6797145009040833 -2.5294721126556396e-06 2.242065966129303e-05 0.0 0.0 0.0 0.0
1.61 0.5599104166030884 -0.6871879696846008 1.3153068721294403e-05 -1.7480924725532532e-06 0.0 0.0 0.0 0.0
1.611 0.5494086146354675 -0.6949407458305359 1.3782642781734467e-05 1.455843448638916e-05 0.0 0.0 0.0 0.0
1.612 0.5352881550788879 -0.7052335739135742 -1.0061077773571014e-05 -6.75395131111145e-06 0.0 0.0 0.0 0.0
1.613 0.5231853127479553 -0.7117263078689575 -2.7921050786972046e-06 -1.3606622815132141e-06 0.0 0.0 0.0 0.0
1.614 0.510563850402832 -0.7186756134033203 -2.6321038603782654e-05 -4.363246262073517e-06 0.0 0.0 0.0 0.0
1.615 0.49716347455978394 -0.727570116519928 -8.129514753818512e-06 -2.212822437286377e-06 0.0 0.0 0.0 0.0
1.616 0.48414796590805054 -0.734393835067749 -1.109391450881958e-05 -1.4122575521469116e-05 0.0 0.0 0.0 0.0
1.617 0.4719740152359009 -0.7413034439086914 1.0894611477851868e-05 -1.0191462934017181e-05 0.0 0.0 0.0 0.0
1.618 0.4566902816295624 -0.7445361614227295 -1.6558915376663208e-06 2.147722989320755e-05 0.0 0.0 0.0 0.0
1.619 0.44504454731941223 -0.7536408305168152 2.9080547392368317e-05 -6.574206054210663e-06 0.0 0.0 0.0 0.0
1.62 0.43432745337486267 -0.7579357624053955 -4.005618393421173e-06 4.860572516918182e-06 0.0 0.0 0.0 0.0
1.621 0.4156114161014557 -0.7677668929100037 -2.2144056856632233e-05 8.362345397472382e-06 0.0 0.0 0.0 0.0
1.622 0.40367141366004944 -0.7709075808525085 5.5730342864990234e-06 2.5462359189987183e-06 0.0 0.0 0.0 0.0
1.623 0.3903075158596039 -0.7758504748344421 -2.2470951080322266e-05 4.844740033149719e-06 0.0 0.0 0.0 0.0
1.624 0.37479767203330994 -0.7817003130912781 1.2032687664031982e-06 8.040107786655426e-06 0.0 0.0 0.0 0.0
1.625 0.361454576253891 -0.7856482267379761 1.0559335350990295e-05 -1.058913767337799e-06 0.0 0.0 0.0 0.0
1.626 0.34559595584869385 -0.7915133833885193 4.547648131847382e-06 7.863156497478485e-06 0.0 0.0 0.0 0.0
1.627 0.3331104516983032 -0.796065092086792 5.559064447879791e-06 1.780875027179718e-05 0.0 0.0 0.0 0.0
1.628 0.3182736337184906 -0.798496425151825 1.4621764421463013e-07 8.536502718925476e-06 0.0 0.0 0.0 0.0
1.629 0.3038952648639679 -0.8019018769264221 -4.437752068042755e-06 2.9066577553749084e-05 0.0 0.0 0.0 0.0
1.63 0.2880669832229614 -0.8070218563079834 1.5231780707836151e-05 1.1309981346130371e-05 0.0 0.0 0.0 0.0
1.631 0.27544450759887695 -0.8091495633125305 1.9984319806098938e-05 1.247599720954895e-05 0.0 0.0 0.0 0.0
1.632 0.2644391655921936 -0.8190065026283264 1.5449710190296173e-05 -1.3578683137893677e-06 0.0 0.0 0.0 0.0
1.633 0.24299681186676025 -0.8159563541412354 1.800619065761566e-05 1.407228410243988e-06 0.0 0.0 0.0 0.0
1.634 0.23306939005851746 -0.8164938688278198 -3.078952431678772e-06 -4.034489393234253e-06 0.0 0.0 0.0 0.0
1.635 0.21685358881950378 -0.8198434710502625 1.048017293214798e-05 1.5232712030410767e-05 0.0 0.0 0.0 0.0
1.636 0.20002640783786774 -0.8203912973403931 1.5169382095336914e-05 4.062429070472717e-06 0.0 0.0 0.0 0.0
1.637 0.18815425038337708 -0.8226017355918884 8.298084139823914e-07 2.1010637283325195e-06 0.0 0.0 0.0 0.0
1.638 0.17392908036708832 -0.8216186761856079 5.922280251979828e-06 -1.0787509381771088e-05 0.0 0.0 0.0 0.0
1.639 0.15636351704597473 -0.8236990571022034 -1.079309731721878e-05 2.1900981664657593e-05 0.0 0.0 0.0 0.0
1.64 0.1416895091533661 -0.823905885219574 1.0418705642223358e-05 1.1246651411056519e-05 0.0 0.0 0.0 0.0
1.641 0.12618683278560638 -0.8247293829917908 2.5015324354171753e-06 2.9960647225379944e-06 0.0 0.0 0.0 0.0
1.642 0.11209677904844284 -0.8252495527267456 4.1639432311058044e-06 -2.47173011302948e-06 0.0 0.0 0.0 0.0
1.643 0.09891186654567719 -0.8247866630554199 2.8617680072784424e-05 5.270354449748993e-06 0.0 0.0 0.0 0.0
1.644 0.08362893015146255 -0.8315834999084473 1.855660229921341e-05 -2.1237879991531372e-05 0.0 0.0 0.0 0.0
1.645 0.07001113146543503 -0.8250693678855896 -1.5253201127052307e-05 1.0211020708084106e-05 0.0 0.0 0.0 0.0
1.646 0.05586843565106392 -0.8232679963111877 4.199333488941193e-06 -1.11432746052742e-05 0.0 0.0 0.0 0.0
1.647 0.03915265202522278 -0.8218433260917664 1.590140163898468e-05 1.0245479643344879e-05 0.0 0.0 0.0 0.0
1.648 0.024276748299598694 -0.8185141086578369 1.040380448102951e-05 2.691522240638733e-07 0.0 0.0 0.0 0.0
1.649 0.00783325545489788 -0.818902850151062 8.248724043369293e-06 5.710870027542114e-06 0.0 0.0 0.0 0.0
1.65 -0.006369086913764477 -0.8177485466003418 2.1262094378471375e-06 2.4242326617240906e-05 0.0 0.0 0.0 0.0
1.651 -0.022846873849630356 -0.8143332600593567 -1.9848346710205078e-05 -1.7754733562469482e-05 0.0 0.0 0.0 0.0
1.652 -0.035007257014513016 -0.8115869760513306 -1.9954517483711243e-05 5.709007382392883e-07 0.0 0.0 0.0 0.0
1.653 -0.04946768283843994 -0.808929979801178 8.009374141693115e-06 -8.623115718364716e-06 0.0 0.0 0.0 0.0
1.654 -0.066171795129776 -0.8054708242416382 -6.780959665775299e-06 4.3492764234542847e-07 0.0 0.0 0.0 0.0
1.655 -0.08050583302974701 -0.8012102246284485 1.3909302651882172e-05 -7.721595466136932e-06 0.0 0.0 0.0 0.0
1.656 -0.08951327949762344 -0.7991257905960083 5.0067901611328125e-06 -2.4869106709957123e-05 0.0 0.0 0.0 0.0
1.657 -0.11111801117658615 -0.7927687168121338 -1.2048520147800446e-05 -2.4922192096710205e-06 0.0 0.0 0.0 0.0
1.658 -0.12484515458345413 -0.7889392971992493 1.5822239220142365e-05 -1.4387071132659912e-05 0.0 0.0 0.0 0.0
1.659 -0.1390305757522583 -0.7847464084625244 -1.1686235666275024e-05 1.2375414371490479e-05 0.0 0.0 0.0 0.0
1.66 -0.15217450261116028 -0.77889484167099 3.8351863622665405e-06 -1.449882984161377e-05 0.0 0.0 0.0 0.0
1.661 -0.16665200889110565 -0.7736623883247375 8.084811270236969e-06 -7.553957402706146e-06 0.0 0.0 0.0 0.0
1.662 -0.1801830530166626 -0.7686180472373962 8.378177881240845e-06 -2.1615996956825256e-06 0.0 0.0 0.0 0.0
1.663 -0.19517359137535095 -0.7630780339241028 9.877607226371765e-06 1.155957579612732e-05 0.0 0.0 0.0 0.0
1.664 -0.2135542780160904 -0.7560907006263733 1.4839693903923035e-05 -2.0913779735565186e-05 0.0 0.0 0.0 0.0
1.665 -0.2234446406364441 -0.7520274519920349 2.003367990255356e-05 -7.768161594867706e-06 0.0 0.0 0.0 0.0
1.666 -0.23721283674240112 -0.7436069250106812 -5.623325705528259e-06 3.3999793231487274e-05 0.0 0.0 0.0 0.0
1.667 -0.2506970763206482 -0.7368271946907043 -1.603737473487854e-06 -1.6639940440654755e-05 0.0 0.0 0.0 0.0
1.668 -0.26572906970977783 -0.723950207233429 8.022412657737732e-06 -1.537427306175232e-05 0.0 0.0 0.0 0.0
1.669 -0.2798311412334442 -0.7218015193939209 -8.410774171352386e-06 1.302175223827362e-05 0.0 0.0 0.0 0.0
1.67 -0.2898420989513397 -0.7150035500526428 1.6262754797935486e-05 -2.041645348072052e-05 0.0 0.0 0.0 0.0
1.671 -0.30658504366874695 -0.7056012749671936 -8.0866739153862e-06 9.94652509689331e-07 0.0 0.0 0.0 0.0
1.672 -0.3194618821144104 -0.6979032158851624 1.3857148587703705e-05 6.80144876241684e-06 0.0 0.0 0.0 0.0
1.673 -0.3340638279914856 -0.688679039478302 2.9661692678928375e-05 1.7590820789337158e-05 0.0 0.0 0.0 0.0
1.674 -0.34452179074287415 -0.6790475845336914 -6.047077476978302e-06 1.15223228931427e-05 0.0 0.0 0.0 0.0
1.675 -0.3577860891819 -0.6708755493164062 -1.855846494436264e-05 -2.6365742087364197e-06 0.0 0.0 0.0 0.0
1.676 -0.3700614869594574 -0.6624572277069092 3.059394657611847e-06 -1.3560988008975983e-05 0.0 0.0 0.0 0.0
1.677 -0.3829393982887268 -0.6522564888000488 -5.652196705341339e-06 -4.07826155424118e-06 0.0 0.0 0.0 0.0
1.678 -0.39417824149131775 -0.6422087550163269 5.928799510002136e-06 1.125037670135498e-05 0.0 0.0 0.0 0.0
1.679 -0.4067763090133667 -0.6328268051147461 -6.0694292187690735e-06 -3.822147846221924e-06 0.0 0.0 0.0 0.0
1.68 -0.41680124402046204 -0.6211821436882019 1.956801861524582e-05 1.5813857316970825e-05 0.0 0.0 0.0 0.0
1.681 -0.4303155243396759 -0.611560046672821 1.7823651432991028e-05 -1.845136284828186e-05 0.0 0.0 0.0 0.0
1.682 -0.44098690152168274 -0.6020452380180359 -5.166977643966675e-06 -1.2784264981746674e-05 0.0 0.0 0.0 0.0
1.683 -0.45419546961784363 -0.5887379050254822 -8.269213140010834e-06 -7.634051144123077e-06 0.0 0.0 0.0 0.0
1.684 -0.46407467126846313 -0.5782917737960815 1.7546117305755615e-06 -9.492971003055573e-06 0.0 0.0 0.0 0.0
1.685 -0.4761944115161896 -0.5666437745094299 -3.842636942863464e-06 -1.4064833521842957e-05 0.0 0.0 0.0 0.0
1.686 -0.48773568868637085 -0.5546347498893738 -5.397014319896698e-06 1.2761913239955902e-05 0.0 0.0 0.0 0.0
1.687 -0.4983311593532562 -0.5428544282913208 2.017989754676819e-05 -2.0675361156463623e-07 0.0 0.0 0.0 0.0
1.688 -0.507145881652832 -0.5307936072349548 -4.633329808712006e-06 -1.67088583111763e-05 0.0 0.0 0.0 0.0
1.689 -0.5177567005157471 -0.5185858607292175 -4.349276423454285e-06 -4.8317015171051025e-06 0.0 0.0 0.0 0.0
1.69 -0.5279639363288879 -0.5056086182594299 -3.0659139156341553e-06 -3.0358321964740753e-05 0.0 0.0 0.0 0.0
1.691 -0.5376150012016296 -0.49086320400238037 -2.573244273662567e-06 1.5097670257091522e-05 0.0 0.0 0.0 0.0
1.692 -0.5491786003112793 -0.4773264229297638 4.804693162441254e-06 5.814246833324432e-06 0.0 0.0 0.0 0.0
1.693 -0.5563282370567322 -0.4659337103366852 2.088211476802826e-05 -1.017749309539795e-05 0.0 0.0 0.0 0.0
1.694 -0.5643286108970642 -0.4523245394229889 1.6615726053714752e-05 -5.395151674747467e-06 0.0 0.0 0.0 0.0
1.695 -0.5738874673843384 -0.43710535764694214 8.828938007354736e-06 -3.093108534812927e-05 0.0 0.0 0.0 0.0
1.696 -0.5824180245399475 -0.42320433259010315 1.6277655959129333e-05 -1.5177763998508453e-05 0.0 0.0 0.0 0.0
1.697 -0.590258777141571 -0.4093383252620697 6.128102540969849e-06 5.206093192100525e-07 0.0 0.0 0.0 0.0
1.698 -0.5974981188774109 -0.39502912759780884 1.734122633934021e-05 1.7896294593811035e-05 0.0 0.0 0.0 0.0
1.699 -0.605022668838501 -0.3814069926738739 -1.6080215573310852e-05 -2.7976930141448975e-06 0.0 0.0 0.0 0.0
1.7 -0.6120166182518005 -0.3666943907737732 2.003926783800125e-05 6.640329957008362e-07 0.0 0.0 0.0 0.0
1.701 -0.6193639636039734 -0.35139352083206177 -2.3758038878440857e-06 -3.2852403819561005e-05 0.0 0.0 0.0 0.0
1.702 -0.6266149878501892 -0.3347623348236084 2.4567358195781708e-05 1.4062970876693726e-07 0.0 0.0 0.0 0.0
1.703 -0.6326798796653748 -0.3196602463722229 2.1617859601974487e-05 -2.3134052753448486e-05 0.0 0.0 0.0 0.0
1.704 -0.6374616622924805 -0.30297622084617615 8.116476237773895e-06 -6.940215826034546e-06 0.0 0.0 0.0 0.0
1.705 -0.6451774835586548 -0.28846660256385803 1.214444637298584e-05 2.3655593395233154e-07 0.0 0.0 0.0 0.0
1.706 -0.6498758792877197 -0.2724928855895996 1.2449920177459717e-05 1.9595026969909668e-05 0.0 0.0 0.0 0.0
1.707 -0.6556285619735718 -0.2560855746269226 1.2315809726715088e-05 -1.3600103557109833e-05 0.0 0.0 0.0 0.0
1.708 -0.6600016951560974 -0.2407604604959488 5.389563739299774e-06 -4.3285079300403595e-05 0.0 0.0 0.0 0.0
1.709 -0.6638814210891724 -0.22595863044261932 2.050679177045822e-05 -1.5620142221450806e-05 0.0 0.0 0.0 0.0
1.71 -0.6684149503707886 -0.20849385857582092 -9.211711585521698e-06 -1.5438534319400787e-05 0.0 0.0 0.0 0.0
1.711 -0.6724433302879333 -0.1921180933713913 1.001451164484024e-05 1.0310672223567963e-05 0.0 0.0 0.0 0.0
1.712 -0.6750932931900024 -0.17561791837215424 -5.364418029785156e-07 6.211921572685242e-06 0.0 0.0 0.0 0.0
1.713 -0.6787449717521667 -0.15980230271816254 2.820231020450592e-05 1.2396834790706635e-05 0.0 0.0 0.0 0.0
1.714 -0.682077169418335 -0.14178238809108734 1.374911516904831e-05 -9.4585120677948e-06 0.0 0.0 0.0 0.0
1.715 -0.6841808557510376 -0.12693476676940918 4.128552973270416e-06 -8.106231689453125e-06 0.0 0.0 0.0 0.0
1.716 -0.6860066056251526 -0.108822762966156 -1.1946074664592743e-05 6.614252924919128e-06 0.0 0.0 0.0 0.0
1.717 -0.688322901725769 -0.09080386906862259 3.466382622718811e-06 4.842877388000488e-08 0.0 0.0 0.0 0.0
1.718 -0.6898771524429321 -0.07140855491161346 -4.663132131099701e-06 -7.740221917629242e-06 0.0 0.0 0.0 0.0
1.719 -0.6905759572982788 -0.05698634311556816 1.4375895261764526e-05 -1.718476414680481e-05 0.0 0.0 0.0 0.0
1.72 -0.6909009218215942 -0.039455413818359375 2.767890691757202e-06 4.580244421958923e-06 0.0 0.0 0.0 0.0
1.721 -0.6919804811477661 -0.02166660502552986 1.748744398355484e-05 -2.832990139722824e-05 0.0 0.0 0.0 0.0
1.722 -0.6917404532432556 -0.003802361898124218 6.8908557295799255e-06 -1.539476215839386e-05 0.0 0.0 0.0 0.0
1.723 -0.6913811564445496 0.012776101008057594 -9.414739906787872e-06 -6.440095603466034e-06 0.0 0.0 0.0 0.0
1.724 -0.6903107762336731 0.028630230575799942 -2.2924505174160004e-05 -7.234513759613037e-06 0.0 0.0 0.0 0.0
1.725 -0.6892362236976624 0.0461801178753376 6.6570937633514404e-06 1.3433396816253662e-05 0.0 0.0 0.0 0.0
1.726 -0.6872739791870117 0.06468330323696136 2.9923394322395325e-06 -2.1132640540599823e-05 0.0 0.0 0.0 0.0
1.727 -0.685590922832489 0.0823875367641449 -2.5117769837379456e-06 -2.7300789952278137e-05 0.0 0.0 0.0 0.0
1.728 -0.6832099556922913 0.10085970908403397 1.416075974702835e-05 -1.7655082046985626e-05 0.0 0.0 0.0 0.0
1.729 -0.680609405040741 0.11745624244213104 -2.7925707399845123e-05 -4.5960769057273865e-06 0.0 0.0 0.0 0.0
1.73 -0.6777488589286804 0.13480274379253387 9.099021553993225e-06 -1.0863877832889557e-05 0.0 0.0 0.0 0.0
1.731 -0.6746394038200378 0.15106165409088135 2.4355947971343994e-05 -1.4485791325569153e-05 0.0 0.0 0.0 0.0
1.732 -0.6705327033996582 0.16790689527988434 6.197020411491394e-06 6.928108632564545e-06 0.0 0.0 0.0 0.0
1.733 -0.6656838059425354 0.18648627400398254 -9.763985872268677e-06 -1.4087185263633728e-05 0.0 0.0 0.0 0.0
1.734 -0.6610713601112366 0.20483313500881195 2.0843930542469025e-05 -2.2156164050102234e-05 0.0 0.0 0.0 0.0
1.735 -0.656566858291626 0.22055192291736603 9.580515325069427e-06 -1.7848797142505646e-05 0.0 0.0 0.0 0.0
1.736 -0.6514043807983398 0.23659774661064148 -4.71901148557663e-06 -6.537884473800659e-07 0.0 0.0 0.0 0.0
1.737 -0.645318329334259 0.25478455424308777 -1.097656786441803e-05 6.455928087234497e-06 0.0 0.0 0.0 0.0
1.738 -0.6393165588378906 0.269978404045105 2.606026828289032e-05 -2.2388994693756104e-05 0.0 0.0 0.0 0.0
1.739 -0.632602870464325 0.28773778676986694 -1.715775579214096e-05 2.7101486921310425e-07 0.0 0.0 0.0 0.0
1.74 -0.6256256103515625 0.3054376244544983 8.956529200077057e-06 5.1157549023628235e-06 0.0 0.0 0.0 0.0
1.741 -0.6181445121765137 0.3206120431423187 4.833564162254333e-07 -1.9813887774944305e-05 0.0 0.0 0.0 0.0
1.742 -0.6107387542724609 0.33794134855270386 2.7064234018325806e-06 -2.7650967240333557e-05 0.0 0.0 0.0 0.0
1.743 -0.6022993922233582 0.35427457094192505 1.1194497346878052e-05 -1.8045306205749512e-05 0.0 0.0 0.0 0.0
1.744 -0.5940194725990295 0.3704623579978943 4.692934453487396e-06 -5.5944547057151794e-06 0.0 0.0 0.0 0.0
1.745 -0.5856289863586426 0.3845033049583435 2.1206215023994446e-06 -1.0039657354354858e-05 0.0 0.0 0.0 0.0
1.746 -0.576756477355957 0.3988398015499115 1.0664574801921844e-05 9.047798812389374e-06 0.0 0.0 0.0 0.0
1.747 -0.5658590793609619 0.41606515645980835 7.939524948596954e-06 -4.5727938413619995e-06 0.0 0.0 0.0 0.0
1.748 -0.5571043491363525 0.4305523931980133 -2.2798776626586914e-06 -3.1684525310993195e-05 0.0 0.0 0.0 0.0
1.749 -0.5444289445877075 0.44857874512672424 5.57582825422287e-06 -1.0433606803417206e-05 0.0 0.0 0.0 0.0
1.75 -0.5365380048751831 0.4609106183052063 -4.069879651069641e-07 -5.427747964859009e-06 0.0 0.0 0.0 0.0
1.751 -0.5253109931945801 0.47486022114753723 -3.7383288145065308e-06 -1.3859942555427551e-05 0.0 0.0 0.0 0.0
1.752 -0.5103797912597656 0.4867074489593506 -2.2784806787967682e-05 -4.8957765102386475e-05 0.0 0.0 0.0 0.0
1.753 -0.5010448694229126 0.5037462711334229 2.40374356508255e-06 -2.064090222120285e-05 0.0 0.0 0.0 0.0
1.754 -0.4894677996635437 0.5178052186965942 9.033828973770142e-08 -1.6944482922554016e-05 0.0 0.0 0.0 0.0
1.755 -0.4774026572704315 0.531661331653595 1.4059245586395264e-05 2.505257725715637e-06 0.0 0.0 0.0 0.0
1.756 -0.4657540023326874 0.5443408489227295 2.010725438594818e-05 -3.248825669288635e-05 0.0 0.0 0.0 0.0
1.757 -0.45283058285713196 0.556946873664856 1.4270655810832977e-05 -2.2161751985549927e-05 0.0 0.0 0.0 0.0
1.758 -0.4396689236164093 0.5704930424690247 1.568533480167389e-05 1.9744038581848145e-06 0.0 0.0 0.0 0.0
1.759 -0.427407443523407 0.5815905332565308 -8.1649050116539e-06 -2.254452556371689e-05 0.0 0.0 0.0 0.0
1.76 -0.4138782024383545 0.5924652814865112 -3.67872416973114e-07 -6.93928450345993e-06 0.0 0.0 0.0 0.0
1.761 -0.3969135880470276 0.6069214940071106 -6.942078471183777e-06 -6.563961505889893e-06 0.0 0.0 0.0 0.0
1.762 -0.38326606154441833 0.6156221032142639 7.315538823604584e-06 -4.20399010181427e-06 0.0 0.0 0.0 0.0
1.763 -0.3687147796154022 0.6289941072463989 -1.8039718270301819e-06 -2.576783299446106e-05 0.0 0.0 0.0 0.0
1.764 -0.3558548092842102 0.638729989528656 4.423782229423523e-06 -2.8691254556179047e-05 0.0 0.0 0.0 0.0
1.765 -0.3365950584411621 0.648771345615387 2.0507723093032837e-06 -3.6973506212234497e-07 0.0 0.0 0.0 0.0
1.766 -0.3250601291656494 0.6600159406661987 1.8444843590259552e-05 -2.5131739675998688e-05 0.0 0.0 0.0 0.0
1.767 -0.30906879901885986 0.6700662970542908 -1.8971040844917297e-06 -1.1827796697616577e-05 0.0 0.0 0.0 0.0
1.768 -0.29327425360679626 0.6796621680259705 5.093403160572052e-06 -3.355834633111954e-05 0.0 0.0 0.0 0.0
1.769 -0.2782028019428253 0.6877766251564026 1.2614764273166656e-05 -5.365349352359772e-06 0.0 0.0 0.0 0.0
1.77 -0.2605622410774231 0.6961191892623901 1.1653639376163483e-05 -4.33996319770813e-06 0.0 0.0 0.0 0.0
1.771 -0.24435457587242126 0.7068278193473816 4.713423550128937e-06 -7.580965757369995e-06 0.0 0.0 0.0 0.0
1.772 -0.22841046750545502 0.7129318714141846 -6.1532482504844666e-06 -4.66126948595047e-06 0.0 0.0 0.0 0.0
1.773 -0.21062180399894714 0.7204301953315735 -6.576068699359894e-06 -5.119480192661285e-06 0.0 0.0 0.0 0.0
1.774 -0.18959608674049377 0.729377269744873 -5.401670932769775e-06 -5.066394805908203e-07 0.0 0.0 0.0 0.0
1.775 -0.1774885654449463 0.7333077192306519 -1.5214085578918457e-05 -1.4766119420528412e-05 0.0 0.0 0.0 0.0
1.776 -0.16585879027843475 0.7424027323722839 -1.474190503358841e-05 -1.648813486099243e-05 0.0 0.0 0.0 0.0
1.777 -0.13821016252040863 0.7459591627120972 1.2079253792762756e-06 -2.553313970565796e-05 0.0 0.0 0.0 0.0
1.778 -0.12333639711141586 0.75135338306427 -2.3283064365386963e-08 -1.2372620403766632e-05 0.0 0.0 0.0 0.0
1.779 -0.10606875270605087 0.7564865946769714 -6.948597729206085e-06 -2.5324523448944092e-05 0.0 0.0 0.0 0.0
1.78 -0.0883239209651947 0.758432924747467 9.34116542339325e-06 -1.3307668268680573e-05 0.0 0.0 0.0 0.0
1.781 -0.07287111133337021 0.7658901214599609 -3.4365803003311157e-07 -2.3758038878440857e-06 0.0 0.0 0.0 0.0
1.782 -0.05483025312423706 0.7697655558586121 4.0065497159957886e-06 -2.7449801564216614e-05 0.0 0.0 0.0 0.0
1.783 -0.0398244634270668 0.7738304734230042 1.298263669013977e-06 -2.413056790828705e-06 0.0 0.0 0.0 0.0
1.784 -0.018033411353826523 0.7770765423774719 -1.2827105820178986e-05 -2.9567629098892212e-05 0.0 0.0 0.0 0.0
1.785 0.0017322376370429993 0.7796539068222046 9.826384484767914e-06 -6.759539246559143e-06 0.0 0.0 0.0 0.0
1.786 0.020174449309706688 0.7794753313064575 -5.488283932209015e-06 8.365139365196228e-06 0.0 0.0 0.0 0.0
1.787 0.03620200604200363 0.7820571064949036 -1.4984048902988434e-05 -9.368173778057098e-06 0.0 0.0 0.0 0.0
1.788 0.05225761607289314 0.782107412815094 1.4435499906539917e-06 -1.4417804777622223e-05 0.0 0.0 0.0 0.0
1.789 0.06911084800958633 0.7836485505104065 -6.778165698051453e-06 8.891336619853973e-06 0.0 0.0 0.0 0.0
1.79 0.08916718512773514 0.784966766834259 5.179084837436676e-06 1.2352131307125092e-05 0.0 0.0 0.0 0.0
1.791 0.10904018580913544 0.7850827574729919 9.352341294288635e-06 -2.2359192371368408e-05 0.0 0.0 0.0 0.0
1.792 0.12725941836833954 0.788158118724823 1.1278316378593445e-06 -2.2567808628082275e-05 0.0 0.0 0.0 0.0
1.793 0.14657163619995117 0.7838700413703918 2.4422071874141693e-05 -5.96512109041214e-06 0.0 0.0 0.0 0.0
1.794 0.16147147119045258 0.785089910030365 -1.6838312149047852e-06 -1.516193151473999e-05 0.0 0.0 0.0 0.0
1.795 0.17853955924510956 0.7792388200759888 -8.482486009597778e-06 -1.4028511941432953e-05 0.0 0.0 0.0 0.0
1.796 0.19585563242435455 0.7792118191719055 -8.709728717803955e-06 -1.8738210201263428e-05 0.0 0.0 0.0 0.0
1.797 0.21710555255413055 0.7760819792747498 -4.035420715808868e-06 -9.362585842609406e-06 0.0 0.0 0.0 0.0
1.798 0.23668088018894196 0.7763127088546753 -1.7033889889717102e-05 -6.334856152534485e-06 0.0 0.0 0.0 0.0
1.799 0.2505814731121063 0.7718627452850342 1.142546534538269e-05 -4.600733518600464e-07 0.0 0.0 0.0 0.0
1.8 0.2638034522533417 0.764091432094574 -7.11437314748764e-06 -2.8316862881183624e-05 0.0 0.0 0.0 0.0
1.801 0.2869882583618164 0.7621821761131287 2.2648833692073822e-05 1.03069469332695e-05 0.0 0.0 0.0 0.0
1.802 0.30197542905807495 0.760316789150238 -2.4362467229366302e-05 -1.824740320444107e-05 0.0 0.0 0.0 0.0
1.803 0.31946101784706116 0.7552990913391113 2.2761523723602295e-06 3.451108932495117e-05 0.0 0.0 0.0 0.0
1.804 0.33720827102661133 0.7520013451576233 5.317851901054382e-06 4.8996880650520325e-06 0.0 0.0 0.0 0.0
1.805 0.35585182905197144 0.7453062534332275 -1.0435469448566437e-05 5.833804607391357e-06 0.0 0.0 0.0 0.0
1.806 0.3706735670566559 0.7395094633102417 -4.255212843418121e-06 4.038214683532715e-06 0.0 0.0 0.0 0.0
1.807 0.3849859833717346 0.7329608201980591 1.4386139810085297e-05 -2.6678666472434998e-05 0.0 0.0 0.0 0.0
1.808 0.4022397994995117 0.7270346879959106 -2.596527338027954e-05 5.788169801235199e-06 0.0 0.0 0.0 0.0
1.809 0.41806861758232117 0.7207680940628052 -2.806447446346283e-05 -1.5908852219581604e-05 0.0 0.0 0.0 0.0
1.81 0.43155309557914734 0.7118163704872131 1.0104849934577942e-05 6.423331797122955e-06 0.0 0.0 0.0 0.0
1.811 0.45072832703590393 0.7047775983810425 -1.1134892702102661e-05 -2.1449290215969086e-05 0.0 0.0 0.0 0.0
1.812 0.4662790298461914 0.6961960792541504 -6.554648280143738e-06 -2.343021333217621e-05 0.0 0.0 0.0 0.0
1.813 0.48255130648612976 0.6930553913116455 -1.7112120985984802e-05 -1.8104910850524902e-06 0.0 0.0 0.0 0.0
1.814 0.4968595504760742 0.6809567213058472 -1.7148442566394806e-05 1.229904592037201e-05 0.0 0.0 0.0 0.0
1.815 0.5082840323448181 0.6746860146522522 -5.739741027355194e-06 -1.1934898793697357e-05 0.0 0.0 0.0 0.0
1.816 0.5241919755935669 0.66285240650177 -6.438232958316803e-06 8.260831236839294e-06 0.0 0.0 0.0 0.0
1.817 0.5408819317817688 0.6538522243499756 -2.6473775506019592e-05 -1.2162141501903534e-05 0.0 0.0 0.0 0.0
1.818 0.5564029812812805 0.6450830101966858 -1.868605613708496e-05 -1.142360270023346e-05 0.0 0.0 0.0 0.0
1.819 0.5700902342796326 0.6331183314323425 -3.160908818244934e-06 -3.352481871843338e-05 0.0 0.0 0.0 0.0
1.82 0.5820283889770508 0.6247145533561707 -3.480259329080582e-05 4.609115421772003e-06 0.0 0.0 0.0 0.0
1.821 0.5966097116470337 0.6138350367546082 -9.592622518539429e-07 -2.657901495695114e-05 0.0 0.0 0.0 0.0
1.822 0.6041294932365417 0.602552592754364 -9.918585419654846e-07 -1.0541640222072601e-05 0.0 0.0 0.0 0.0
1.823 0.6213335394859314 0.5930214524269104 1.4572404325008392e-05 -3.390852361917496e-05 0.0 0.0 0.0 0.0
1.824 0.6328498721122742 0.5741412043571472 2.1276064217090607e-05 2.233404666185379e-05 0.0 0.0 0.0 0.0
1.825 0.6451542973518372 0.5718391537666321 3.321003168821335e-05 4.6836212277412415e-06 0.0 0.0 0.0 0.0
1.826 0.6574157476425171 0.5607637166976929 1.2571923434734344e-05 -4.135072231292725e-06 0.0 0.0 0.0 0.0
1.827 0.6703718900680542 0.548202633857727 -3.8463622331619263e-07 -1.905299723148346e-05 0.0 0.0 0.0 0.0
1.828 0.6830518245697021 0.5334301590919495 8.110888302326202e-06 1.1684373021125793e-05 0.0 0.0 0.0 0.0
1.829 0.6928722858428955 0.5228928923606873 2.2076070308685303e-05 4.697591066360474e-06 0.0 0.0 0.0 0.0
1.83 0.703679084777832 0.5105293393135071 -8.56444239616394e-06 3.867782652378082e-06 0.0 0.0 0.0 0.0
1.831 0.7147368788719177 0.49653953313827515 -2.520531415939331e-05 -1.40313059091568e-05 0.0 0.0 0.0 0.0
1.832 0.7251368761062622 0.4849313199520111 1.9008293747901917e-05 2.0862556993961334e-05 0.0 0.0 0.0 0.0
1.833 0.7336916923522949 0.4715978801250458 2.142135053873062e-05 2.045184373855591e-06 0.0 0.0 0.0 0.0
1.834 0.7429615259170532 0.46003258228302 -5.2480027079582214e-06 -1.8103979527950287e-05 0.0 0.0 0.0 0.0
1.835 0.7530306577682495 0.4452865719795227 -9.015202522277832e-07 1.4610588550567627e-05 0.0 0.0 0.0 0.0
1.836 0.763350248336792 0.4312470555305481 -2.8561800718307495e-05 -5.112960934638977e-06 0.0 0.0 0.0 0.0
1.837 0.7711886763572693 0.4183879792690277 1.5079043805599213e-05 2.2746622562408447e-05 0.0 0.0 0.0 0.0
1.838 0.7804582715034485 0.40516337752342224 1.0425224900245667e-05 1.4123506844043732e-05 0.0 0.0 0.0 0.0
1.839 0.7889713644981384 0.3882634937763214 -8.704140782356262e-06 -9.358860552310944e-06 0.0 0.0 0.0 0.0
1.84 0.7968676090240479 0.3784489333629608 -2.8405338525772095e-06 2.640858292579651e-05 0.0 0.0 0.0 0.0
1.841 0.8028575778007507 0.3638520836830139 1.987069845199585e-05 -1.2608245015144348e-05 0.0 0.0 0.0 0.0
1.842 0.8102375864982605 0.3473493754863739 -1.5949830412864685e-05 2.830754965543747e-05 0.0 0.0 0.0 0.0
1.843 0.8183543682098389 0.3302667737007141 -1.3415701687335968e-05 -2.9783695936203003e-05 0.0 0.0 0.0 0.0
1.844 0.8239807486534119 0.3201332092285156 -2.031587064266205e-05 2.050120383501053e-05 0.0 0.0 0.0 0.0
1.845 0.8314725160598755 0.3058399558067322 1.996755599975586e-06 5.893409252166748e-06 0.0 0.0 0.0 0.0
1.846 0.8366527557373047 0.2890889048576355 7.171183824539185e-08 1.3842247426509857e-05 0.0 0.0 0.0 0.0
1.847 0.8425030708312988 0.27549150586128235 -1.759268343448639e-06 3.014039248228073e-05 0.0 0.0 0.0 0.0
1.848 0.846458911895752 0.2591564953327179 -2.689473330974579e-05 -1.4016404747962952e-05 0.0 0.0 0.0 0.0
1.849 0.8517075181007385 0.2460808902978897 1.6716308891773224e-05 -1.2890435755252838e-05 0.0 0.0 0.0 0.0
1.85 0.8575758934020996 0.22995947301387787 7.771886885166168e-06 9.298324584960938e-06 0.0 0.0 0.0 0.0
1.851 0.8625924587249756 0.21371658146381378 1.0030344128608704e-06 -1.7513521015644073e-05 0.0 0.0 0.0 0.0
1.852 0.8665507435798645 0.19936764240264893 -1.3927929103374481e-05 1.5805475413799286e-05 0.0 0.0 0.0 0.0
1.853 0.8700151443481445 0.18484066426753998 -2.0932406187057495e-05 3.0564144253730774e-05 0.0 0.0 0.0 0.0
1.854 0.8730055689811707 0.17108850181102753 3.107357770204544e-05 8.995644748210907e-06 0.0 0.0 0.0 0.0
1.855 0.8759679794311523 0.15434087812900543 -6.405636668205261e-06 -1.3140961527824402e-05 0.0 0.0 0.0 0.0
1.856 0.87978595495224 0.13871119916439056 1.1193566024303436e-05 -2.1655112504959106e-05 0.0 0.0 0.0 0.0
1.857 0.8820921182632446 0.12365535646677017 4.529021680355072e-06 -1.3984739780426025e-05 0.0 0.0 0.0 0.0
1.858 0.8850997090339661 0.10947927087545395 -9.333714842796326e-06 -2.3655593395233154e-07 0.0 0.0 0.0 0.0
1.859 0.8860031366348267 0.09433132410049438 -3.929249942302704e-06 2.602487802505493e-05 0.0 0.0 0.0 0.0
1.86 0.8880951404571533 0.07710610330104828 -1.6829930245876312e-05 -3.277044743299484e-05 0.0 0.0 0.0 0.0
1.861 0.8892257213592529 0.06300713121891022 9.511597454547882e-06 -2.69915908575058e-05 0.0 0.0 0.0 0.0
1.862 0.8898219466209412 0.0499068908393383 2.1168962121009827e-06 1.994706690311432e-05 0.0 0.0 0.0 0.0
1.863 0.8904731273651123 0.03162308782339096 1.5581026673316956e-05 1.920759677886963e-05 0.0 0.0 0.0 0.0
1.864 0.8917233943939209 0.01560639962553978 1.4134682714939117e-05 -3.2168813049793243e-05 0.0 0.0 0.0 0.0
1.865 0.8922019600868225 0.0008879909291863441 -1.454818993806839e-05 -2.2751279175281525e-05 0.0 0.0 0.0 0.0
1.866 0.8915297389030457 -0.010434698313474655 6.8927183747291565e-06 1.7605721950531006e-05 0.0 0.0 0.0 0.0
1.867 0.8908960819244385 -0.027744879946112633 -1.0444782674312592e-05 7.2410330176353455e-06 0.0 0.0 0.0 0.0
1.868 0.8903136253356934 -0.04406304657459259 1.2718141078948975e-05 2.0802021026611328e-05 0.0 0.0 0.0 0.0
1.869 0.889465868473053 -0.05634770914912224 -2.290029078722e-05 -5.335547029972076e-06 0.0 0.0 0.0 0.0
1.87 0.8869153261184692 -0.07545091211795807 3.9655715227127075e-06 1.7360784113407135e-05 0.0 0.0 0.0 0.0
1.871 0.886730432510376 -0.08806706964969635 3.0333176255226135e-06 -3.625638782978058e-05 0.0 0.0 0.0 0.0
1.872 0.8843263983726501 -0.10381350666284561 2.851523458957672e-05 -6.1318278312683105e-06 0.0 0.0 0.0 0.0
1.873 0.8830749988555908 -0.11861000955104828 -1.4524906873703003e-05 -2.85441055893898e-05 0.0 0.0 0.0 0.0
1.874 0.8803747296333313 -0.13068503141403198 -1.2977048754692078e-05 -5.7248398661613464e-06 0.0 0.0 0.0 0.0
1.875 0.8764393925666809 -0.14808353781700134 -2.43382528424263e-05 -4.529021680355072e-06 0.0 0.0 0.0 0.0
1.876 0.8734938502311707 -0.1626092940568924 -2.1851621568202972e-05 -1.4073215425014496e-05 0.0 0.0 0.0 0.0
1.877 0.871380090713501 -0.17743991315364838 3.9651058614254e-05 -1.3106502592563629e-05 0.0 0.0 0.0 0.0
1.878 0.8677805066108704 -0.1913929581642151 -2.0526349544525146e-05 -1.3592652976512909e-05 0.0 0.0 0.0 0.0
1.879 0.8642269372940063 -0.20707514882087708 -3.809109330177307e-07 1.3607554137706757e-05 0.0 0.0 0.0 0.0
1.88 0.8602518439292908 -0.2183980643749237 -3.2633543014526367e-06 6.0051679611206055e-06 0.0 0.0 0.0 0.0
1.881 0.8555797338485718 -0.23262396454811096 -9.142793715000153e-06 -5.910173058509827e-06 0.0 0.0 0.0 0.0
1.882 0.8499115109443665 -0.2490319162607193 -1.7132610082626343e-05 7.37607479095459e-07 0.0 0.0 0.0 0.0
1.883 0.8453310132026672 -0.2623671889305115 3.213714808225632e-05 3.183819353580475e-05 0.0 0.0 0.0 0.0
1.884 0.842458963394165 -0.2766614258289337 3.287568688392639e-06 -2.002902328968048e-05 0.0 0.0 0.0 0.0
1.885 0.8353706002235413 -0.2889910936355591 -2.431776374578476e-05 -8.584000170230865e-06 0.0 0.0 0.0 0.0
1.886 0.8297706842422485 -0.30137088894844055 2.2584572434425354e-06 3.742426633834839e-05 0.0 0.0 0.0 0.0
1.887 0.8244377970695496 -0.31566092371940613 6.923452019691467e-06 -1.613236963748932e-05 0.0 0.0 0.0 0.0
1.888 0.8173377513885498 -0.33259862661361694 2.4549663066864014e-06 -1.833215355873108e-05 0.0 0.0 0.0 0.0
1.889 0.8115581274032593 -0.34207871556282043 3.2971613109111786e-05 6.727874279022217e-06 0.0 0.0 0.0 0.0
1.89 0.8064086437225342 -0.3550064265727997 -3.4904107451438904e-05 -1.3754703104496002e-05 0.0 0.0 0.0 0.0
1.891 0.7995084524154663 -0.3688516616821289 1.8726103007793427e-05 5.6675635278224945e-05 0.0 0.0 0.0 0.0
1.892 0.7916309833526611 -0.38320109248161316 4.473421722650528e-05 -1.1672265827655792e-05 0.0 0.0 0.0 0.0
1.893 0.7831659913063049 -0.39537230134010315 6.401911377906799e-06 4.714354872703552e-06 0.0 0.0 0.0 0.0
1.894 0.7757704854011536 -0.4058559536933899 -1.5200115740299225e-05 2.503674477338791e-05 0.0 0.0 0.0 0.0
1.895 0.7691078186035156 -0.41809406876564026 3.670342266559601e-06 3.0174851417541504e-06 0.0 0.0 0.0 0.0
1.896 0.7577252388000488 -0.42888689041137695 3.979261964559555e-05 -3.293994814157486e-05 0.0 0.0 0.0 0.0
1.897 0.7514531016349792 -0.4467516541481018 -1.2404285371303558e-05 -1.6578473150730133e-05 0.0 0.0 0.0 0.0
1.898 0.7431144118309021 -0.4566487967967987 4.599709063768387e-05 1.8749386072158813e-05 0.0 0.0 0.0 0.0
1.899 0.735297679901123 -0.4691132605075836 -3.242865204811096e-05 -1.9665807485580444e-05 0.0 0.0 0.0 0.0
1.9 0.7257195711135864 -0.4789910614490509 3.88268381357193e-05 1.8130987882614136e-05 0.0 0.0 0.0 0.0
1.901 0.7174949645996094 -0.49071305990219116 4.077330231666565e-06 4.317425191402435e-05 0.0 0.0 0.0 0.0
1.902 0.7079690098762512 -0.5021637678146362 -1.9632279872894287e-05 1.5085563063621521e-05 0.0 0.0 0.0 0.0
1.903 0.7002347111701965 -0.5123816132545471 -1.9717030227184296e-05 -5.476176738739014e-06 0.0 0.0 0.0 0.0
1.904 0.6892864108085632 -0.5238835215568542 -1.1878088116645813e-05 -1.0536052286624908e-05 0.0 0.0 0.0 0.0
1.905 0.6797610521316528 -0.5347084403038025 1.5700235962867737e-05 3.5783275961875916e-05 0.0 0.0 0.0 0.0
1.906 0.6696172952651978 -0.5494647026062012 9.194016456604004e-06 -1.4103017747402191e-05 0.0 0.0 0.0 0.0
1.907 0.6587007641792297 -0.5571218132972717 -2.174731343984604e-05 -1.3748183846473694e-05 0.0 0.0 0.0 0.0
1.908 0.6451541781425476 -0.5675851702690125 1.7508864402770996e-07 1.2921169400215149e-05 0.0 0.0 0.0 0.0
1.909 0.6390593647956848 -0.5798156261444092 -2.7055852115154266e-05 -4.2635947465896606e-05 0.0 0.0 0.0 0.0
1.91 0.6279176473617554 -0.5851274728775024 3.274064511060715e-05 -4.0629878640174866e-05 0.0 0.0 0.0 0.0
1.911 0.6159543395042419 -0.595348060131073 -4.2868778109550476e-05 4.949979484081268e-06 0.0 0.0 0.0 0.0
1.912 0.6040896773338318 -0.6046953797340393 -3.128405660390854e-05 -2.0441599190235138e-05 0.0 0.0 0.0 0.0
1.913 0.5920504331588745 -0.6167029738426208 3.307219594717026e-05 3.841705620288849e-06 0.0 0.0 0.0 0.0
1.914 0.582082986831665 -0.623611569404602 -4.260055720806122e-05 -1.5164725482463837e-05 0.0 0.0 0.0 0.0
1.915 0.5708627700805664 -0.6343197822570801 3.2195821404457092e-06 9.01985913515091e-06 0.0 0.0 0.0 0.0
1.916 0.5581273436546326 -0.6413198113441467 2.1103769540786743e-05 -1.5566125512123108e-05 0.0 0.0 0.0 0.0
1.917 0.5494756102561951 -0.6475263237953186 2.5521963834762573e-05 7.156282663345337e-06 0.0 0.0 0.0 0.0
1.918 0.5383237600326538 -0.6610416173934937 1.4981254935264587e-05 -3.92422080039978e-05 0.0 0.0 0.0 0.0
1.919 0.5211008787155151 -0.6655269265174866 -2.6170164346694946e-06 -3.4775584936141968e-06 0.0 0.0 0.0 0.0
1.92 0.5088778734207153 -0.6736187934875488 2.6081688702106476e-05 1.0779127478599548e-05 0.0 0.0 0.0 0.0
1.921 0.49531301856040955 -0.6835095882415771 2.7456320822238922e-05 3.413204103708267e-05 0.0 0.0 0.0 0.0
1.922 0.48380500078201294 -0.6886183023452759 3.014877438545227e-05 1.1607073247432709e-05 0.0 0.0 0.0 0.0
1.923 0.4731197655200958 -0.6942369937896729 -1.6847625374794006e-06 -4.0500424802303314e-05 0.0 0.0 0.0 0.0
1.924 0.4619709849357605 -0.7036433219909668 -8.215196430683136e-06 -3.6191195249557495e-06 0.0 0.0 0.0 0.0
1.925 0.44658735394477844 -0.7079170346260071 8.850358426570892e-06 -1.4047138392925262e-05 0.0 0.0 0.0 0.0
1.926 0.43266916275024414 -0.7145076394081116 -8.934177458286285e-06 -3.141909837722778e-05 0.0 0.0 0.0 0.0
1.927 0.41637396812438965 -0.7189653515815735 2.0273961126804352e-05 -3.085564821958542e-05 0.0 0.0 0.0 0.0
1.928 0.40466535091400146 -0.7266102433204651 4.2457133531570435e-05 1.9111670553684235e-05 0.0 0.0 0.0 0.0
1.929 0.39186719059944153 -0.734402596950531 -2.2798776626586914e-05 1.8825754523277283e-05 0.0 0.0 0.0 0.0
1.93 0.3774375319480896 -0.7397778034210205 -7.724389433860779e-06 -2.827867865562439e-05 0.0 0.0 0.0 0.0
1.931 0.36592960357666016 -0.7437719702720642 -1.647789031267166e-05 -1.9866973161697388e-05 0.0 0.0 0.0 0.0
1.932 0.35489970445632935 -0.7431079149246216 5.345791578292847e-07 3.3770687878131866e-05 0.0 0.0 0.0 0.0
1.933 0.3373442590236664 -0.751535952091217 8.147209882736206e-06 4.437007009983063e-05 0.0 0.0 0.0 0.0
1.934 0.3188939690589905 -0.7584766745567322 1.1245720088481903e-05 1.0618939995765686e-05 0.0 0.0 0.0 0.0
1.935 0.3067622184753418 -0.7615110278129578 -3.332085907459259e-05 -1.5078112483024597e-06 0.0 0.0 0.0 0.0
1.936 0.29156219959259033 -0.7633228898048401 2.3614615201950073e-05 -4.129577428102493e-05 0.0 0.0 0.0 0.0
1.937 0.27808767557144165 -0.7689217925071716 2.9558315873146057e-05 5.6764110922813416e-06 0.0 0.0 0.0 0.0
1.938 0.2628851532936096 -0.7726677656173706 2.1002255380153656e-05 -1.4953315258026123e-05 0.0 0.0 0.0 0.0
1.939 0.2524920403957367 -0.7752571702003479 3.664102405309677e-05 -1.2172386050224304e-06 0.0 0.0 0.0 0.0
1.94 0.23499459028244019 -0.7766194343566895 -3.8212165236473083e-05 1.5217810869216919e-05 0.0 0.0 0.0 0.0
1.941 0.21935276687145233 -0.7796979546546936 -1.2750737369060516e-05 1.2196600437164307e-05 0.0 0.0 0.0 0.0
1.942 0.20070916414260864 -0.7833162546157837 -1.9206665456295013e-05 1.8504448235034943e-05 0.0 0.0 0.0 0.0
1.943 0.19071592390537262 -0.7847651243209839 2.8007663786411285e-05 7.700175046920776e-06 0.0 0.0 0.0 0.0
1.944 0.1736305058002472 -0.7898244857788086 -2.5220215320587158e-05 -3.15764918923378e-05 0.0 0.0 0.0 0.0
1.945 0.163523867726326 -0.7867192029953003 7.584691047668457e-06 -2.7441419661045074e-05 0.0 0.0 0.0 0.0
1.946 0.14433062076568604 -0.7891169786453247 2.2366642951965332e-05 2.860184758901596e-05 0.0 0.0 0.0 0.0
1.947 0.12963342666625977 -0.7890185713768005 2.2756867110729218e-05 -3.875885158777237e-05 0.0 0.0 0.0 0.0
1.948 0.11589597910642624 -0.7900775671005249 1.145247370004654e-05 -1.0672956705093384e-05 0.0 0.0 0.0 0.0
1.949 0.09677257388830185 -0.790507435798645 2.2805295884609222e-05 -1.3340264558792114e-05 0.0 0.0 0.0 0.0
1.95 0.08286604285240173 -0.7908092737197876 -6.045214831829071e-06 -1.590140163898468e-05 0.0 0.0 0.0 0.0
1.951 0.06698719412088394 -0.78975909948349 3.690645098686218e-05 -4.837382584810257e-05 0.0 0.0 0.0 0.0
1.952 0.05134649947285652 -0.7903150916099548 1.3148412108421326e-05 -2.6217661798000336e-05 0.0 0.0 0.0 0.0
1.953 0.035725731402635574 -0.7891396880149841 5.906447768211365e-06 -3.6677345633506775e-05 0.0 0.0 0.0 0.0
1.954 0.018010566011071205 -0.7860651612281799 -2.7795322239398956e-05 -3.46451997756958e-06 0.0 0.0 0.0 0.0
1.955 0.007923462428152561 -0.7866080403327942 1.362338662147522e-05 -2.7608126401901245e-05 0.0 0.0 0.0 0.0
1.956 -0.0068383486941456795 -0.7789215445518494 8.934177458286285e-06 -1.564621925354004e-06 0.0 0.0 0.0 0.0
1.957 -0.02813917212188244 -0.7845823764801025 -2.7865171432495117e-05 -4.7292560338974e-06 0.0 0.0 0.0 0.0
1.958 -0.040193554013967514 -0.7806212306022644 6.4997002482414246e-06 -1.0468065738677979e-05 0.0 0.0 0.0 0.0
1.959 -0.05687451735138893 -0.7766823768615723 -3.702007234096527e-06 -5.461275577545166e-06 0.0 0.0 0.0 0.0
1.96 -0.0675925463438034 -0.7742198705673218 4.61554154753685e-05 2.251099795103073e-05 0.0 0.0 0.0 0.0
1.961 -0.08561491966247559 -0.772355318069458 4.191882908344269e-06 2.036523073911667e-05 0.0 0.0 0.0 0.0
1.962 -0.10092579573392868 -0.768814742565155 -1.8198974430561066e-05 -2.6943162083625793e-06 0.0 0.0 0.0 0.0
1.963 -0.11323658376932144 -0.7644304037094116 2.670940011739731e-05 2.7428381145000458e-05 0.0 0.0 0.0 0.0
1.964 -0.13122978806495667 -0.7595049142837524 2.0116567611694336e-06 -3.1842850148677826e-05 0.0 0.0 0.0 0.0
1.965 -0.1495785266160965 -0.7551473379135132 1.4089979231357574e-05 -1.7601996660232544e-07 0.0 0.0 0.0 0.0
1.966 -0.16589263081550598 -0.7558587193489075 -3.275461494922638e-06 3.328453749418259e-05 0.0 0.0 0.0 0.0
1.967 -0.17858321964740753 -0.7455040216445923 8.346512913703918e-06 -1.3096258044242859e-05 0.0 0.0 0.0 0.0
1.968 -0.19640760123729706 -0.7419860363006592 3.113783895969391e-05 -7.061287760734558e-06 0.0 0.0 0.0 0.0
1.969 -0.20907406508922577 -0.7355633974075317 2.9311515390872955e-05 2.5029294192790985e-05 0.0 0.0 0.0 0.0
1.97 -0.2207685112953186 -0.7296838760375977 2.4545006453990936e-05 -3.4154392778873444e-05 0.0 0.0 0.0 0.0
1.971 -0.23833048343658447 -0.7216994166374207 -5.323439836502075e-06 1.6110017895698547e-05 0.0 0.0 0.0 0.0
1.972 -0.24909761548042297 -0.7129905819892883 1.4514662325382233e-05 -1.3892538845539093e-05 0.0 0.0 0.0 0.0
1.973 -0.2688141465187073 -0.7081617712974548 2.8545036911964417e-05 -3.0810944736003876e-05 0.0 0.0 0.0 0.0
1.974 -0.28204405307769775 -0.6998006105422974 1.5090219676494598e-05 1.124013215303421e-05 0.0 0.0 0.0 0.0
1.975 -0.2953503131866455 -0.6896906495094299 2.162531018257141e-05 8.878298103809357e-06 0.0 0.0 0.0 0.0
1.976 -0.3094409704208374 -0.686518132686615 -3.975816071033478e-06 -2.118479460477829e-05 0.0 0.0 0.0 0.0
1.977 -0.32252976298332214 -0.6782850027084351 2.979673445224762e-05 2.5534071028232574e-05 0.0 0.0 0.0 0.0
1.978 -0.33778077363967896 -0.6702798008918762 3.589503467082977e-05 -1.1774711310863495e-05 0.0 0.0 0.0 0.0
1.979 -0.3510579466819763 -0.6607391238212585 2.2328458726406097e-05 -1.992657780647278e-05 0.0 0.0 0.0 0.0
1.98 -0.36504146456718445 -0.6553069353103638 -4.762783646583557e-06 5.375593900680542e-06 0.0 0.0 0.0 0.0
1.981 -0.37953221797943115 -0.6425343155860901 4.663597792387009e-05 -2.1733343601226807e-05 0.0 0.0 0.0 0.0
1.982 -0.3938819468021393 -0.6318545341491699 7.878988981246948e-06 -2.7599744498729706e-05 0.0 0.0 0.0 0.0
1.983 -0.40650245547294617 -0.622286856174469 -9.52836126089096e-06 1.8008053302764893e-05 0.0 0.0 0.0 0.0
1.984 -0.4173280596733093 -0.6099697947502136 4.3237581849098206e-05 -1.5681609511375427e-05 0.0 0.0 0.0 0.0
1.985 -0.43140721321105957 -0.6021507382392883 3.355182707309723e-05 -1.749768853187561e-05 0.0 0.0 0.0 0.0
1.986 -0.4447104036808014 -0.5922811627388 1.4273449778556824e-05 2.360902726650238e-05 0.0 0.0 0.0 0.0
1.987 -0.45428797602653503 -0.579192042350769 3.320164978504181e-06 -5.043111741542816e-06 0.0 0.0 0.0 0.0
1.988 -0.47043779492378235 -0.5672213435173035 3.628339618444443e-05 -3.1647272408008575e-05 0.0 0.0 0.0 0.0
1.989 -0.4824923276901245 -0.5550059080123901 -6.0284510254859924e-06 3.986060619354248e-06 0.0 0.0 0.0 0.0
1.99 -0.4920855760574341 -0.5431860685348511 1.5917234122753143e-05 -8.790753781795502e-06 0.0 0.0 0.0 0.0
1.991 -0.5055058002471924 -0.5322738885879517 3.0411407351493835e-05 -4.064198583364487e-05 0.0 0.0 0.0 0.0
1.992 -0.5148849487304688 -0.5192191004753113 3.002956509590149e-05 1.3733282685279846e-05 0.0 0.0 0.0 0.0
1.993 -0.526875376701355 -0.50749272108078 1.1845491826534271e-05 1.5348196029663086e-06 0.0 0.0 0.0 0.0
1.994 -0.5397027730941772 -0.4933655858039856 4.236400127410889e-05 -9.335577487945557e-06 0.0 0.0 0.0 0.0
1.995 -0.5510216951370239 -0.47734642028808594 1.0405667126178741e-05 5.970709025859833e-06 0.0 0.0 0.0 0.0
1.996 -0.5603789687156677 -0.4672800302505493 2.7324073016643524e-05 1.537241041660309e-05 0.0 0.0 0.0 0.0
1.997 -0.5703398585319519 -0.45197373628616333 -4.591420292854309e-07 1.062639057636261e-06 0.0 0.0 0.0 0.0
1.998 -0.5817784667015076 -0.4382394850254059 2.1278858184814453e-05 -3.249850124120712e-05 0.0 0.0 0.0 0.0
1.999 -0.59059077501297 -0.4238682687282562 -5.548819899559021e-06 6.527639925479889e-06 0.0 0.0 0.0 0.0
2.0 -0.6007710695266724 -0.40807703137397766 1.0037794709205627e-05 -4.451815038919449e-05 0.0 0.0 0.0 0.0
2.001 -0.6089879274368286 -0.3939470052719116 2.7816742658615112e-05 -2.9830262064933777e-05 0.0 0.0 0.0 0.0
2.002 -0.61631178855896 -0.38075509667396545 3.7678517401218414e-05 5.7248398661613464e-06 0.0 0.0 0.0 0.0
2.003 -0.6254442930221558 -0.3638308644294739 2.5996007025241852e-05 -1.382920891046524e-05 0.0 0.0 0.0 0.0
2.004 -0.6329125761985779 -0.34846869111061096 3.511086106300354e-07 7.323920726776123e-06 0.0 0.0 0.0 0.0
2.005 -0.6421023011207581 -0.3314102292060852 -2.2646039724349976e-05 -3.578420728445053e-05 0.0 0.0 0.0 0.0
2.006 -0.6492994427680969 -0.31571975350379944 3.3630989491939545e-05 -1.0468997061252594e-05 0.0 0.0 0.0 0.0
2.007 -0.6568748950958252 -0.3001367151737213 7.811933755874634e-06 -3.54032963514328e-05 0.0 0.0 0.0 0.0
2.008 -0.6636348366737366 -0.28345146775245667 7.254071533679962e-06 3.295019268989563e-06 0.0 0.0 0.0 0.0
2.009 -0.6708225607872009 -0.2660340964794159 7.875263690948486e-06 -1.750793308019638e-05 0.0 0.0 0.0 0.0
2.01 -0.6759863495826721 -0.24976827204227448 -1.688208431005478e-05 1.7434358596801758e-05 0.0 0.0 0.0 0.0
2.011 -0.6823598146438599 -0.23433177173137665 1.793261617422104e-05 -6.3301995396614075e-06 0.0 0.0 0.0 0.0
2.012 -0.6870145201683044 -0.21841862797737122 7.269904017448425e-06 -3.0555762350559235e-05 0.0 0.0 0.0 0.0
2.013 -0.6915430426597595 -0.20144356787204742 2.215523272752762e-05 -1.5653669834136963e-05 0.0 0.0 0.0 0.0
2.014 -0.6971975564956665 -0.18603070080280304 -1.1397525668144226e-05 -1.8182210624217987e-05 0.0 0.0 0.0 0.0
2.015 -0.7005947828292847 -0.16591140627861023 -9.88692045211792e-06 1.521967351436615e-05 0.0 0.0 0.0 0.0
2.016 -0.7047798037528992 -0.14658895134925842 -1.58064067363739e-05 -8.177012205123901e-06 0.0 0.0 0.0 0.0
2.017 -0.7084797024726868 -0.12994402647018433 2.252776175737381e-05 3.238208591938019e-06 0.0 0.0 0.0 0.0
2.018 -0.7114769816398621 -0.11317683756351471 2.7524307370185852e-05 -6.55241310596466e-05 0.0 0.0 0.0 0.0
2.019 -0.7143292427062988 -0.09615050256252289 7.227994501590729e-06 -1.5924684703350067e-05 0.0 0.0 0.0 0.0
2.02 -0.7163625359535217 -0.08036955446004868 -1.7238780856132507e-06 1.8633902072906494e-05 0.0 0.0 0.0 0.0
2.021 -0.7184889316558838 -0.06121775135397911 1.4901161193847656e-05 2.424325793981552e-05 0.0 0.0 0.0 0.0
2.022 -0.7201141119003296 -0.04198520630598068 2.786051481962204e-05 -1.9385479390621185e-05 0.0 0.0 0.0 0.0
2.023 -0.7214769124984741 -0.023903878405690193 -3.1618401408195496e-06 -3.8506463170051575e-05 0.0 0.0 0.0 0.0
2.024 -0.7221064567565918 -0.005518049001693726 2.1964311599731445e-05 8.084811270236969e-06 0.0 0.0 0.0 0.0
2.025 -0.7226800918579102 0.014765028841793537 1.9825994968414307e-05 -2.7594156563282013e-05 0.0 0.0 0.0 0.0
2.026 -0.7230249047279358 0.03163828328251839 2.071727067232132e-05 -3.2885000109672546e-05 0.0 0.0 0.0 0.0
2.027 -0.7229756712913513 0.045674409717321396 1.4536082744598389e-05 -1.9334256649017334e-06 0.0 0.0 0.0 0.0
2.028 -0.7216708064079285 0.06648652255535126 -1.3739801943302155e-05 -1.3842247426509857e-05 0.0 0.0 0.0 0.0
2.029 -0.720172643661499 0.08513879776000977 -4.246830940246582e-07 -3.576558083295822e-05 0.0 0.0 0.0 0.0
2.03 -0.7189809083938599 0.10011319816112518 2.930872142314911e-05 -4.0424056351184845e-05 0.0 0.0 0.0 0.0
2.031 -0.716417133808136 0.12169310450553894 -1.1548399925231934e-05 -5.813315510749817e-06 0.0 0.0 0.0 0.0
2.032 -0.7136862874031067 0.1389038860797882 1.9764527678489685e-05 -3.383588045835495e-05 0.0 0.0 0.0 0.0
2.033 -0.711697518825531 0.157241091132164 2.8695911169052124e-05 1.8358230590820312e-05 0.0 0.0 0.0 0.0
2.034 -0.7082308530807495 0.17557181417942047 -1.3776123523712158e-05 -1.9261613488197327e-05 0.0 0.0 0.0 0.0
2.035 -0.7049870491027832 0.19389192759990692 7.575377821922302e-06 -9.434297680854797e-06 0.0 0.0 0.0 0.0
2.036 -0.7009046673774719 0.2113962024450302 2.239830791950226e-06 -1.6938894987106323e-05 0.0 0.0 0.0 0.0
2.037 -0.6965809464454651 0.22657418251037598 2.556201070547104e-05 -2.629496157169342e-05 0.0 0.0 0.0 0.0
2.038 -0.6905984282493591 0.2443535178899765 -1.6582198441028595e-05 -9.899958968162537e-06 0.0 0.0 0.0 0.0
2.039 -0.6859906315803528 0.2633254826068878 2.8898008167743683e-05 -1.6286037862300873e-05 0.0 0.0 0.0 0.0
2.04 -0.6791924238204956 0.28011807799339294 7.323920726776123e-06 -2.192799001932144e-05 0.0 0.0 0.0 0.0
2.041 -0.674376368522644 0.29836779832839966 1.7751939594745636e-05 2.574268728494644e-05 0.0 0.0 0.0 0.0
2.042 -0.6677482724189758 0.3165789544582367 6.47176057100296e-06 1.648440957069397e-07 0.0 0.0 0.0 0.0
2.043 -0.6612664461135864 0.3315030634403229 -6.74370676279068e-06 7.018446922302246e-06 0.0 0.0 0.0 0.0
2.044 -0.6550877690315247 0.3473486006259918 -1.3891607522964478e-05 -8.677132427692413e-06 0.0 0.0 0.0 0.0
2.045 -0.646584153175354 0.36534643173217773 -1.023896038532257e-05 -7.878057658672333e-06 0.0 0.0 0.0 0.0
2.046 -0.6386696696281433 0.3810151517391205 6.9821253418922424e-06 -1.1198222637176514e-05 0.0 0.0 0.0 0.0
2.047 -0.6315793991088867 0.3960399329662323 1.1743977665901184e-05 -2.7297064661979675e-06 0.0 0.0 0.0 0.0
2.048 -0.6211167573928833 0.4143736660480499 1.3923272490501404e-05 -2.2795982658863068e-05 0.0 0.0 0.0 0.0
2.049 -0.6118225455284119 0.4312826693058014 2.6131048798561096e-05 -2.659764140844345e-05 0.0 0.0 0.0 0.0
2.05 -0.5997760891914368 0.4479852318763733 -9.90740954875946e-06 -5.569774657487869e-05 0.0 0.0 0.0 0.0
2.051 -0.5927154421806335 0.46202635765075684 -5.098059773445129e-06 7.776543498039246e-07 0.0 0.0 0.0 0.0
2.052 -0.581627368927002 0.4804638922214508 1.5974044799804688e-05 -1.6260892152786255e-05 0.0 0.0 0.0 0.0
2.053 -0.5720964074134827 0.4940761625766754 -6.187707185745239e-06 1.4873221516609192e-05 0.0 0.0 0.0 0.0
2.054 -0.5623294711112976 0.5047028660774231 -2.935994416475296e-05 -1.6276724636554718e-05 0.0 0.0 0.0 0.0
2.055 -0.5498750805854797 0.51997309923172 -3.898516297340393e-06 -2.6178546249866486e-05 0.0 0.0 0.0 0.0
2.056 -0.5387485027313232 0.5337997674942017 -1.5647150576114655e-05 6.225891411304474e-06 0.0 0.0 0.0 0.0
2.057 -0.5272233486175537 0.549221396446228 1.4417804777622223e-05 -2.2057443857192993e-05 0.0 0.0 0.0 0.0
2.058 -0.5134660601615906 0.56322181224823 -3.1115487217903137e-06 -2.6895664632320404e-05 0.0 0.0 0.0 0.0
2.059 -0.5030249357223511 0.5780439376831055 1.6237609088420868e-05 1.0896474123001099e-05 0.0 0.0 0.0 0.0
2.06 -0.48950546979904175 0.5894441604614258 2.7759931981563568e-05 -1.5208497643470764e-06 0.0 0.0 0.0 0.0
2.061 -0.4756447672843933 0.6030160188674927 2.284068614244461e-05 7.092952728271484e-06 0.0 0.0 0.0 0.0
2.062 -0.46681028604507446 0.6165378093719482 1.858547329902649e-05 -1.5076249837875366e-05 0.0 0.0 0.0 0.0
2.063 -0.45068496465682983 0.6263598203659058 2.650078386068344e-05 -2.0544975996017456e-06 0.0 0.0 0.0 0.0
2.064 -0.43398910760879517 0.6357169151306152 9.556300938129425e-06 -1.089833676815033e-05 0.0 0.0 0.0 0.0
2.065 -0.4245413541793823 0.6473885774612427 -2.5301240384578705e-05 -3.128219395875931e-05 0.0 0.0 0.0 0.0
2.066 -0.40874311327934265 0.6602012515068054 7.824040949344635e-06 1.1715106666088104e-05 0.0 0.0 0.0 0.0
2.067 -0.39438462257385254 0.6719505190849304 -7.314607501029968e-06 -6.6785141825675964e-06 0.0 0.0 0.0 0.0
2.068 -0.3806953728199005 0.6829737424850464 2.359040081501007e-06 5.241483449935913e-06 0.0 0.0 0.0 0.0
2.069 -0.3637525737285614 0.6934888958930969 -2.055428922176361e-06 -2.79303640127182e-05 0.0 0.0 0.0 0.0
2.07 -0.35033801198005676 0.7031688690185547 1.3104639947414398e-05 -2.488400787115097e-05 0.0 0.0 0.0 0.0
2.071 -0.3314291536808014 0.713583767414093 4.890374839305878e-05 -9.537674486637115e-06 0.0 0.0 0.0 0.0
2.072 -0.3178770840167999 0.7223498225212097 -3.836117684841156e-06 -3.721751272678375e-05 0.0 0.0 0.0 0.0
2.073 -0.3024471402168274 0.7292605638504028 5.455687642097473e-06 -2.789124846458435e-05 0.0 0.0 0.0 0.0
2.074 -0.28737783432006836 0.7370416522026062 3.163237124681473e-05 -2.7029775083065033e-05 0.0 0.0 0.0 0.0
2.075 -0.27221137285232544 0.7456223368644714 -2.0693987607955933e-06 2.343207597732544e-06 0.0 0.0 0.0 0.0
2.076 -0.25351276993751526 0.7514079213142395 2.2874213755130768e-05 3.6908313632011414e-06 0.0 0.0 0.0 0.0
2.077 -0.24017725884914398 0.7613974213600159 1.811329275369644e-05 -1.3337470591068268e-05 0.0 0.0 0.0 0.0
2.078 -0.22057341039180756 0.7688873410224915 2.0042061805725098e-06 -1.8406659364700317e-05 0.0 0.0 0.0 0.0
2.079 -0.20409660041332245 0.7744836807250977 1.0372139513492584e-05 -4.3443404138088226e-05 0.0 0.0 0.0 0.0
2.08 -0.18963460624217987 0.7797514200210571 -7.634982466697693e-06 -4.481524229049683e-06 0.0 0.0 0.0 0.0
2.081 -0.17042627930641174 0.7868108153343201 2.4040229618549347e-05 -2.3078173398971558e-06 0.0 0.0 0.0 0.0
2.082 -0.1529523730278015 0.7915831804275513 -3.0444934964179993e-06 -9.573996067047119e-06 0.0 0.0 0.0 0.0
2.083 -0.1389436274766922 0.7967370748519897 1.4290213584899902e-05 -2.3320317268371582e-05 0.0 0.0 0.0 0.0
2.084 -0.1223154217004776 0.8006357550621033 6.331130862236023e-06 3.902241587638855e-07 0.0 0.0 0.0 0.0
2.085 -0.10491582006216049 0.805293083190918 -1.0731630027294159e-05 -3.844499588012695e-06 0.0 0.0 0.0 0.0
2.086 -0.08688360452651978 0.8099445700645447 5.6549906730651855e-06 -1.446995884180069e-05 0.0 0.0 0.0 0.0
2.087 -0.07202038913965225 0.8122938275337219 7.834285497665405e-06 7.154420018196106e-06 0.0 0.0 0.0 0.0
2.088 -0.04733906686306 0.8119692802429199 3.0054710805416107e-05 -6.541609764099121e-06 0.0 0.0 0.0 0.0
2.089 -0.037259381264448166 0.8188461065292358 -2.810731530189514e-05 -1.3888813555240631e-05 0.0 0.0 0.0 0.0
2.09 -0.017090145498514175 0.8214719295501709 -2.905726432800293e-07 -2.6348046958446503e-05 0.0 0.0 0.0 0.0
2.091 0.00031077396124601364 0.8237928748130798 2.552475780248642e-05 -1.099519431591034e-05 0.0 0.0 0.0 0.0
2.092 0.017597146332263947 0.8244530558586121 1.5933997929096222e-05 -3.1990930438041687e-06 0.0 0.0 0.0 0.0
2.093 0.03520888462662697 0.8248518705368042 2.8243288397789e-05 -1.4220364391803741e-05 0.0 0.0 0.0 0.0
2.094 0.04975469037890434 0.828106164932251 2.420414239168167e-05 -1.3512559235095978e-05 0.0 0.0 0.0 0.0
2.095 0.06896623224020004 0.8258445858955383 -3.559514880180359e-06 -1.1442229151725769e-05 0.0 0.0 0.0 0.0
2.096 0.08687275648117065 0.8261454105377197 -2.9013492166996002e-05 -3.904104232788086e-06 0.0 0.0 0.0 0.0
2.097 0.10256743431091309 0.8263928890228271 -2.2596679627895355e-05 -3.99518758058548e-05 0.0 0.0 0.0 0.0
2.098 0.12496969848871231 0.826452374458313 -1.1059455573558807e-05 -1.3442710041999817e-05 0.0 0.0 0.0 0.0
2.099 0.13673743605613708 0.8250717520713806 -1.8178485333919525e-05 -3.504753112792969e-05 0.0 0.0 0.0 0.0
2.1 0.15882347524166107 0.8199518918991089 1.9166618585586548e-06 -2.37366184592247e-05 0.0 0.0 0.0 0.0
2.101 0.16881218552589417 0.8216467499732971 -7.0873647928237915e-06 1.17570161819458e-05 0.0 0.0 0.0 0.0
2.102 0.18914490938186646 0.818773627281189 -5.185604095458984e-06 -3.3387914299964905e-06 0.0 0.0 0.0 0.0
2.103 0.20454110205173492 0.8162631988525391 6.798654794692993e-06 -1.838523894548416e-05 0.0 0.0 0.0 0.0
2.104 0.2190929651260376 0.8132901787757874 1.4926306903362274e-05 2.4123117327690125e-05 0.0 0.0 0.0 0.0
2.105 0.23824934661388397 0.8104475140571594 2.704467624425888e-05 2.009328454732895e-05 0.0 0.0 0.0 0.0
2.106 0.2560187876224518 0.8074024319648743 1.0579824447631836e-05 7.67875462770462e-06 0.0 0.0 0.0 0.0
2.107 0.27118980884552 0.8036625981330872 1.4116056263446808e-05 -2.961978316307068e-05 0.0 0.0 0.0 0.0
2.108 0.2898689806461334 0.7981917262077332 2.444535493850708e-05 -2.549588680267334e-05 0.0 0.0 0.0 0.0
2.109 0.3042486310005188 0.7947667241096497 3.054272383451462e-05 -6.144866347312927e-06 0.0 0.0 0.0 0.0
2.11 0.31655141711235046 0.7929164171218872 -9.241513907909393e-06 -6.423331797122955e-06 0.0 0.0 0.0 0.0
2.111 0.3377090394496918 0.7840394377708435 -2.876855432987213e-05 -2.812594175338745e-06 0.0 0.0 0.0 0.0
2.112 0.35648486018180847 0.779385507106781 2.1852552890777588e-05 -3.448687493801117e-06 0.0 0.0 0.0 0.0
2.113 0.36820051074028015 0.7721530199050903 -7.618218660354614e-06 -1.79903581738472e-05 0.0 0.0 0.0 0.0
2.114 0.3827316164970398 0.7667885422706604 2.996530383825302e-05 -1.827254891395569e-05 0.0 0.0 0.0 0.0
2.115 0.3986898958683014 0.7604281306266785 -6.907619535923004e-06 -2.833828330039978e-05 0.0 0.0 0.0 0.0
2.116 0.416765421628952 0.7544852495193481 5.00120222568512e-07 -9.15583223104477e-06 0.0 0.0 0.0 0.0
2.117 0.4287010729312897 0.7460759282112122 -7.868744432926178e-06 -1.467578113079071e-05 0.0 0.0 0.0 0.0
2.118 0.44647493958473206 0.7362731695175171 -5.403533577919006e-06 2.3995526134967804e-05 0.0 0.0 0.0 0.0
2.119 0.45982658863067627 0.7329356074333191 1.2518838047981262e-05 9.615905582904816e-06 0.0 0.0 0.0 0.0
2.12 0.46980535984039307 0.7255935668945312 -6.873160600662231e-07 -4.870817065238953e-06 0.0 0.0 0.0 0.0
2.121 0.48509249091148376 0.7170272469520569 5.8067962527275085e-06 -2.084486186504364e-05 0.0 0.0 0.0 0.0
2.122 0.5000617504119873 0.7056850790977478 -1.05295330286026e-05 -7.64988362789154e-06 0.0 0.0 0.0 0.0
2.123 0.5129533410072327 0.6970456838607788 -5.748122930526733e-06 5.803070962429047e-06 0.0 0.0 0.0 0.0
2.124 0.5275561213493347 0.691702663898468 1.09868124127388e-05 -1.589115709066391e-05 0.0 0.0 0.0 0.0
2.125 0.542807400226593 0.6784073710441589 -4.6407803893089294e-06 1.2109056115150452e-05 0.0 0.0 0.0 0.0
2.126 0.5564626455307007 0.668433427810669 -1.4901161193847656e-07 -2.925284206867218e-05 0.0 0.0 0.0 0.0
2.127 0.5684570074081421 0.6594581604003906 6.537884473800659e-07 -5.223788321018219e-06 0.0 0.0 0.0 0.0
2.128 0.5787650942802429 0.6486782431602478 6.507150828838348e-06 -1.863483339548111e-05 0.0 0.0 0.0 0.0
2.129 0.591751217842102 0.6394749283790588 8.31950455904007e-06 -8.662231266498566e-06 0.0 0.0 0.0 0.0
2.13 0.604564905166626 0.6296578645706177 -3.2763928174972534e-06 1.566484570503235e-05 0.0 0.0 0.0 0.0
2.131 0.6183883547782898 0.6168161630630493 -5.609355866909027e-06 2.4881213903427124e-05 0.0 0.0 0.0 0.0
2.132 0.6280420422554016 0.6066858768463135 5.467794835567474e-06 -3.1637027859687805e-05 0.0 0.0 0.0 0.0
2.133 0.640960156917572 0.5954718589782715 6.619840860366821e-06 4.852190613746643e-06 0.0 0.0 0.0 0.0
2.134 0.6531633734703064 0.5814754366874695 -9.004026651382446e-06 -2.5101937353610992e-05 0.0 0.0 0.0 0.0
2.135 0.6635141372680664 0.5717343091964722 -8.550472557544708e-06 1.610349863767624e-05 0.0 0.0 0.0 0.0
2.136 0.6783561706542969 0.5640921592712402 1.3838522136211395e-05 -2.8889626264572144e-06 0.0 0.0 0.0 0.0
2.137 0.6844105124473572 0.5477853417396545 1.8382444977760315e-05 -2.0954757928848267e-07 0.0 0.0 0.0 0.0
2.138 0.6948302984237671 0.5351464748382568 2.7252361178398132e-05 -1.9949860870838165e-05 0.0 0.0 0.0 0.0
2.139 0.7036182284355164 0.523880660533905 2.020038664340973e-06 -3.446824848651886e-06 0.0 0.0 0.0 0.0
2.14 0.7161295413970947 0.5081820487976074 9.912997484207153e-06 -9.132549166679382e-06 0.0 0.0 0.0 0.0
2.141 0.7241172194480896 0.49717170000076294 2.6992522180080414e-05 6.206333637237549e-06 0.0 0.0 0.0 0.0
2.142 0.7344720363616943 0.48373809456825256 2.6561319828033447e-06 3.7095509469509125e-05 0.0 0.0 0.0 0.0
2.143 0.7435722351074219 0.4717372953891754 1.750607043504715e-05 -1.735147088766098e-05 0.0 0.0 0.0 0.0
2.144 0.7525573968887329 0.4567953050136566 1.142360270023346e-05 -1.0999850928783417e-05 0.0 0.0 0.0 0.0
2.145 0.7588542103767395 0.4468201994895935 1.597125083208084e-05 -2.866610884666443e-06 0.0 0.0 0.0 0.0
2.146 0.7665915489196777 0.43100497126579285 1.5962868928909302e-06 -3.1283125281333923e-06 0.0 0.0 0.0 0.0
2.147 0.7749010920524597 0.4190557301044464 5.688518285751343e-06 -1.336168497800827e-05 0.0 0.0 0.0 0.0
2.148 0.7796204090118408 0.40492770075798035 2.0046718418598175e-05 -2.0889565348625183e-06 0.0 0.0 0.0 0.0
2.149 0.7897425293922424 0.3905161917209625 1.9526109099388123e-05 6.1532482504844666e-06 0.0 0.0 0.0 0.0
2.15 0.7980299592018127 0.3733898997306824 3.159325569868088e-05 -1.8709339201450348e-05 0.0 0.0 0.0 0.0
2.151 0.8041859865188599 0.36193981766700745 1.953914761543274e-06 -1.7210841178894043e-06 0.0 0.0 0.0 0.0
2.152 0.8115332126617432 0.3442980945110321 2.8293579816818237e-06 1.3000331819057465e-05 0.0 0.0 0.0 0.0
2.153 0.8166792988777161 0.3334561288356781 1.039355993270874e-05 -3.146938979625702e-06 0.0 0.0 0.0 0.0
2.154 0.8248395323753357 0.3127479553222656 7.76536762714386e-06 4.7497451305389404e-06 0.0 0.0 0.0 0.0
2.155 0.8278318643569946 0.30295640230178833 4.9443915486335754e-06 4.936009645462036e-06 0.0 0.0 0.0 0.0
2.156 0.8321531414985657 0.2919768989086151 3.3499673008918762e-06 6.658956408500671e-06 0.0 0.0 0.0 0.0
2.157 0.8383552432060242 0.2717636823654175 1.5904195606708527e-05 -7.366761565208435e-07 0.0 0.0 0.0 0.0
2.158 0.8430801630020142 0.25889626145362854 -8.557923138141632e-06 -5.085021257400513e-06 0.0 0.0 0.0 0.0
2.159 0.8471668362617493 0.2427341639995575 8.430331945419312e-06 1.45789235830307e-05 0.0 0.0 0.0 0.0
2.16 0.8531836271286011 0.22625333070755005 1.5286728739738464e-05 -1.607462763786316e-06 0.0 0.0 0.0 0.0
2.161 0.8554163575172424 0.21225711703300476 1.208484172821045e-05 5.288049578666687e-06 0.0 0.0 0.0 0.0
2.162 0.8589503765106201 0.19670480489730835 8.130446076393127e-06 -1.044292002916336e-05 0.0 0.0 0.0 0.0
2.163 0.8619870543479919 0.18176893889904022 8.181668817996979e-06 -1.1470168828964233e-05 0.0 0.0 0.0 0.0
2.164 0.8647693395614624 0.1674761325120926 -7.090158760547638e-06 3.3581629395484924e-05 0.0 0.0 0.0 0.0
2.165 0.8665560483932495 0.15281610190868378 1.3514421880245209e-05 -8.161179721355438e-06 0.0 0.0 0.0 0.0
2.166 0.869902491569519 0.13466091454029083 1.0183081030845642e-05 -1.0582618415355682e-05 0.0 0.0 0.0 0.0
2.167 0.8713380694389343 0.11869441717863083 -1.2996606528759003e-05 2.7407892048358917e-05 0.0 0.0 0.0 0.0
2.168 0.8729730844497681 0.1036696657538414 -5.966052412986755e-06 2.1187588572502136e-06 0.0 0.0 0.0 0.0
2.169 0.8750430345535278 0.08851740509271622 -2.3562461137771606e-07 -1.1762604117393494e-06 0.0 0.0 0.0 0.0
2.17 0.8759006261825562 0.06982039660215378 2.22865492105484e-06 1.0720454156398773e-05 0.0 0.0 0.0 0.0
2.171 0.876646101474762 0.05796964466571808 5.257315933704376e-06 -1.7667189240455627e-06 0.0 0.0 0.0 0.0
2.172 0.876644492149353 0.041828274726867676 2.1887943148612976e-05 4.499219357967377e-06 0.0 0.0 0.0 0.0
2.173 0.8765024542808533 0.025840312242507935 -7.798895239830017e-06 1.9741244614124298e-05 0.0 0.0 0.0 0.0
2.174 0.8764853477478027 0.010183056816458702 2.1989457309246063e-05 -2.197548747062683e-05 0.0 0.0 0.0 0.0
2.175 0.8757680058479309 -0.00873105600476265 4.516914486885071e-06 7.115304470062256e-06 0.0 0.0 0.0 0.0
2.176 0.8750641345977783 -0.022191734984517097 2.6265159249305725e-05 1.9708648324012756e-05 0.0 0.0 0.0 0.0
2.177 0.874050498008728 -0.03723885864019394 5.430541932582855e-06 1.934356987476349e-05 0.0 0.0 0.0 0.0
2.178 0.8732314705848694 -0.05399410054087639 2.2417865693569183e-05 2.0903535187244415e-05 0.0 0.0 0.0 0.0
2.179 0.8713840842247009 -0.0692407414317131 -1.0075978934764862e-05 -7.090158760547638e-06 0.0 0.0 0.0 0.0
2.18 0.8695218563079834 -0.08280244469642639 3.92179936170578e-05 -2.5152228772640228e-05 0.0 0.0 0.0 0.0
2.181 0.8665730953216553 -0.10053997486829758 2.7033500373363495e-05 1.5826895833015442e-05 0.0 0.0 0.0 0.0
2.182 0.8642908334732056 -0.11570264399051666 1.086108386516571e-05 -8.84663313627243e-06 0.0 0.0 0.0 0.0
2.183 0.8607487082481384 -0.13101792335510254 9.04873013496399e-06 2.0870007574558258e-05 0.0 0.0 0.0 0.0
2.184 0.8578966856002808 -0.14758552610874176 2.9476359486579895e-05 3.6908313632011414e-06 0.0 0.0 0.0 0.0
2.185 0.8543756604194641 -0.16356655955314636 1.6934238374233246e-05 1.6837380826473236e-05 0.0 0.0 0.0 0.0
2.186 0.850334644317627 -0.17847926914691925 2.9860995709896088e-05 -1.057889312505722e-05 0.0 0.0 0.0 0.0
2.187 0.8462160229682922 -0.19190432131290436 5.653128027915955e-07 9.325332939624786e-06 0.0 0.0 0.0 0.0
2.188 0.8413175344467163 -0.2084476351737976 2.2230669856071472e-05 4.2654573917388916e-07 0.0 0.0 0.0 0.0
2.189 0.8372352123260498 -0.22223854064941406 -2.9318034648895264e-06 -2.9588118195533752e-06 0.0 0.0 0.0 0.0
2.19 0.8317295908927917 -0.23802387714385986 1.7969869077205658e-05 -2.830289304256439e-06 0.0 0.0 0.0 0.0
2.191 0.8257220387458801 -0.2540378272533417 -2.0489096641540527e-08 2.8153881430625916e-06 0.0 0.0 0.0 0.0
2.192 0.8195206522941589 -0.270028293132782 2.9596500098705292e-05 1.6596168279647827e-06 0.0 0.0 0.0 0.0
2.193 0.8147673606872559 -0.28273653984069824 3.5045668482780457e-06 2.759508788585663e-05 0.0 0.0 0.0 0.0
2.194 0.8089203834533691 -0.29876452684402466 -3.7606805562973022e-06 1.786649227142334e-05 0.0 0.0 0.0 0.0
2.195 0.8008487820625305 -0.3146885931491852 3.750436007976532e-06 -1.3028271496295929e-05 0.0 0.0 0.0 0.0
2.196 0.7940184473991394 -0.3256226181983948 1.3848766684532166e-06 2.3624859750270844e-05 0.0 0.0 0.0 0.0
2.197 0.7862743139266968 -0.34371623396873474 -1.3900920748710632e-05 -5.753710865974426e-06 0.0 0.0 0.0 0.0
2.198 0.779114842414856 -0.35610324144363403 5.737878382205963e-06 -9.344890713691711e-06 0.0 0.0 0.0 0.0
2.199 0.7712626457214355 -0.370847225189209 9.830109775066376e-06 -1.011136919260025e-05 0.0 0.0 0.0 0.0
2.2 0.7632942199707031 -0.38536468148231506 -1.052115112543106e-05 1.5119090676307678e-05 0.0 0.0 0.0 0.0
2.201 0.7542581558227539 -0.39947885274887085 3.0817463994026184e-05 2.6034191250801086e-05 0.0 0.0 0.0 0.0
2.202 0.7483007311820984 -0.40960022807121277 4.4181011617183685e-05 -6.1122700572013855e-06 0.0 0.0 0.0 0.0
2.203 0.737527072429657 -0.42323464155197144 3.0703842639923096e-05 -7.061287760734558e-06 0.0 0.0 0.0 0.0
2.204 0.7271754741668701 -0.4398280382156372 9.359791874885559e-06 8.602626621723175e-06 0.0 0.0 0.0 0.0
2.205 0.7189222574234009 -0.45005208253860474 2.373475581407547e-05 -4.922039806842804e-06 0.0 0.0 0.0 0.0
2.206 0.7099131941795349 -0.4621517062187195 1.1035241186618805e-05 -1.717638224363327e-05 0.0 0.0 0.0 0.0
2.207 0.697597086429596 -0.47856101393699646 8.568167686462402e-06 3.0593015253543854e-05 0.0 0.0 0.0 0.0
2.208 0.6897876262664795 -0.4882458448410034 1.872517168521881e-05 -2.0419247448444366e-05 0.0 0.0 0.0 0.0
2.209 0.6775935292243958 -0.502651035785675 4.5532360672950745e-06 -2.095010131597519e-05 0.0 0.0 0.0 0.0
2.21 0.6672285199165344 -0.5155472159385681 3.2261013984680176e-06 -5.234964191913605e-06 0.0 0.0 0.0 0.0
2.211 0.6565518975257874 -0.5254572629928589 3.314390778541565e-05 9.632669389247894e-06 0.0 0.0 0.0 0.0
2.212 0.6455106139183044 -0.5394295454025269 3.2586976885795593e-06 7.000751793384552e-06 0.0 0.0 0.0 0.0
2.213 0.631816029548645 -0.5514107942581177 2.478715032339096e-05 1.1428259313106537e-05 0.0 0.0 0.0 0.0
2.214 0.6197019219398499 -0.5621757507324219 1.537613570690155e-05 -2.833828330039978e-05 0.0 0.0 0.0 0.0
2.215 0.6088212728500366 -0.5717509388923645 4.589557647705078e-05 -1.8570572137832642e-06 0.0 0.0 0.0 0.0
2.216 0.5946723818778992 -0.5844417810440063 3.7709251046180725e-06 2.3739412426948547e-06 0.0 0.0 0.0 0.0
2.217 0.5825210213661194 -0.5958079099655151 -8.819624781608582e-07 2.0937994122505188e-05 0.0 0.0 0.0 0.0
2.218 0.5673789381980896 -0.606940746307373 2.9569491744041443e-05 1.0598450899124146e-05 0.0 0.0 0.0 0.0
2.219 0.5559238195419312 -0.6160603761672974 1.1150725185871124e-05 1.6559846699237823e-05 0.0 0.0 0.0 0.0
2.22 0.5404912233352661 -0.6237715482711792 -4.166737198829651e-06 1.8996186554431915e-05 0.0 0.0 0.0 0.0
2.221 0.5302572846412659 -0.6337348222732544 2.495851367712021e-05 -7.9302117228508e-06 0.0 0.0 0.0 0.0
2.222 0.5153341889381409 -0.6454196572303772 8.763745427131653e-07 -6.731599569320679e-06 0.0 0.0 0.0 0.0
2.223 0.5028104186058044 -0.6521490812301636 1.4008022844791412e-05 -1.3883225619792938e-05 0.0 0.0 0.0 0.0
2.224 0.48443540930747986 -0.6626589894294739 3.903917968273163e-05 1.551397144794464e-05 0.0 0.0 0.0 0.0
2.225 0.47039029002189636 -0.6727448105812073 2.882257103919983e-05 5.600973963737488e-06 0.0 0.0 0.0 0.0
2.226 0.4604322910308838 -0.6797972917556763 3.100931644439697e-05 2.1709129214286804e-06 0.0 0.0 0.0 0.0
2.227 0.4429439604282379 -0.6884339451789856 1.80685892701149e-05 2.5743618607521057e-05 0.0 0.0 0.0 0.0
2.228 0.43001189827919006 -0.6949136257171631 -7.0016831159591675e-06 2.355780452489853e-05 0.0 0.0 0.0 0.0
2.229 0.4121443033218384 -0.7029439210891724 2.42479145526886e-05 -2.073589712381363e-05 0.0 0.0 0.0 0.0
2.23 0.3994615375995636 -0.7094674706459045 -1.620221883058548e-05 4.303641617298126e-06 0.0 0.0 0.0 0.0
2.231 0.3805769979953766 -0.7172043919563293 3.410596400499344e-05 1.282431185245514e-05 0.0 0.0 0.0 0.0
2.232 0.36334678530693054 -0.7200754284858704 3.868807107210159e-05 -2.4428591132164e-06 0.0 0.0 0.0 0.0
2.233 0.3482798635959625 -0.7287507653236389 5.213543772697449e-06 -5.621463060379028e-06 0.0 0.0 0.0 0.0
2.234 0.332489550113678 -0.7369834184646606 1.9010156393051147e-05 -2.734363079071045e-06 0.0 0.0 0.0 0.0
2.235 0.3183746635913849 -0.7405855059623718 1.5799887478351593e-05 9.385868906974792e-06 0.0 0.0 0.0 0.0
2.236 0.2997781038284302 -0.746984601020813 3.348756581544876e-05 1.4541670680046082e-05 0.0 0.0 0.0 0.0
2.237 0.2844550311565399 -0.7517442107200623 2.8061680495738983e-05 2.953503280878067e-05 0.0 0.0 0.0 0.0
2.238 0.2674483060836792 -0.7556511163711548 4.672631621360779e-05 1.2627802789211273e-05 0.0 0.0 0.0 0.0
2.239 0.25135108828544617 -0.7602591514587402 1.3460405170917511e-05 4.819594323635101e-06 0.0 0.0 0.0 0.0
2.24 0.2312440127134323 -0.7636184692382812 -2.7632340788841248e-06 -5.01144677400589e-06 0.0 0.0 0.0 0.0
2.241 0.21561139822006226 -0.7670035362243652 3.526732325553894e-05 -6.775371730327606e-06 0.0 0.0 0.0 0.0
2.242 0.19978544116020203 -0.7715447545051575 2.4549663066864014e-05 -5.671754479408264e-07 0.0 0.0 0.0 0.0
2.243 0.18127870559692383 -0.7733753323554993 3.186054527759552e-05 1.3712793588638306e-05 0.0 0.0 0.0 0.0
2.244 0.16732759773731232 -0.7781311869621277 3.3620744943618774e-05 -1.0213814675807953e-05 0.0 0.0 0.0 0.0
2.245 0.14638569951057434 -0.7759265303611755 2.11130827665329e-06 2.2046267986297607e-05 0.0 0.0 0.0 0.0
2.246 0.1291753053665161 -0.7797818183898926 3.6736950278282166e-05 -7.516704499721527e-06 0.0 0.0 0.0 0.0
2.247 0.1128971129655838 -0.7809403538703918 4.900805652141571e-05 1.3538636267185211e-05 0.0 0.0 0.0 0.0
2.248 0.09559203684329987 -0.7814457416534424 2.7107074856758118e-05 9.608455002307892e-06 0.0 0.0 0.0 0.0
2.249 0.07551532238721848 -0.7819779515266418 5.552545189857483e-06 -3.657303750514984e-06 0.0 0.0 0.0 0.0
2.25 0.05942784249782562 -0.782780647277832 1.848209649324417e-05 8.325092494487762e-06 0.0 0.0 0.0 0.0
2.251 0.043152738362550735 -0.7825353145599365 3.4761615097522736e-05 -1.092720776796341e-05 0.0 0.0 0.0 0.0
2.252 0.025538835674524307 -0.7817598581314087 1.1020340025424957e-05 -1.9849278032779694e-05 0.0 0.0 0.0 0.0
2.253 0.005541575141251087 -0.7805913090705872 2.7745962142944336e-05 -1.4532357454299927e-05 0.0 0.0 0.0 0.0
2.254 -0.010586511343717575 -0.7767457962036133 3.811437636613846e-05 -2.0915642380714417e-05 0.0 0.0 0.0 0.0
2.255 -0.030155079439282417 -0.7770009636878967 1.1664815247058868e-05 -1.145247370004654e-05 0.0 0.0 0.0 0.0
2.256 -0.052929408848285675 -0.7730039358139038 4.884321242570877e-05 2.5238841772079468e-06 0.0 0.0 0.0 0.0
2.257 -0.06147443503141403 -0.7727848291397095 1.7326325178146362e-05 1.211557537317276e-05 0.0 0.0 0.0 0.0
2.258 -0.08251667767763138 -0.768264889717102 7.287599146366119e-06 -7.577240467071533e-06 0.0 0.0 0.0 0.0
2.259 -0.10030391067266464 -0.7655087113380432 2.3330561816692352e-05 -4.3120235204696655e-07 0.0 0.0 0.0 0.0
2.26 -0.11625322699546814 -0.7608956694602966 2.612173557281494e-05 -1.0275281965732574e-05 0.0 0.0 0.0 0.0
2.261 -0.13438020646572113 -0.7587786316871643 1.1672265827655792e-05 -1.9545666873455048e-05 0.0 0.0 0.0 0.0
2.262 -0.15220123529434204 -0.7532721161842346 1.344829797744751e-06 -1.7228536307811737e-05 0.0 0.0 0.0 0.0
2.263 -0.1681187003850937 -0.7467867136001587 4.383549094200134e-05 4.280358552932739e-06 0.0 0.0 0.0 0.0
2.264 -0.18575423955917358 -0.7428621053695679 3.6456622183322906e-05 -1.7266720533370972e-06 0.0 0.0 0.0 0.0
2.265 -0.20259346067905426 -0.7381501793861389 2.687610685825348e-05 1.1362135410308838e-07 0.0 0.0 0.0 0.0
2.266 -0.2194589525461197 -0.7317051291465759 1.3760291039943695e-05 4.7404319047927856e-07 0.0 0.0 0.0 0.0
2.267 -0.2377159297466278 -0.7249242663383484 1.7202459275722504e-05 1.1469237506389618e-05 0.0 0.0 0.0 0.0
2.268 -0.2560964524745941 -0.7212238907814026 7.439404726028442e-06 8.772127330303192e-06 0.0 0.0 0.0 0.0
2.269 -0.2716119587421417 -0.7103023529052734 2.504885196685791e-05 1.3638287782669067e-05 0.0 0.0 0.0 0.0
2.27 -0.28494977951049805 -0.7040807008743286 3.087148070335388e-05 -4.365108907222748e-06 0.0 0.0 0.0 0.0
2.271 -0.30165889859199524 -0.6964642405509949 1.8198974430561066e-05 -3.769993782043457e-06 0.0 0.0 0.0 0.0
2.272 -0.3174667954444885 -0.6886535882949829 2.620834857225418e-05 -2.1444633603096008e-05 0.0 0.0 0.0 0.0
2.273 -0.3333873748779297 -0.6789565682411194 1.4524906873703003e-05 -2.54996120929718e-06 0.0 0.0 0.0 0.0
2.274 -0.34973013401031494 -0.6701560020446777 1.0728836059570312e-05 4.069879651069641e-06 0.0 0.0 0.0 0.0
2.275 -0.36870691180229187 -0.6600017547607422 5.001388490200043e-05 4.562549293041229e-06 0.0 0.0 0.0 0.0
2.276 -0.381303071975708 -0.6499940752983093 -7.593072950839996e-06 -1.5925616025924683e-05 0.0 0.0 0.0 0.0
2.277 -0.39703693985939026 -0.6398828029632568 1.7593614757061005e-05 2.5682151317596436e-05 0.0 0.0 0.0 0.0
2.278 -0.4085736870765686 -0.6324507594108582 1.8831342458724976e-06 -1.800432801246643e-05 0.0 0.0 0.0 0.0
2.279 -0.4229885935783386 -0.6208246946334839 1.2063421308994293e-05 4.851445555686951e-05 0.0 0.0 0.0 0.0
2.28 -0.4394858181476593 -0.6075199246406555 3.3173710107803345e-06 -1.594051718711853e-05 0.0 0.0 0.0 0.0
2.281 -0.45336732268333435 -0.5990168452262878 1.3663433492183685e-05 -1.4336779713630676e-05 0.0 0.0 0.0 0.0
2.282 -0.4678094983100891 -0.5855883955955505 4.422105848789215e-05 -1.4564953744411469e-05 0.0 0.0 0.0 0.0
2.283 -0.484181672334671 -0.5714905858039856 8.179806172847748e-06 2.1470710635185242e-05 0.0 0.0 0.0 0.0
2.284 -0.4949817955493927 -0.561479926109314 3.228336572647095e-05 1.2964941561222076e-05 0.0 0.0 0.0 0.0
2.285 -0.5063604116439819 -0.5489702820777893 -2.8870999813079834e-08 -1.605786383152008e-05 0.0 0.0 0.0 0.0
2.286 -0.5199276208877563 -0.5365447402000427 3.329850733280182e-05 -1.419801265001297e-05 0.0 0.0 0.0 0.0
2.287 -0.5327112078666687 -0.5229736566543579 2.7772970497608185e-05 -1.2168660759925842e-05 0.0 0.0 0.0 0.0
2.288 -0.5439589619636536 -0.5106473565101624 2.2646039724349976e-05 2.5375746190547943e-05 0.0 0.0 0.0 0.0
2.289 -0.5564705729484558 -0.4955774247646332 3.084540367126465e-05 1.451931893825531e-06 0.0 0.0 0.0 0.0
2.29 -0.5682324171066284 -0.4819115400314331 3.073737025260925e-05 -1.8299557268619537e-05 0.0 0.0 0.0 0.0
2.291 -0.5799625515937805 -0.4669939875602722 3.191642463207245e-05 -1.707952469587326e-05 0.0 0.0 0.0 0.0
2.292 -0.5899321436882019 -0.44957566261291504 3.242865204811096e-06 7.05476850271225e-06 0.0 0.0 0.0 0.0
2.293 -0.6024916172027588 -0.43710336089134216 3.23224812746048e-05 -1.1660158634185791e-05 0.0 0.0 0.0 0.0
2.294 -0.6101095080375671 -0.4252754747867584 1.9563362002372742e-05 -8.320435881614685e-06 0.0 0.0 0.0 0.0
2.295 -0.6192154884338379 -0.4114617109298706 5.9371814131736755e-06 1.6819685697555542e-06 0.0 0.0 0.0 0.0
2.296 -0.6292864084243774 -0.3946753740310669 2.4049542844295502e-05 1.578591763973236e-06 0.0 0.0 0.0 0.0
2.297 -0.6367461085319519 -0.38136595487594604 3.457162529230118e-05 -4.202127456665039e-06 0.0 0.0 0.0 0.0
2.298 -0.6476027965545654 -0.36375540494918823 2.2460706532001495e-05 7.565133273601532e-06 0.0 0.0 0.0 0.0
2.299 -0.6570882201194763 -0.3459799289703369 4.775542765855789e-05 1.052115112543106e-05 0.0 0.0 0.0 0.0
2.3 -0.6635577082633972 -0.332358181476593 2.599414438009262e-05 -5.621463060379028e-06 0.0 0.0 0.0 0.0
2.301 -0.6718180179595947 -0.316148966550827 7.631257176399231e-06 -1.6734935343265533e-05 0.0 0.0 0.0 0.0
2.302 -0.6783164143562317 -0.29895952343940735 2.526119351387024e-05 -7.202848792076111e-06 0.0 0.0 0.0 0.0
2.303 -0.6859126687049866 -0.2840119004249573 2.0240433514118195e-05 -1.1895783245563507e-05 0.0 0.0 0.0 0.0
2.304 -0.6934964656829834 -0.2682744562625885 1.512095332145691e-05 -9.860843420028687e-06 0.0 0.0 0.0 0.0
2.305 -0.6975810527801514 -0.25161251425743103 1.1498108506202698e-05 -2.297293394804001e-05 0.0 0.0 0.0 0.0
2.306 -0.7039650082588196 -0.23482662439346313 -4.512257874011993e-06 -4.108995199203491e-06 0.0 0.0 0.0 0.0
2.307 -0.7090057134628296 -0.2183845043182373 3.936886787414551e-05 -1.5090219676494598e-05 0.0 0.0 0.0 0.0
2.308 -0.714625895023346 -0.2009882777929306 3.470294177532196e-05 7.662922143936157e-06 0.0 0.0 0.0 0.0
2.309 -0.7197228670120239 -0.18352822959423065 3.7981197237968445e-05 -1.5594065189361572e-05 0.0 0.0 0.0 0.0
2.31 -0.7240611910820007 -0.16693761944770813 1.2260861694812775e-05 -1.5722587704658508e-05 0.0 0.0 0.0 0.0
2.311 -0.7277402281761169 -0.1502416580915451 2.224743366241455e-05 3.5353004932403564e-06 0.0 0.0 0.0 0.0
2.312 -0.7313223481178284 -0.13450579345226288 2.3991800844669342e-05 -1.8049031496047974e-06 0.0 0.0 0.0 0.0
2.313 -0.7342298626899719 -0.11669716238975525 2.7407892048358917e-05 -1.738220453262329e-05 0.0 0.0 0.0 0.0
2.314 -0.7370700240135193 -0.10036207735538483 1.7127953469753265e-05 -1.2380070984363556e-05 0.0 0.0 0.0 0.0
2.315 -0.7393680214881897 -0.08194082975387573 4.1892752051353455e-05 -3.466382622718811e-06 0.0 0.0 0.0 0.0
2.316 -0.7416876554489136 -0.06422010809183121 1.774914562702179e-05 -2.867169678211212e-05 0.0 0.0 0.0 0.0
2.317 -0.7430741786956787 -0.04652715474367142 3.966130316257477e-05 5.054287612438202e-06 0.0 0.0 0.0 0.0
2.318 -0.7447185516357422 -0.029401671141386032 1.0136514902114868e-05 -1.4570541679859161e-05 0.0 0.0 0.0 0.0
2.319 -0.7458348274230957 -0.010702332481741905 4.336237907409668e-05 -4.167668521404266e-06 0.0 0.0 0.0 0.0
2.32 -0.7463236451148987 0.0030595259740948677 -1.4780089259147644e-06 -4.240311682224274e-06 0.0 0.0 0.0 0.0
2.321 -0.7462500333786011 0.020355284214019775 4.6203844249248505e-05 2.3245811462402344e-06 0.0 0.0 0.0 0.0
2.322 -0.7459954619407654 0.03648808225989342 -1.043081283569336e-05 -2.4959444999694824e-07 0.0 0.0 0.0 0.0
2.323 -0.745406985282898 0.05564822256565094 9.964220225811005e-06 6.487593054771423e-06 0.0 0.0 0.0 0.0
2.324 -0.7447364330291748 0.07074011862277985 1.6868114471435547e-05 2.606213092803955e-05 0.0 0.0 0.0 0.0
2.325 -0.7436586618423462 0.08630730211734772 2.282671630382538e-05 5.79003244638443e-06 0.0 0.0 0.0 0.0
2.326 -0.7410531044006348 0.10978475958108902 1.0740011930465698e-05 -8.059665560722351e-06 0.0 0.0 0.0 0.0
2.327 -0.7405426502227783 0.11956295371055603 1.2497417628765106e-05 -2.0852312445640564e-06 0.0 0.0 0.0 0.0
2.328 -0.7371960878372192 0.14021149277687073 2.5170855224132538e-05 2.8206966817378998e-05 0.0 0.0 0.0 0.0
2.329 -0.7360239028930664 0.1513233780860901 2.1216459572315216e-05 4.0531158447265625e-06 0.0 0.0 0.0 0.0
2.33 -0.7329580783843994 0.1689337193965912 1.753680408000946e-06 -2.5210902094841003e-06 0.0 0.0 0.0 0.0
2.331 -0.7290440797805786 0.18759863078594208 2.3658387362957e-05 -1.5439465641975403e-05 0.0 0.0 0.0 0.0
2.332 -0.7266154289245605 0.20044372975826263 2.2912397980690002e-05 -5.8067962527275085e-06 0.0 0.0 0.0 0.0
2.333 -0.7218889594078064 0.2186645269393921 1.967884600162506e-05 -2.9355287551879883e-06 0.0 0.0 0.0 0.0
2.334 -0.7178626656532288 0.2356751412153244 4.112161695957184e-05 -1.2043863534927368e-05 0.0 0.0 0.0 0.0
2.335 -0.713398814201355 0.2515537142753601 3.07941809296608e-05 1.8615275621414185e-05 0.0 0.0 0.0 0.0
2.336 -0.7091183662414551 0.26661866903305054 1.2191012501716614e-05 -5.038455128669739e-06 0.0 0.0 0.0 0.0
2.337 -0.70574551820755 0.27923646569252014 3.9165839552879333e-05 -4.041939973831177e-06 0.0 0.0 0.0 0.0
2.338 -0.7002679705619812 0.29399821162223816 1.3728626072406769e-05 1.1754222214221954e-05 0.0 0.0 0.0 0.0
2.339 -0.6933541893959045 0.31021130084991455 8.741393685340881e-06 -1.4523044228553772e-05 0.0 0.0 0.0 0.0
2.34 -0.6879191398620605 0.32719796895980835 1.8533319234848022e-05 -1.0998919606208801e-05 0.0 0.0 0.0 0.0
2.341 -0.6821011304855347 0.3408922851085663 1.7736107110977173e-05 -1.0915100574493408e-05 0.0 0.0 0.0 0.0
2.342 -0.6740556955337524 0.3575691282749176 6.0578808188438416e-05 2.7082860469818115e-06 0.0 0.0 0.0 0.0
2.343 -0.6686908006668091 0.3702464699745178 3.4071505069732666e-05 3.5194680094718933e-06 0.0 0.0 0.0 0.0
2.344 -0.6626155376434326 0.38398709893226624 1.7947517335414886e-05 8.970499038696289e-06 0.0 0.0 0.0 0.0
2.345 -0.6544252038002014 0.3983873128890991 1.2404285371303558e-05 9.313225746154785e-08 0.0 0.0 0.0 0.0
2.346 -0.6479096412658691 0.4111889898777008 2.3443251848220825e-05 1.3859011232852936e-05 0.0 0.0 0.0 0.0
2.347 -0.6405907869338989 0.4254005253314972 5.368143320083618e-06 1.2421049177646637e-05 0.0 0.0 0.0 0.0
2.348 -0.6323322057723999 0.4375511705875397 3.374181687831879e-05 8.522532880306244e-06 0.0 0.0 0.0 0.0
2.349 -0.6231253743171692 0.45331332087516785 5.5577605962753296e-05 -1.2011267244815826e-05 0.0 0.0 0.0 0.0
2.35 -0.6146129369735718 0.4673461616039276 2.6370398700237274e-05 -5.017966032028198e-06 0.0 0.0 0.0 0.0
2.351 -0.6055253744125366 0.4799765348434448 2.4343840777873993e-05 8.925795555114746e-06 0.0 0.0 0.0 0.0
2.352 -0.5957894325256348 0.4913506507873535 3.102235496044159e-05 -1.8535181879997253e-05 0.0 0.0 0.0 0.0
2.353 -0.5900084376335144 0.5032247304916382 3.703683614730835e-05 -1.9429251551628113e-05 0.0 0.0 0.0 0.0
2.354 -0.5785192847251892 0.516568660736084 2.837739884853363e-05 1.1409632861614227e-05 0.0 0.0 0.0 0.0
2.355 -0.5698738098144531 0.5286551117897034 3.60710546374321e-05 6.778165698051453e-06 0.0 0.0 0.0 0.0
2.356 -0.562214195728302 0.5378524661064148 2.195127308368683e-06 7.57165253162384e-06 0.0 0.0 0.0 0.0
2.357 -0.5483628511428833 0.5523043870925903 4.608556628227234e-05 -1.8011778593063354e-06 0.0 0.0 0.0 0.0
2.358 -0.5392389297485352 0.5649018287658691 1.4324672520160675e-05 1.9865110516548157e-06 0.0 0.0 0.0 0.0
2.359 -0.531261146068573 0.574113130569458 1.9731931388378143e-05 -1.0067597031593323e-06 0.0 0.0 0.0 0.0
2.36 -0.5171379446983337 0.587400496006012 3.8030557334423065e-05 6.632879376411438e-06 0.0 0.0 0.0 0.0
2.361 -0.5103698372840881 0.5959181189537048 4.32012602686882e-05 -3.906898200511932e-06 0.0 0.0 0.0 0.0
2.362 -0.4991427958011627 0.6071732640266418 2.1141022443771362e-05 -2.6030465960502625e-05 0.0 0.0 0.0 0.0
2.363 -0.4874022603034973 0.6178501844406128 1.907162368297577e-05 -2.027861773967743e-05 0.0 0.0 0.0 0.0
2.364 -0.47510239481925964 0.6240530610084534 1.3216398656368256e-05 1.7415732145309448e-06 0.0 0.0 0.0 0.0
2.365 -0.46350234746932983 0.6375953555107117 2.7962028980255127e-05 -2.509821206331253e-05 0.0 0.0 0.0 0.0
2.366 -0.45287656784057617 0.6473110914230347 5.3155235946178436e-05 7.702037692070007e-06 0.0 0.0 0.0 0.0
2.367 -0.44040265679359436 0.6576835513114929 4.251021891832352e-05 4.4014304876327515e-06 0.0 0.0 0.0 0.0
2.368 -0.4289593994617462 0.6657173037528992 2.2318214178085327e-05 -7.246620953083038e-06 0.0 0.0 0.0 0.0
2.369 -0.4155678451061249 0.6761659979820251 1.9550323486328125e-05 1.584179699420929e-06 0.0 0.0 0.0 0.0
2.37 -0.4050048291683197 0.6841757297515869 5.150400102138519e-05 3.214087337255478e-05 0.0 0.0 0.0 0.0
2.371 -0.3932526111602783 0.6923251152038574 2.8138980269432068e-05 6.167218089103699e-06 0.0 0.0 0.0 0.0
2.372 -0.38177406787872314 0.6999872326850891 2.5741755962371826e-06 2.3137778043746948e-05 0.0 0.0 0.0 0.0
2.373 -0.3683273494243622 0.7080641388893127 2.4600885808467865e-05 4.664063453674316e-06 0.0 0.0 0.0 0.0
2.374 -0.35606303811073303 0.7156698703765869 4.266202449798584e-05 -5.77978789806366e-06 0.0 0.0 0.0 0.0
2.375 -0.3412521183490753 0.7239043116569519 3.599189221858978e-05 1.546461135149002e-05 0.0 0.0 0.0 0.0
2.376 -0.32958120107650757 0.7308297753334045 4.339590668678284e-05 -1.0102055966854095e-05 0.0 0.0 0.0 0.0
2.377 -0.3162071108818054 0.7377121448516846 3.552529960870743e-05 1.3582408428192139e-05 0.0 0.0 0.0 0.0
2.378 -0.30551010370254517 0.7426958084106445 3.825873136520386e-06 2.434477210044861e-06 0.0 0.0 0.0 0.0
2.379 -0.29295068979263306 0.7497746348381042 2.3526139557361603e-05 7.145106792449951e-06 0.0 0.0 0.0 0.0
2.38 -0.28161561489105225 0.7552897334098816 2.952665090560913e-05 9.953044354915619e-06 0.0 0.0 0.0 0.0
2.381 -0.266973614692688 0.7609005570411682 2.8527341783046722e-05 1.0280869901180267e-05 0.0 0.0 0.0 0.0
2.382 -0.24806633591651917 0.7682871222496033 4.617869853973389e-05 1.0485760867595673e-05 0.0 0.0 0.0 0.0
2.383 -0.23974891006946564 0.7733774185180664 2.483464777469635e-05 2.273358404636383e-06 0.0 0.0 0.0 0.0
2.384 -0.22451040148735046 0.7790065407752991 7.173977792263031e-06 -9.521842002868652e-06 0.0 0.0 0.0 0.0
2.385 -0.20784087479114532 0.7847667932510376 2.6523135602474213e-05 2.8745271265506744e-05 0.0 0.0 0.0 0.0
2.386 -0.19676709175109863 0.7890746593475342 6.668269634246826e-06 -1.0242685675621033e-05 0.0 0.0 0.0 0.0
2.387 -0.18715333938598633 0.7927830219268799 2.3148953914642334e-05 -3.504753112792969e-05 0.0 0.0 0.0 0.0
2.388 -0.16908980906009674 0.7933483123779297 9.115785360336304e-06 2.710893750190735e-05 0.0 0.0 0.0 0.0
2.389 -0.1574443280696869 0.8008963465690613 3.694184124469757e-05 2.3869797587394714e-06 0.0 0.0 0.0 0.0
2.39 -0.14327208697795868 0.8037292957305908 5.7066790759563446e-05 1.0604970157146454e-05 0.0 0.0 0.0 0.0
2.391 -0.12748688459396362 0.8080152273178101 1.9300729036331177e-05 -5.782581865787506e-06 0.0 0.0 0.0 0.0
2.392 -0.11537066847085953 0.8106381893157959 1.6130506992340088e-05 -3.3918768167495728e-06 0.0 0.0 0.0 0.0
2.393 -0.1014581248164177 0.8137111663818359 4.412047564983368e-05 -3.2223761081695557e-07 0.0 0.0 0.0 0.0
2.394 -0.08853527158498764 0.8167639970779419 2.4563632905483246e-05 -7.171183824539185e-08 0.0 0.0 0.0 0.0
2.395 -0.07493633776903152 0.8193022012710571 5.9779733419418335e-05 1.0631978511810303e-05 0.0 0.0 0.0 0.0
2.396 -0.06094064190983772 0.8210029006004333 6.840657442808151e-05 8.44709575176239e-06 0.0 0.0 0.0 0.0
2.397 -0.045076075941324234 0.8225250244140625 5.1111914217472076e-05 1.5543773770332336e-06 0.0 0.0 0.0 0.0
2.398 -0.03148476779460907 0.8242926001548767 3.365706652402878e-05 8.841045200824738e-06 0.0 0.0 0.0 0.0
2.399 -0.015100270509719849 0.8257519602775574 5.914643406867981e-05 1.586414873600006e-05 0.0 0.0 0.0 0.0
2.4 0.0009123384952545166 0.8278294205665588 3.092177212238312e-05 1.5239231288433075e-05 0.0 0.0 0.0 0.0
2.401 0.012130001559853554 0.8288077116012573 1.3396143913269043e-05 2.636108547449112e-05 0.0 0.0 0.0 0.0
2.402 0.026304764673113823 0.8290799856185913 5.346909165382385e-05 -3.1813979148864746e-06 0.0 0.0 0.0 0.0
2.403 0.038586899638175964 0.8293590545654297 1.7018988728523254e-05 2.2836029529571533e-05 0.0 0.0 0.0 0.0
2.404 0.051910482347011566 0.8296997547149658 1.186225563287735e-05 1.7898157238960266e-05 0.0 0.0 0.0 0.0
2.405 0.06799066066741943 0.8296855092048645 2.6775524020195007e-05 -2.7008354663848877e-06 0.0 0.0 0.0 0.0
2.406 0.07918605953454971 0.829258382320404 3.914628177881241e-05 1.341104507446289e-05 0.0 0.0 0.0 0.0
2.407 0.09908664226531982 0.8277748823165894 4.272721707820892e-05 1.492723822593689e-05 0.0 0.0 0.0 0.0
2.408 0.11056402325630188 0.8282876014709473 2.960488200187683e-05 1.2954697012901306e-06 0.0 0.0 0.0 0.0
2.409 0.12554341554641724 0.8259823322296143 1.6343779861927032e-05 7.919035851955414e-06 0.0 0.0 0.0 0.0
2.41 0.14000451564788818 0.8252317905426025 2.073962241411209e-05 -1.7321668565273285e-05 0.0 0.0 0.0 0.0
2.411 0.1526733934879303 0.8236919045448303 3.591831773519516e-05 -2.720579504966736e-05 0.0 0.0 0.0 0.0
2.412 0.15973380208015442 0.8260282874107361 4.037749022245407e-05 -1.979060471057892e-06 0.0 0.0 0.0 0.0
2.413 0.18126940727233887 0.8185507655143738 4.4102780520915985e-05 4.211440682411194e-06 0.0 0.0 0.0 0.0
2.414 0.19494925439357758 0.8162071108818054 2.1588057279586792e-05 1.4426186680793762e-06 0.0 0.0 0.0 0.0
2.415 0.209175243973732 0.8140398859977722 4.733353853225708e-05 -3.159046173095703e-06 0.0 0.0 0.0 0.0
2.416 0.2240777611732483 0.8107729554176331 4.091393202543259e-05 1.0727904736995697e-05 0.0 0.0 0.0 0.0
2.417 0.23765403032302856 0.8087685704231262 3.90196219086647e-05 1.1115334928035736e-05 0.0 0.0 0.0 0.0
2.418 0.2520067095756531 0.8048954606056213 5.165021866559982e-05 -2.3594126105308533e-05 0.0 0.0 0.0 0.0
2.419 0.26334768533706665 0.8016485571861267 3.4320168197155e-05 1.5924684703350067e-05 0.0 0.0 0.0 0.0
2.42 0.2761914134025574 0.7971574068069458 2.7179718017578125e-05 1.5904195606708527e-05 0.0 0.0 0.0 0.0
2.421 0.2902098298072815 0.7939085960388184 1.5680678188800812e-05 9.068287909030914e-06 0.0 0.0 0.0 0.0
2.422 0.30487483739852905 0.7892404198646545 2.5624409317970276e-05 2.072937786579132e-05 0.0 0.0 0.0 0.0
2.423 0.3184090852737427 0.7846297025680542 4.608370363712311e-05 5.943700671195984e-06 0.0 0.0 0.0 0.0
2.424 0.33396488428115845 0.7815572023391724 4.1715800762176514e-05 -1.1458061635494232e-05 0.0 0.0 0.0 0.0
2.425 0.34720250964164734 0.7742374539375305 3.1346455216407776e-05 1.7258338630199432e-05 0.0 0.0 0.0 0.0
2.426 0.35900506377220154 0.7693102359771729 2.185441553592682e-05 2.4084001779556274e-06 0.0 0.0 0.0 0.0
2.427 0.3724250793457031 0.763918399810791 4.482269287109375e-05 -3.4943222999572754e-06 0.0 0.0 0.0 0.0
2.428 0.38555818796157837 0.7567580938339233 3.4051015973091125e-05 3.999471664428711e-05 0.0 0.0 0.0 0.0
2.429 0.39823171496391296 0.7520569562911987 4.9243681132793427e-05 -7.139518857002258e-06 0.0 0.0 0.0 0.0
2.43 0.4144403040409088 0.7437024712562561 2.590194344520569e-05 -6.581656634807587e-06 0.0 0.0 0.0 0.0
2.431 0.42684662342071533 0.7370030283927917 2.7645379304885864e-05 7.651746273040771e-06 0.0 0.0 0.0 0.0
2.432 0.43774890899658203 0.7322005033493042 3.484450280666351e-05 -2.8368085622787476e-06 0.0 0.0 0.0 0.0
2.433 0.4531092047691345 0.7238665223121643 3.548711538314819e-05 -3.891065716743469e-06 0.0 0.0 0.0 0.0
2.434 0.464131623506546 0.7165228724479675 2.94586643576622e-05 5.662441253662109e-06 0.0 0.0 0.0 0.0
2.435 0.4752081632614136 0.7102916836738586 3.5881996154785156e-05 -3.333296626806259e-05 0.0 0.0 0.0 0.0
2.436 0.4839856028556824 0.7019088268280029 3.479141741991043e-05 -1.2405216693878174e-06 0.0 0.0 0.0 0.0
2.437 0.5006101131439209 0.6930386424064636 6.431993097066879e-05 -3.10409814119339e-06 0.0 0.0 0.0 0.0
2.438 0.5119072794914246 0.685424268245697 4.272162914276123e-05 -1.7163343727588654e-05 0.0 0.0 0.0 0.0
2.439 0.5244336724281311 0.6767436861991882 4.1828490793704987e-05 -3.1283125281333923e-06 0.0 0.0 0.0 0.0
2.44 0.538611650466919 0.6662145256996155 4.735775291919708e-05 1.389533281326294e-06 0.0 0.0 0.0 0.0
2.441 0.5515443682670593 0.6561678051948547 3.858190029859543e-05 1.0797753930091858e-05 0.0 0.0 0.0 0.0
2.442 0.5605524778366089 0.6487590670585632 3.3874064683914185e-05 2.185814082622528e-06 0.0 0.0 0.0 0.0
2.443 0.5706264972686768 0.6412315368652344 1.9803643226623535e-05 -4.9229711294174194e-06 0.0 0.0 0.0 0.0
2.444 0.5841320157051086 0.6284135580062866 6.117764860391617e-05 1.0520219802856445e-05 0.0 0.0 0.0 0.0
2.445 0.595253050327301 0.6190317273139954 4.502013325691223e-05 2.0194798707962036e-05 0.0 0.0 0.0 0.0
2.446 0.6058630347251892 0.6076884865760803 3.5322271287441254e-05 2.671964466571808e-05 0.0 0.0 0.0 0.0
2.447 0.6148891448974609 0.5990133285522461 5.08846715092659e-05 8.909963071346283e-06 0.0 0.0 0.0 0.0
2.448 0.6289553642272949 0.5886594653129578 3.41515988111496e-05 6.560236215591431e-06 0.0 0.0 0.0 0.0
2.449 0.6391517519950867 0.5749269127845764 4.187505692243576e-05 6.961636245250702e-06 0.0 0.0 0.0 0.0
2.45 0.6499345302581787 0.5626142024993896 1.9026920199394226e-05 -6.03310763835907e-06 0.0 0.0 0.0 0.0
2.451 0.6602006554603577 0.5516473650932312 2.1959654986858368e-05 5.5655837059021e-06 0.0 0.0 0.0 0.0
2.452 0.6674268841743469 0.5433316826820374 4.1264109313488007e-05 -6.385147571563721e-06 0.0 0.0 0.0 0.0
2.453 0.6778367161750793 0.529095470905304 3.585591912269592e-05 1.3353303074836731e-05 0.0 0.0 0.0 0.0
2.454 0.6866843104362488 0.5170323252677917 4.4391490519046783e-05 -4.468485713005066e-06 0.0 0.0 0.0 0.0
2.455 0.6956109404563904 0.5070637464523315 4.418473690748215e-05 -1.1732801795005798e-05 0.0 0.0 0.0 0.0
2.456 0.7064734101295471 0.49107784032821655 2.474989742040634e-05 2.4961307644844055e-05 0.0 0.0 0.0 0.0
2.457 0.7154666781425476 0.477630078792572 4.861690104007721e-05 6.470829248428345e-06 0.0 0.0 0.0 0.0
2.458 0.7243717908859253 0.46371322870254517 4.568230360746384e-05 -7.050111889839172e-06 0.0 0.0 0.0 0.0
2.459 0.7332190871238708 0.4511522352695465 5.2726827561855316e-05 -2.1005980670452118e-05 0.0 0.0 0.0 0.0
2.46 0.7437636256217957 0.4379156231880188 3.4146010875701904e-05 -3.686174750328064e-06 0.0 0.0 0.0 0.0
2.461 0.7476767301559448 0.425776869058609 5.3938478231430054e-05 1.11311674118042e-05 0.0 0.0 0.0 0.0
2.462 0.7561832666397095 0.4102444648742676 3.565475344657898e-05 -7.984228432178497e-06 0.0 0.0 0.0 0.0
2.463 0.7634570598602295 0.3956584930419922 2.5938265025615692e-05 4.688277840614319e-06 0.0 0.0 0.0 0.0
2.464 0.770708441734314 0.38162630796432495 4.3194741010665894e-05 -1.3336539268493652e-06 0.0 0.0 0.0 0.0
2.465 0.7781137824058533 0.36590614914894104 2.7395784854888916e-05 1.686345785856247e-05 0.0 0.0 0.0 0.0
2.466 0.78437739610672 0.3529803156852722 5.7244673371315e-05 -1.93621963262558e-06 0.0 0.0 0.0 0.0
2.467 0.7909547686576843 0.3357381224632263 3.007706254720688e-05 5.5031850934028625e-06 0.0 0.0 0.0 0.0
2.468 0.7964715957641602 0.32125380635261536 4.0140002965927124e-05 -2.487562596797943e-06 0.0 0.0 0.0 0.0
2.469 0.8017969131469727 0.3070557415485382 5.0972215831279755e-05 1.5193596482276917e-05 0.0 0.0 0.0 0.0
2.47 0.8079346418380737 0.28992360830307007 4.173535853624344e-05 1.5961937606334686e-05 0.0 0.0 0.0 0.0
2.471 0.8137861490249634 0.2705031633377075 2.9571354389190674e-05 -1.2190081179141998e-05 0.0 0.0 0.0 0.0
2.472 0.817940354347229 0.2561928629875183 3.3911317586898804e-05 -2.421438694000244e-07 0.0 0.0 0.0 0.0
2.473 0.8227221965789795 0.2412923276424408 5.271192640066147e-05 -1.3515353202819824e-05 0.0 0.0 0.0 0.0
2.474 0.8266257047653198 0.22535455226898193 4.17269766330719e-05 -1.8415041267871857e-05 0.0 0.0 0.0 0.0
2.475 0.8301326036453247 0.2086227983236313 5.687680095434189e-05 8.176080882549286e-06 0.0 0.0 0.0 0.0
2.476 0.8330323696136475 0.19341935217380524 6.545893847942352e-05 3.7326477468013763e-05 0.0 0.0 0.0 0.0
2.477 0.8363150358200073 0.1740298867225647 5.147140473127365e-05 -9.416602551937103e-06 0.0 0.0 0.0 0.0
2.478 0.8391278386116028 0.15773102641105652 3.1970441341400146e-05 3.375113010406494e-06 0.0 0.0 0.0 0.0
2.479 0.8413280248641968 0.14094530045986176 4.724971950054169e-05 1.0384246706962585e-06 0.0 0.0 0.0 0.0
2.48 0.8435695171356201 0.12199407070875168 5.329307168722153e-05 -3.9699487388134e-05 0.0 0.0 0.0 0.0
2.481 0.845192015171051 0.1051642969250679 6.0080550611019135e-05 5.302950739860535e-06 0.0 0.0 0.0 0.0
2.482 0.846872866153717 0.0891694575548172 2.8561800718307495e-05 -9.411945939064026e-06 0.0 0.0 0.0 0.0
2.483 0.8477632403373718 0.07149291783571243 5.044136196374893e-05 1.1324882507324219e-05 0.0 0.0 0.0 0.0
2.484 0.8480544686317444 0.05475093051791191 2.3917295038700104e-05 2.4073757231235504e-05 0.0 0.0 0.0 0.0
2.485 0.8471666574478149 0.03595384210348129 5.091354250907898e-05 2.321973443031311e-05 0.0 0.0 0.0 0.0
2.486 0.8474034070968628 0.018177296966314316 5.450937896966934e-05 -1.3998709619045258e-05 0.0 0.0 0.0 0.0
2.487 0.8461499810218811 -0.002536953426897526 4.6343542635440826e-05 1.1012889444828033e-05 0.0 0.0 0.0 0.0
2.488 0.8451101779937744 -0.018221355974674225 2.7925707399845123e-05 8.888542652130127e-06 0.0 0.0 0.0 0.0
2.489 0.8435259461402893 -0.038945235311985016 2.1346844732761383e-05 -1.2002885341644287e-05 0.0 0.0 0.0 0.0
2.49 0.8416711688041687 -0.056538499891757965 3.434531390666962e-05 -4.780478775501251e-06 0.0 0.0 0.0 0.0
2.491 0.8392051458358765 -0.07309052348136902 1.955311745405197e-05 1.4901161193847656e-05 0.0 0.0 0.0 0.0
2.492 0.8359875082969666 -0.09209363162517548 3.8489699363708496e-05 2.873968333005905e-05 0.0 0.0 0.0 0.0
2.493 0.832919716835022 -0.10760778188705444 4.7723762691020966e-05 2.179853618144989e-05 0.0 0.0 0.0 0.0
2.494 0.8287814259529114 -0.1271658092737198 3.195740282535553e-05 2.50842422246933e-05 0.0 0.0 0.0 0.0
2.495 0.8247153759002686 -0.1428205668926239 4.910677671432495e-05 1.5164725482463837e-05 0.0 0.0 0.0 0.0
2.496 0.8201062083244324 -0.16224926710128784 4.825182259082794e-05 -1.7527490854263306e-06 0.0 0.0 0.0 0.0
2.497 0.8146880865097046 -0.1802893877029419 4.2963773012161255e-05 2.00001522898674e-05 0.0 0.0 0.0 0.0
2.498 0.8086515665054321 -0.2013939917087555 6.587617099285126e-05 1.6324222087860107e-05 0.0 0.0 0.0 0.0
2.499 0.8038503527641296 -0.21403227746486664 2.7429312467575073e-05 3.888271749019623e-06 0.0 0.0 0.0 0.0
2.5 0.7962069511413574 -0.2337266355752945 4.3789856135845184e-05 9.00961458683014e-06 0.0 0.0 0.0 0.0
2.501 0.7901982069015503 -0.25001582503318787 4.1620805859565735e-05 -1.3745389878749847e-05 0.0 0.0 0.0 0.0
2.502 0.7821244597434998 -0.2694582939147949 4.616193473339081e-05 -1.3776123523712158e-05 0.0 0.0 0.0 0.0
2.503 0.7729016542434692 -0.28822389245033264 5.11975958943367e-05 2.2932887077331543e-05 0.0 0.0 0.0 0.0
2.504 0.7663573622703552 -0.30372869968414307 3.5536475479602814e-05 -8.556060492992401e-06 0.0 0.0 0.0 0.0
2.505 0.7579822540283203 -0.31980541348457336 5.7561323046684265e-05 1.2302771210670471e-06 0.0 0.0 0.0 0.0
2.506 0.7483167052268982 -0.33613961935043335 6.527453660964966e-05 1.097843050956726e-05 0.0 0.0 0.0 0.0
2.507 0.7388938665390015 -0.3535555899143219 5.888938903808594e-05 -2.161134034395218e-05 0.0 0.0 0.0 0.0
2.508 0.7311012744903564 -0.36749228835105896 3.72566282749176e-05 -3.213062882423401e-07 0.0 0.0 0.0 0.0
2.509 0.7182942032814026 -0.3848355710506439 3.758259117603302e-05 1.3775192201137543e-05 0.0 0.0 0.0 0.0
2.51 0.7064499855041504 -0.4033812880516052 4.21842560172081e-05 -7.241964340209961e-06 0.0 0.0 0.0 0.0
2.511 0.6956565976142883 -0.41867849230766296 3.506522625684738e-05 7.096678018569946e-06 0.0 0.0 0.0 0.0
2.512 0.6840221881866455 -0.4352140724658966 4.8990361392498016e-05 -1.8067657947540283e-06 0.0 0.0 0.0 0.0
2.513 0.6711204051971436 -0.45078086853027344 2.8965063393115997e-05 7.81286507844925e-06 0.0 0.0 0.0 0.0
2.514 0.6584351658821106 -0.46500104665756226 2.5739893317222595e-05 -1.909025013446808e-05 0.0 0.0 0.0 0.0
2.515 0.6470231413841248 -0.47951236367225647 6.070733070373535e-05 -4.036352038383484e-06 0.0 0.0 0.0 0.0
2.516 0.6335230469703674 -0.49244385957717896 5.6873075664043427e-05 -1.7801299691200256e-05 0.0 0.0 0.0 0.0
2.517 0.6193251609802246 -0.5061541199684143 4.531070590019226e-05 -2.0371749997138977e-05 0.0 0.0 0.0 0.0
2.518 0.6060990691184998 -0.5197446942329407 4.130043089389801e-05 -2.7101486921310425e-07 0.0 0.0 0.0 0.0
2.519 0.590201199054718 -0.5343040823936462 2.2523105144500732e-05 2.5080516934394836e-06 0.0 0.0 0.0 0.0
2.52 0.5744055509567261 -0.5494197010993958 2.0371749997138977e-05 -1.6947276890277863e-05 0.0 0.0 0.0 0.0
2.521 0.5587933659553528 -0.5594149231910706 4.4230371713638306e-05 1.730024814605713e-05 0.0 0.0 0.0 0.0
2.522 0.5442429184913635 -0.5724904537200928 3.625825047492981e-05 4.155561327934265e-06 0.0 0.0 0.0 0.0
2.523 0.5286939144134521 -0.5839405059814453 2.63899564743042e-05 1.121126115322113e-05 0.0 0.0 0.0 0.0
2.524 0.5129014849662781 -0.5954587459564209 3.459025174379349e-05 -1.317821443080902e-06 0.0 0.0 0.0 0.0
2.525 0.4984535276889801 -0.6043589115142822 3.26475128531456e-05 -8.73766839504242e-06 0.0 0.0 0.0 0.0
2.526 0.4795530438423157 -0.6155324578285217 5.053635686635971e-05 -1.0332092642784119e-05 0.0 0.0 0.0 0.0
2.527 0.46179330348968506 -0.626081109046936 4.78522852063179e-05 2.137385308742523e-06 0.0 0.0 0.0 0.0
2.528 0.444832444190979 -0.6368385553359985 5.1437877118587494e-05 -3.27499583363533e-05 0.0 0.0 0.0 0.0
2.529 0.4259885847568512 -0.6478676795959473 5.065836012363434e-05 -1.590792089700699e-05 0.0 0.0 0.0 0.0
2.53 0.40860316157341003 -0.6579778790473938 5.8724544942379e-05 -2.8490088880062103e-05 0.0 0.0 0.0 0.0
2.531 0.39484739303588867 -0.6625053882598877 5.090981721878052e-05 1.2647360563278198e-06 0.0 0.0 0.0 0.0
2.532 0.3703243136405945 -0.6762703061103821 5.7606957852840424e-05 -2.5723129510879517e-06 0.0 0.0 0.0 0.0
2.533 0.3538816273212433 -0.6787445545196533 5.509890615940094e-05 -1.4994293451309204e-06 0.0 0.0 0.0 0.0
2.534 0.33864569664001465 -0.6853326559066772 4.5571476221084595e-05 -1.3616867363452911e-05 0.0 0.0 0.0 0.0
2.535 0.318530410528183 -0.6929262280464172 6.139371544122696e-05 1.9011087715625763e-05 0.0 0.0 0.0 0.0
2.536 0.29889461398124695 -0.697407066822052 4.163850098848343e-05 1.8359161913394928e-05 0.0 0.0 0.0 0.0
2.537 0.2786445915699005 -0.7045642137527466 3.9692968130111694e-05 6.467103958129883e-06 0.0 0.0 0.0 0.0
2.538 0.26073697209358215 -0.7095633149147034 3.904290497303009e-05 -3.416091203689575e-06 0.0 0.0 0.0 0.0
2.539 0.24019360542297363 -0.7160736322402954 2.3715198040008545e-05 1.264922320842743e-05 0.0 0.0 0.0 0.0
2.54 0.22197838127613068 -0.7200426459312439 2.6404857635498047e-05 -7.4375420808792114e-06 0.0 0.0 0.0 0.0
2.541 0.205349400639534 -0.7215999364852905 5.636550486087799e-05 1.687556505203247e-05 0.0 0.0 0.0 0.0
2.542 0.18506093323230743 -0.7225843667984009 7.004663348197937e-05 -1.7406418919563293e-05 0.0 0.0 0.0 0.0
2.543 0.1655842363834381 -0.7283748388290405 6.460398435592651e-05 5.430541932582855e-06 0.0 0.0 0.0 0.0
2.544 0.14896544814109802 -0.7316955327987671 6.82193785905838e-05 1.3013370335102081e-05 0.0 0.0 0.0 0.0
2.545 0.12697969377040863 -0.7311158776283264 4.516728222370148e-05 -1.9463710486888885e-05 0.0 0.0 0.0 0.0
2.546 0.10540544986724854 -0.7333692908287048 4.5618973672389984e-05 -4.312954843044281e-06 0.0 0.0 0.0 0.0
2.547 0.08742988854646683 -0.7333247065544128 4.274025559425354e-05 -1.5208497643470764e-06 0.0 0.0 0.0 0.0
2.548 0.06518436968326569 -0.7356046438217163 4.604645073413849e-05 -2.005603164434433e-05 0.0 0.0 0.0 0.0
2.549 0.046673066914081573 -0.7330741286277771 3.595277667045593e-05 -1.4537014067173004e-05 0.0 0.0 0.0 0.0
2.55 0.026665756478905678 -0.7320773601531982 4.111882299184799e-05 -1.831352710723877e-05 0.0 0.0 0.0 0.0
2.551 0.007451205514371395 -0.7293460369110107 6.032828241586685e-05 -7.716938853263855e-06 0.0 0.0 0.0 0.0
2.552 -0.00973628181964159 -0.7304548621177673 5.6941062211990356e-05 7.543712854385376e-06 0.0 0.0 0.0 0.0
2.553 -0.02721111662685871 -0.7282125353813171 3.888830542564392e-05 -7.213093340396881e-06 0.0 0.0 0.0 0.0
2.554 -0.047043949365615845 -0.7263017892837524 7.033068686723709e-05 -7.845461368560791e-06 0.0 0.0 0.0 0.0
2.555 -0.06594212353229523 -0.7218669056892395 3.8866885006427765e-05 9.56747680902481e-06 0.0 0.0 0.0 0.0
2.556 -0.08542042970657349 -0.7146315574645996 5.450006574392319e-05 -2.360064536333084e-05 0.0 0.0 0.0 0.0
2.557 -0.09957113862037659 -0.7146823406219482 5.440507084131241e-05 4.046596586704254e-06 0.0 0.0 0.0 0.0
2.558 -0.12058182060718536 -0.7100661993026733 6.493460386991501e-05 -3.891997039318085e-06 0.0 0.0 0.0 0.0
2.559 -0.14188919961452484 -0.7055914402008057 1.80928036570549e-05 -1.3316050171852112e-05 0.0 0.0 0.0 0.0
2.56 -0.15912479162216187 -0.7027453780174255 3.0240975320339203e-05 1.6798265278339386e-05 0.0 0.0 0.0 0.0
2.561 -0.1751966029405594 -0.6940805912017822 3.814883530139923e-05 3.822147846221924e-06 0.0 0.0 0.0 0.0
2.562 -0.19249019026756287 -0.6884482502937317 3.0574388802051544e-05 4.8335641622543335e-06 0.0 0.0 0.0 0.0
2.563 -0.2110387235879898 -0.680721640586853 4.167389124631882e-05 4.369765520095825e-06 0.0 0.0 0.0 0.0
2.564 -0.23004847764968872 -0.6759132742881775 5.467236042022705e-05 -4.0745362639427185e-06 0.0 0.0 0.0 0.0
2.565 -0.24449853599071503 -0.6679860353469849 2.526957541704178e-05 -8.021481335163116e-06 0.0 0.0 0.0 0.0
2.566 -0.2583673596382141 -0.6631315350532532 4.215538501739502e-05 4.704110324382782e-06 0.0 0.0 0.0 0.0
2.567 -0.2767035663127899 -0.6543300151824951 3.0722469091415405e-05 -2.3387372493743896e-05 0.0 0.0 0.0 0.0
2.568 -0.2882085144519806 -0.6464597582817078 6.643403321504593e-05 2.444721758365631e-06 0.0 0.0 0.0 0.0
2.569 -0.3104345500469208 -0.6386058330535889 4.819035530090332e-05 -3.2009556889533997e-06 0.0 0.0 0.0 0.0
2.57 -0.3251289129257202 -0.6272746920585632 4.825647920370102e-05 -7.230788469314575e-06 0.0 0.0 0.0 0.0
2.571 -0.3391663134098053 -0.6196732521057129 4.769396036863327e-05 2.2532418370246887e-05 0.0 0.0 0.0 0.0
2.572 -0.35522744059562683 -0.6113694906234741 7.138773798942566e-05 -1.3609416782855988e-05 0.0 0.0 0.0 0.0
2.573 -0.3739100396633148 -0.5978578329086304 5.3668394684791565e-05 7.49342143535614e-06 0.0 0.0 0.0 0.0
2.574 -0.3852942883968353 -0.5892103314399719 2.1179206669330597e-05 2.2944994270801544e-05 0.0 0.0 0.0 0.0
2.575 -0.39606359601020813 -0.581224262714386 4.458427429199219e-05 -1.5748664736747742e-05 0.0 0.0 0.0 0.0
2.576 -0.410828560590744 -0.5704085826873779 4.3832696974277496e-05 1.379847526550293e-05 0.0 0.0 0.0 0.0
2.577 -0.4237094819545746 -0.5593681335449219 4.4119544327259064e-05 1.9584782421588898e-05 0.0 0.0 0.0 0.0
2.578 -0.4364321827888489 -0.5524981617927551 5.417875945568085e-05 -7.64802098274231e-06 0.0 0.0 0.0 0.0
2.579 -0.4501177966594696 -0.5386492609977722 3.995560109615326e-05 8.949078619480133e-06 0.0 0.0 0.0 0.0
2.58 -0.46284905076026917 -0.5232851505279541 4.895869642496109e-05 3.6504119634628296e-05 0.0 0.0 0.0 0.0
2.581 -0.4780248999595642 -0.5164803862571716 5.357619374990463e-05 -5.691312253475189e-06 0.0 0.0 0.0 0.0
2.582 -0.4877198338508606 -0.5036377906799316 4.864390939474106e-05 -2.5877729058265686e-05 0.0 0.0 0.0 0.0
2.583 -0.4986484944820404 -0.4927167594432831 3.7455931305885315e-05 1.5087425708770752e-07 0.0 0.0 0.0 0.0
2.584 -0.5117800235748291 -0.4808656573295593 5.0446949899196625e-05 4.5634806156158447e-07 0.0 0.0 0.0 0.0
2.585 -0.521693229675293 -0.4675624966621399 3.577396273612976e-05 6.156042218208313e-07 0.0 0.0 0.0 0.0
2.586 -0.5319847464561462 -0.45497968792915344 3.6372803151607513e-05 2.856925129890442e-05 0.0 0.0 0.0 0.0
2.587 -0.5418158769607544 -0.4442461431026459 2.7235597372055054e-05 -3.2028183341026306e-06 0.0 0.0 0.0 0.0
2.588 -0.5520658493041992 -0.4295908510684967 2.426840364933014e-05 1.1622905731201172e-06 0.0 0.0 0.0 0.0
2.589 -0.5626456141471863 -0.41703757643699646 1.6490928828716278e-05 1.3580545783042908e-05 0.0 0.0 0.0 0.0
2.59 -0.5702792406082153 -0.4006710648536682 3.5033561289310455e-05 9.697861969470978e-06 0.0 0.0 0.0 0.0
2.591 -0.5802268981933594 -0.39165303111076355 3.279000520706177e-05 -1.7201527953147888e-05 0.0 0.0 0.0 0.0
2.592 -0.5865176916122437 -0.37945276498794556 3.1596049666404724e-05 -1.5945173799991608e-05 0.0 0.0 0.0 0.0
2.593 -0.5978544354438782 -0.3625967800617218 4.148948937654495e-05 -8.505769073963165e-06 0.0 0.0 0.0 0.0
2.594 -0.6058089733123779 -0.35183289647102356 3.806594759225845e-05 1.5257857739925385e-05 0.0 0.0 0.0 0.0
2.595 -0.6157490611076355 -0.3362279534339905 5.354639142751694e-05 -9.276904165744781e-06 0.0 0.0 0.0 0.0
2.596 -0.6224403977394104 -0.3218362629413605 4.777591675519943e-05 -1.3908371329307556e-05 0.0 0.0 0.0 0.0
2.597 -0.6289207935333252 -0.31168657541275024 4.304107278585434e-05 -1.0170042514801025e-06 0.0 0.0 0.0 0.0
2.598 -0.634964644908905 -0.29812562465667725 5.7688914239406586e-05 1.1516734957695007e-05 0.0 0.0 0.0 0.0
2.599 -0.6402539014816284 -0.28460437059402466 5.8477744460105896e-05 -8.757226169109344e-06 0.0 0.0 0.0 0.0
2.6 -0.6479376554489136 -0.2707572877407074 3.490038216114044e-05 2.423953264951706e-05 0.0 0.0 0.0 0.0
2.601 -0.6551212668418884 -0.2545623481273651 5.0688162446022034e-05 5.392357707023621e-06 0.0 0.0 0.0 0.0
2.602 -0.6601079106330872 -0.2421792596578598 4.7458335757255554e-05 1.0668300092220306e-05 0.0 0.0 0.0 0.0
2.603 -0.6664257049560547 -0.2272910475730896 1.4930032193660736e-05 2.4327076971530914e-05 0.0 0.0 0.0 0.0
2.604 -0.67051762342453 -0.2147412747144699 3.706943243741989e-05 1.1442229151725769e-05 0.0 0.0 0.0 0.0
2.605 -0.6763504147529602 -0.20038679242134094 3.7369318306446075e-05 3.3173710107803345e-06 0.0 0.0 0.0 0.0
2.606 -0.6810621023178101 -0.18736670911312103 3.965012729167938e-05 1.8437393009662628e-05 0.0 0.0 0.0 0.0
2.607 -0.6843932271003723 -0.17673923075199127 3.0973926186561584e-05 2.3447908461093903e-05 0.0 0.0 0.0 0.0
2.608 -0.6892564296722412 -0.1610369235277176 7.094908505678177e-05 3.816559910774231e-06 0.0 0.0 0.0 0.0
2.609 -0.6927445530891418 -0.14696329832077026 3.5431236028671265e-05 2.0672567188739777e-05 0.0 0.0 0.0 0.0
2.61 -0.6954233646392822 -0.13372783362865448 4.0728598833084106e-05 1.0785646736621857e-05 0.0 0.0 0.0 0.0
2.611 -0.6999678015708923 -0.11639752984046936 3.133062273263931e-05 4.3371692299842834e-06 0.0 0.0 0.0 0.0
2.612 -0.7024244666099548 -0.10388804972171783 3.3872202038764954e-05 2.0575709640979767e-05 0.0 0.0 0.0 0.0
2.613 -0.7057060599327087 -0.08965703099966049 4.777871072292328e-05 -1.8873251974582672e-05 0.0 0.0 0.0 0.0
2.614 -0.7079490423202515 -0.07779327034950256 2.3797154426574707e-05 -6.534159183502197e-06 0.0 0.0 0.0 0.0
2.615 -0.7100849747657776 -0.062242865562438965 3.343354910612106e-05 1.843087375164032e-05 0.0 0.0 0.0 0.0
2.616 -0.7117863893508911 -0.04857379570603371 1.4443881809711456e-05 1.326482743024826e-05 0.0 0.0 0.0 0.0
2.617 -0.7131089568138123 -0.036616574972867966 2.7662143111228943e-05 1.0652467608451843e-05 0.0 0.0 0.0 0.0
2.618 -0.7147228717803955 -0.023428544402122498 5.653034895658493e-05 8.64267349243164e-06 0.0 0.0 0.0 0.0
2.619 -0.7160319089889526 -0.008001985028386116 6.489269435405731e-05 1.1644326150417328e-05 0.0 0.0 0.0 0.0
2.62 -0.7167062163352966 0.006614433601498604 2.702232450246811e-05 6.397254765033722e-06 0.0 0.0 0.0 0.0
2.621 -0.7179116010665894 0.01918247900903225 6.455834954977036e-05 -1.5002675354480743e-05 0.0 0.0 0.0 0.0
2.622 -0.7182877063751221 0.03061850368976593 2.070702612400055e-05 7.920898497104645e-06 0.0 0.0 0.0 0.0
2.623 -0.7185304164886475 0.04238984361290932 4.761386662721634e-05 2.3894943296909332e-05 0.0 0.0 0.0 0.0
2.624 -0.7181434035301208 0.057119984179735184 1.66967511177063e-05 -1.0139308869838715e-05 0.0 0.0 0.0 0.0
2.625 -0.7179214954376221 0.07083720713853836 3.0817463994026184e-05 -2.350844442844391e-05 0.0 0.0 0.0 0.0
2.626 -0.7179549336433411 0.08375824987888336 4.2671337723731995e-05 4.1144900023937225e-05 0.0 0.0 0.0 0.0
2.627 -0.7174807190895081 0.09538592398166656 2.978648990392685e-05 2.2620894014835358e-05 0.0 0.0 0.0 0.0
2.628 -0.7172399759292603 0.11123594641685486 4.797056317329407e-05 1.0709278285503387e-05 0.0 0.0 0.0 0.0
2.629 -0.7166920304298401 0.12094429135322571 1.9162893295288086e-05 1.0523013770580292e-05 0.0 0.0 0.0 0.0
2.63 -0.7146230936050415 0.13312062621116638 1.6343779861927032e-05 -1.658499240875244e-05 0.0 0.0 0.0 0.0
2.631 -0.7130991220474243 0.14617468416690826 1.7871148884296417e-05 -1.6886740922927856e-05 0.0 0.0 0.0 0.0
2.632 -0.7106415629386902 0.16117630898952484 4.0939077734947205e-05 2.1141953766345978e-05 0.0 0.0 0.0 0.0
2.633 -0.7097615003585815 0.17197948694229126 4.3489038944244385e-05 1.5197321772575378e-05 0.0 0.0 0.0 0.0
2.634 -0.7080968618392944 0.18350699543952942 4.160776734352112e-05 2.4003908038139343e-05 0.0 0.0 0.0 0.0
2.635 -0.7053595781326294 0.19735443592071533 2.1768733859062195e-05 -3.098323941230774e-05 0.0 0.0 0.0 0.0
2.636 -0.7024387717247009 0.21052584052085876 4.699546843767166e-05 1.5136785805225372e-05 0.0 0.0 0.0 0.0
2.637 -0.7005900144577026 0.22367650270462036 4.8634596168994904e-05 -5.619600415229797e-06 0.0 0.0 0.0 0.0
2.638 -0.6970866322517395 0.23211100697517395 3.6005862057209015e-05 -6.337650120258331e-06 0.0 0.0 0.0 0.0
2.639 -0.695867121219635 0.2449483573436737 2.4973414838314056e-05 -1.5690922737121582e-05 0.0 0.0 0.0 0.0
2.64 -0.6930837631225586 0.25512465834617615 5.5344775319099426e-05 8.966773748397827e-06 0.0 0.0 0.0 0.0
2.641 -0.689098596572876 0.26735690236091614 2.5967136025428772e-05 1.8506310880184174e-05 0.0 0.0 0.0 0.0
2.642 -0.6859650015830994 0.28086841106414795 3.871787339448929e-05 -7.919035851955414e-06 0.0 0.0 0.0 0.0
2.643 -0.6830440163612366 0.29182004928588867 6.00004568696022e-05 -1.3335607945919037e-05 0.0 0.0 0.0 0.0
2.644 -0.6783136129379272 0.30511656403541565 5.298107862472534e-05 2.0460225641727448e-05 0.0 0.0 0.0 0.0
2.645 -0.6754195094108582 0.31489866971969604 2.280808985233307e-05 3.618188202381134e-06 0.0 0.0 0.0 0.0
2.646 -0.6721846461296082 0.3259396255016327 4.858151078224182e-05 7.738359272480011e-06 0.0 0.0 0.0 0.0
2.647 -0.6673333644866943 0.3350900411605835 6.191805005073547e-05 2.2691674530506134e-05 0.0 0.0 0.0 0.0
2.648 -0.6637620329856873 0.3494929075241089 4.049856215715408e-05 2.163182944059372e-05 0.0 0.0 0.0 0.0
2.649 -0.6602943539619446 0.3589437007904053 4.187226295471191e-06 1.7892569303512573e-05 0.0 0.0 0.0 0.0
2.65 -0.6557053923606873 0.36851102113723755 4.302803426980972e-05 9.902752935886383e-06 0.0 0.0 0.0 0.0
2.651 -0.6501308083534241 0.38123828172683716 5.3510069847106934e-05 3.11434268951416e-05 0.0 0.0 0.0 0.0
2.652 -0.6395169496536255 0.3950357437133789 5.9223733842372894e-05 2.7056783437728882e-05 0.0 0.0 0.0 0.0
2.653 -0.640687882900238 0.40352585911750793 4.54094260931015e-05 1.1065974831581116e-05 0.0 0.0 0.0 0.0
2.654 -0.6377942562103271 0.411898672580719 4.532374441623688e-05 4.868023097515106e-06 0.0 0.0 0.0 0.0
2.655 -0.6325952410697937 0.4214455485343933 4.5093707740306854e-05 2.7220696210861206e-05 0.0 0.0 0.0 0.0
2.656 -0.6260319948196411 0.4356518089771271 2.8133392333984375e-05 1.4681369066238403e-05 0.0 0.0 0.0 0.0
2.657 -0.6211722493171692 0.4411679208278656 5.478132516145706e-05 1.342780888080597e-05 0.0 0.0 0.0 0.0
2.658 -0.6155950427055359 0.45140811800956726 4.6768225729465485e-05 -1.5255063772201538e-06 0.0 0.0 0.0 0.0
2.659 -0.6082888245582581 0.46648693084716797 3.773532807826996e-05 5.2480027079582214e-06 0.0 0.0 0.0 0.0
2.66 -0.6053742170333862 0.47082391381263733 1.7352402210235596e-05 3.585685044527054e-05 0.0 0.0 0.0 0.0
2.661 -0.5970959067344666 0.4822576642036438 7.107015699148178e-05 1.935567706823349e-05 0.0 0.0 0.0 0.0
2.662 -0.5852832198143005 0.4985177516937256 5.24371862411499e-05 4.621688276529312e-05 0.0 0.0 0.0 0.0
2.663 -0.5871279239654541 0.4997217059135437 3.419816493988037e-05 -6.533227860927582e-06 0.0 0.0 0.0 0.0
2.664 -0.5803962349891663 0.5114821195602417 6.448104977607727e-05 1.5455298125743866e-05 0.0 0.0 0.0 0.0
2.665 -0.5697210431098938 0.5221032500267029 5.867704749107361e-05 2.3369677364826202e-05 0.0 0.0 0.0 0.0
2.666 -0.5648543238639832 0.5299699902534485 4.267599433660507e-05 7.733702659606934e-06 0.0 0.0 0.0 0.0
2.667 -0.5608823895454407 0.5391718149185181 5.6575052440166473e-05 -3.302469849586487e-06 0.0 0.0 0.0 0.0
2.668 -0.5530182123184204 0.5474209189414978 3.313552588224411e-05 2.504698932170868e-05 0.0 0.0 0.0 0.0
2.669 -0.5440977215766907 0.5574343204498291 4.739686846733093e-05 3.763008862733841e-05 0.0 0.0 0.0 0.0
2.67 -0.5376743078231812 0.5687140226364136 5.5938027799129486e-05 1.253560185432434e-05 0.0 0.0 0.0 0.0
2.671 -0.5307561755180359 0.5763164758682251 1.5960074961185455e-05 2.0109117031097412e-05 0.0 0.0 0.0 0.0
2.672 -0.5217795968055725 0.5836918354034424 4.872400313615799e-05 1.9527971744537354e-05 0.0 0.0 0.0 0.0
2.673 -0.5192434787750244 0.5879423022270203 5.236547440290451e-05 4.66788187623024e-05 0.0 0.0 0.0 0.0
2.674 -0.5108136534690857 0.5947266817092896 6.893742829561234e-05 3.0798837542533875e-06 0.0 0.0 0.0 0.0
2.675 -0.49828484654426575 0.611369252204895 4.6897679567337036e-05 -1.0705552995204926e-05 0.0 0.0 0.0 0.0
2.676 -0.4935746490955353 0.6201726198196411 6.533600389957428e-05 2.244766801595688e-05 0.0 0.0 0.0 0.0
2.677 -0.4827316999435425 0.6306416988372803 4.183780401945114e-05 2.5707297027111053e-05 0.0 0.0 0.0 0.0
2.678 -0.4771992862224579 0.6323874592781067 5.9625133872032166e-05 1.9812025129795074e-05 0.0 0.0 0.0 0.0
2.679 -0.4680783450603485 0.6416328549385071 4.976056516170502e-05 2.3915432393550873e-05 0.0 0.0 0.0 0.0
2.68 -0.4657575190067291 0.6462456583976746 5.8341771364212036e-05 7.097609341144562e-06 0.0 0.0 0.0 0.0
2.681 -0.45176124572753906 0.655787467956543 7.5475312769413e-05 2.6543624699115753e-05 0.0 0.0 0.0 0.0
2.682 -0.4424511194229126 0.6632882952690125 1.8034130334854126e-05 2.77739018201828e-05 0.0 0.0 0.0 0.0
2.683 -0.43352168798446655 0.667713463306427 5.064159631729126e-05 6.389804184436798e-06 0.0 0.0 0.0 0.0
2.684 -0.42816880345344543 0.678438127040863 6.136856973171234e-05 -2.2875145077705383e-05 0.0 0.0 0.0 0.0
2.685 -0.41637295484542847 0.683466374874115 5.1789917051792145e-05 -8.005648851394653e-06 0.0 0.0 0.0 0.0
2.686 -0.4020380675792694 0.6971514225006104 3.581680357456207e-05 6.8694353103637695e-06 0.0 0.0 0.0 0.0
2.687 -0.39827942848205566 0.6984642148017883 5.111470818519592e-05 3.350153565406799e-05 0.0 0.0 0.0 0.0
2.688 -0.38830581307411194 0.7093610763549805 3.986340016126633e-05 2.5452114641666412e-05 0.0 0.0 0.0 0.0
2.689 -0.3846495449542999 0.7107795476913452 7.114559412002563e-05 -1.2582167983055115e-06 0.0 0.0 0.0 0.0
2.69 -0.3695729374885559 0.7206815481185913 2.7933157980442047e-05 2.7101486921310425e-05 0.0 0.0 0.0 0.0
2.691 -0.35811400413513184 0.7289690375328064 7.546413689851761e-05 3.7634745240211487e-06 0.0 0.0 0.0 0.0
2.692 -0.34885287284851074 0.738889217376709 2.8893351554870605e-05 4.1511841118335724e-05 0.0 0.0 0.0 0.0
2.693 -0.340646892786026 0.7377058863639832 1.5272758901119232e-05 1.0774470865726471e-05 0.0 0.0 0.0 0.0
2.694 -0.33391112089157104 0.7452613115310669 2.736598253250122e-05 -1.4407560229301453e-06 0.0 0.0 0.0 0.0
2.695 -0.31888917088508606 0.7469508051872253 3.064796328544617e-05 -1.107342541217804e-06 0.0 0.0 0.0 0.0
2.696 -0.31592920422554016 0.7540518641471863 5.9293583035469055e-05 5.1274895668029785e-05 0.0 0.0 0.0 0.0
2.697 -0.3020097017288208 0.7573776245117188 2.4553388357162476e-05 -7.500872015953064e-06 0.0 0.0 0.0 0.0
2.698 -0.28972381353378296 0.7688459753990173 4.358123987913132e-05 4.0640123188495636e-05 0.0 0.0 0.0 0.0
2.699 -0.2791333794593811 0.7741342186927795 5.856994539499283e-05 1.6713514924049377e-05 0.0 0.0 0.0 0.0
2.7 -0.27166253328323364 0.7759135961532593 2.2551976144313812e-05 1.839175820350647e-05 0.0 0.0 0.0 0.0
2.701 -0.2573419213294983 0.782912015914917 7.655471563339233e-07 1.0166317224502563e-05 0.0 0.0 0.0 0.0
2.702 -0.25079262256622314 0.785875141620636 3.480631858110428e-05 3.434903919696808e-05 0.0 0.0 0.0 0.0
2.703 -0.23848670721054077 0.7919986844062805 5.2277930080890656e-05 2.1886080503463745e-05 0.0 0.0 0.0 0.0
2.704 -0.22551356256008148 0.790014386177063 5.3724274039268494e-05 2.6213936507701874e-05 0.0 0.0 0.0 0.0
2.705 -0.21409344673156738 0.8022155165672302 5.6726858019828796e-05 8.29063355922699e-06 0.0 0.0 0.0 0.0
2.706 -0.20242749154567719 0.8058235049247742 4.307646304368973e-05 2.487562596797943e-05 0.0 0.0 0.0 0.0
2.707 -0.1985430270433426 0.8064800500869751 3.0322931706905365e-05 2.6712194085121155e-05 0.0 0.0 0.0 0.0
2.708 -0.18399542570114136 0.81199711561203 6.730109453201294e-05 1.3253651559352875e-05 0.0 0.0 0.0 0.0
2.709 -0.17364181578159332 0.8168526291847229 4.232395440340042e-05 3.408081829547882e-05 0.0 0.0 0.0 0.0
2.71 -0.16650284826755524 0.8154835104942322 5.926750600337982e-05 4.9833208322525024e-05 0.0 0.0 0.0 0.0
2.711 -0.15066967904567719 0.821519672870636 1.1816620826721191e-05 1.4632940292358398e-05 0.0 0.0 0.0 0.0
2.712 -0.13995064795017242 0.8251470327377319 5.3491443395614624e-05 4.9676746129989624e-05 0.0 0.0 0.0 0.0
2.713 -0.1241244375705719 0.8225336074829102 4.3793581426143646e-05 4.845671355724335e-05 0.0 0.0 0.0 0.0
2.714 -0.11660877615213394 0.830093502998352 2.319272607564926e-05 4.180707037448883e-05 0.0 0.0 0.0 0.0
2.715 -0.10096998512744904 0.8360848426818848 4.394073039293289e-05 1.7547979950904846e-05 0.0 0.0 0.0 0.0
2.716 -0.08976864814758301 0.8380410075187683 4.603806883096695e-05 4.484504461288452e-05 0.0 0.0 0.0 0.0
2.717 -0.0810767263174057 0.8382137417793274 3.38209792971611e-05 5.451031029224396e-06 0.0 0.0 0.0 0.0
2.718 -0.06480163335800171 0.8387560248374939 1.754704862833023e-05 1.272931694984436e-05 0.0 0.0 0.0 0.0
2.719 -0.051619745790958405 0.8432939052581787 2.5354325771331787e-05 4.6312808990478516e-05 0.0 0.0 0.0 0.0
2.72 -0.040414102375507355 0.842430830001831 4.036910831928253e-05 1.9210390746593475e-05 0.0 0.0 0.0 0.0
2.721 -0.027482056990265846 0.8499099612236023 3.88389453291893e-05 4.7305598855018616e-05 0.0 0.0 0.0 0.0
2.722 -0.022758208215236664 0.8476345539093018 1.6759149730205536e-05 5.5069103837013245e-06 0.0 0.0 0.0 0.0
2.723 -0.004202384501695633 0.8502451777458191 6.0051679611206055e-05 1.4554709196090698e-05 0.0 0.0 0.0 0.0
2.724 0.007623002864420414 0.8481031060218811 5.2517279982566833e-05 -3.4868717193603516e-06 0.0 0.0 0.0 0.0
2.725 0.02555203251540661 0.8457046151161194 4.29004430770874e-05 -3.082491457462311e-05 0.0 0.0 0.0 0.0
2.726 0.03238002955913544 0.8540113568305969 7.319357246160507e-05 -8.046627044677734e-06 0.0 0.0 0.0 0.0
2.727 0.04971158131957054 0.8506090044975281 6.993860006332397e-05 5.295500159263611e-06 0.0 0.0 0.0 0.0
2.728 0.06024090200662613 0.849343478679657 3.5161152482032776e-05 -3.1562522053718567e-06 0.0 0.0 0.0 0.0
2.729 0.06919337064027786 0.8542039394378662 4.218611866235733e-05 -1.9558705389499664e-05 0.0 0.0 0.0 0.0
2.73 0.0834665298461914 0.8526951670646667 1.9748695194721222e-05 3.282725811004639e-05 0.0 0.0 0.0 0.0
2.731 0.09733443707227707 0.8479471206665039 3.035087138414383e-05 2.0005740225315094e-05 0.0 0.0 0.0 0.0
2.732 0.11479722708463669 0.8502634167671204 4.915427416563034e-05 1.3257376849651337e-05 0.0 0.0 0.0 0.0
2.733 0.12834860384464264 0.8489785194396973 3.2345764338970184e-05 1.726672053337097e-05 0.0 0.0 0.0 0.0
2.734 0.1509462296962738 0.8405260443687439 2.68593430519104e-05 2.467632293701172e-05 0.0 0.0 0.0 0.0
2.735 0.14936259388923645 0.8446233868598938 6.793811917304993e-05 1.0105781257152557e-05 0.0 0.0 0.0 0.0
2.736 0.16317449510097504 0.8436108231544495 5.666911602020264e-05 4.970189183950424e-05 0.0 0.0 0.0 0.0
2.737 0.18373434245586395 0.8394216895103455 3.767106682062149e-05 1.295190304517746e-05 0.0 0.0 0.0 0.0
2.738 0.19249765574932098 0.8398728966712952 4.4626183807849884e-05 -1.5934929251670837e-06 0.0 0.0 0.0 0.0
2.739 0.20360083878040314 0.8349834084510803 6.1025843024253845e-05 2.400483936071396e-05 0.0 0.0 0.0 0.0
2.74 0.22749939560890198 0.8368161916732788 5.336105823516846e-05 1.1667609214782715e-05 0.0 0.0 0.0 0.0
2.741 0.2340880036354065 0.8299123644828796 5.0848349928855896e-05 4.138145595788956e-05 0.0 0.0 0.0 0.0
2.742 0.24693278968334198 0.8270639777183533 4.401057958602905e-05 7.479451596736908e-06 0.0 0.0 0.0 0.0
2.743 0.26430490612983704 0.8189966678619385 3.4390948712825775e-05 6.965361535549164e-06 0.0 0.0 0.0 0.0
2.744 0.2741812467575073 0.8207032084465027 6.440002471208572e-05 3.775767982006073e-05 0.0 0.0 0.0 0.0
2.745 0.2839384973049164 0.8141401410102844 5.377084016799927e-05 5.383044481277466e-05 0.0 0.0 0.0 0.0
2.746 0.3013995289802551 0.8155572414398193 3.935210406780243e-05 6.867293268442154e-05 0.0 0.0 0.0 0.0
2.747 0.3182385265827179 0.8051879405975342 5.2980147302150726e-05 1.7192214727401733e-05 0.0 0.0 0.0 0.0
2.748 0.3264409303665161 0.7955712676048279 2.020224928855896e-05 2.0393170416355133e-05 0.0 0.0 0.0 0.0
2.749 0.3398435115814209 0.7919546961784363 7.004477083683014e-05 5.6010670959949493e-05 0.0 0.0 0.0 0.0
2.75 0.35465744137763977 0.7908798456192017 7.333513349294662e-05 1.889653503894806e-05 0.0 0.0 0.0 0.0
2.751 0.36964794993400574 0.7829975485801697 1.597963273525238e-05 7.947906851768494e-06 0.0 0.0 0.0 0.0
2.752 0.3793940544128418 0.7726404070854187 3.796350210905075e-05 5.524978041648865e-05 0.0 0.0 0.0 0.0
2.753 0.39479735493659973 0.7714324593544006 5.395617336034775e-05 2.4084001779556274e-06 0.0 0.0 0.0 0.0
2.754 0.4140041172504425 0.763517439365387 4.497729241847992e-05 2.4357810616493225e-05 0.0 0.0 0.0 0.0
2.755 0.42811694741249084 0.7497134804725647 6.71539455652237e-05 2.237502485513687e-05 0.0 0.0 0.0 0.0
2.756 0.43397384881973267 0.7517585158348083 7.562804967164993e-05 7.925275713205338e-05 0.0 0.0 0.0 0.0
2.757 0.45100513100624084 0.7386932969093323 4.167389124631882e-05 2.9206275939941406e-05 0.0 0.0 0.0 0.0
2.758 0.4618695080280304 0.7323370575904846 3.726687282323837e-05 2.5398097932338715e-05 0.0 0.0 0.0 0.0
2.759 0.4741615653038025 0.7268506288528442 2.4961307644844055e-05 5.615595728158951e-05 0.0 0.0 0.0 0.0
2.76 0.48841091990470886 0.7158101797103882 8.701160550117493e-05 3.547314554452896e-05 0.0 0.0 0.0 0.0
2.761 0.5068472623825073 0.7095761299133301 4.2650848627090454e-05 -6.141141057014465e-06 0.0 0.0 0.0 0.0
2.762 0.5153427124023438 0.6965065598487854 4.336051642894745e-05 3.223307430744171e-06 0.0 0.0 0.0 0.0
2.763 0.5276050567626953 0.6863034963607788 9.470060467720032e-05 3.1880103051662445e-05 0.0 0.0 0.0 0.0
2.764 0.5426604151725769 0.6763652563095093 4.840083420276642e-05 7.06743448972702e-05 0.0 0.0 0.0 0.0
2.765 0.5543240308761597 0.6646441221237183 4.8646703362464905e-05 4.2526982724666595e-05 0.0 0.0 0.0 0.0
2.766 0.5645667910575867 0.6539052128791809 9.423121809959412e-06 1.35740265250206e-05 0.0 0.0 0.0 0.0
2.767 0.5750292539596558 0.6440442800521851 3.6667101085186005e-05 7.464084774255753e-05 0.0 0.0 0.0 0.0
2.768 0.5881035327911377 0.6322559118270874 4.7546811401844025e-05 -4.547648131847382e-06 0.0 0.0 0.0 0.0
2.769 0.5960370302200317 0.6211391687393188 3.9070844650268555e-05 8.889846503734589e-05 0.0 0.0 0.0 0.0
2.77 0.6185202598571777 0.606462299823761 4.840735346078873e-05 6.58128410577774e-05 0.0 0.0 0.0 0.0
2.771 0.6224834322929382 0.5958052277565002 4.077795892953873e-05 4.836916923522949e-05 0.0 0.0 0.0 0.0
2.772 0.6327866911888123 0.5799254775047302 6.405450403690338e-05 7.213279604911804e-05 0.0 0.0 0.0 0.0
2.773 0.6490678191184998 0.5718625783920288 3.2232142984867096e-05 9.321607649326324e-06 0.0 0.0 0.0 0.0
2.774 0.657051146030426 0.5524442791938782 1.881178468465805e-05 6.882008165121078e-05 0.0 0.0 0.0 0.0
2.775 0.6717180013656616 0.5378918647766113 2.212636172771454e-05 1.0126270353794098e-05 0.0 0.0 0.0 0.0
2.776 0.674777090549469 0.5237655639648438 5.654897540807724e-05 2.4590641260147095e-05 0.0 0.0 0.0 0.0
2.777 0.6897693872451782 0.507956862449646 7.461197674274445e-05 5.310680717229843e-05 0.0 0.0 0.0 0.0
2.778 0.698370635509491 0.4912840723991394 1.2757256627082825e-05 6.157904863357544e-06 0.0 0.0 0.0 0.0
2.779 0.710016131401062 0.47980940341949463 3.360304981470108e-05 9.06921923160553e-06 0.0 0.0 0.0 0.0
2.78 0.7151532769203186 0.46210765838623047 4.3614767491817474e-05 5.369819700717926e-05 0.0 0.0 0.0 0.0
2.781 0.7257412075996399 0.44546791911125183 1.2774951756000519e-05 2.8808601200580597e-05 0.0 0.0 0.0 0.0
2.782 0.7357115149497986 0.4239853620529175 4.887580871582031e-05 5.495920777320862e-05 0.0 0.0 0.0 0.0
2.783 0.7421572804450989 0.4146870970726013 4.452001303434372e-05 5.485117435455322e-05 0.0 0.0 0.0 0.0
2.784 0.7484586834907532 0.3964860737323761 4.64143231511116e-05 7.044430822134018e-05 0.0 0.0 0.0 0.0
2.785 0.7548279762268066 0.3793095648288727 8.285976946353912e-06 2.8596259653568268e-05 0.0 0.0 0.0 0.0
2.786 0.7616500854492188 0.3639785349369049 7.165968418121338e-05 1.7214566469192505e-05 0.0 0.0 0.0 0.0
2.787 0.771087110042572 0.3406631648540497 5.484558641910553e-05 4.7963112592697144e-05 0.0 0.0 0.0 0.0
2.788 0.7752872705459595 0.326297402381897 3.863312304019928e-05 3.51928174495697e-05 0.0 0.0 0.0 0.0
2.789 0.7812883853912354 0.30593037605285645 8.214451372623444e-05 4.0403567254543304e-05 0.0 0.0 0.0 0.0
2.79 0.7853983640670776 0.2909650504589081 7.203035056591034e-05 5.398876965045929e-06 0.0 0.0 0.0 0.0
2.791 0.7913751006126404 0.2662927806377411 4.33875247836113e-05 3.83276492357254e-05 0.0 0.0 0.0 0.0
2.792 0.7951708436012268 0.25436070561408997 8.333660662174225e-05 2.7880072593688965e-05 0.0 0.0 0.0 0.0
2.793 0.7999804615974426 0.2291443645954132 3.6631710827350616e-05 6.402935832738876e-05 0.0 0.0 0.0 0.0
2.794 0.8018231391906738 0.21403959393501282 5.677621811628342e-05 7.594935595989227e-06 0.0 0.0 0.0 0.0
2.795 0.8053827881813049 0.1909419149160385 6.69742003083229e-05 6.847083568572998e-05 0.0 0.0 0.0 0.0
2.796 0.8074973821640015 0.17144648730754852 2.7703121304512024e-05 6.320886313915253e-06 0.0 0.0 0.0 0.0
2.797 0.8088995218276978 0.1531609147787094 4.2207539081573486e-05 5.708634853363037e-05 0.0 0.0 0.0 0.0
2.798 0.8109429478645325 0.1299033761024475 8.024182170629501e-05 1.2094154953956604e-05 0.0 0.0 0.0 0.0
2.799 0.8113077878952026 0.11184339225292206 3.9206817746162415e-05 2.8024427592754364e-05 0.0 0.0 0.0 0.0
2.8 0.8114332556724548 0.09283150732517242 6.741005927324295e-05 2.324860543012619e-05 0.0 0.0 0.0 0.0
2.801 0.8109126091003418 0.07257406413555145 7.769744843244553e-05 4.9338676035404205e-05 0.0 0.0 0.0 0.0
2.802 0.8100284934043884 0.0518227256834507 3.986246883869171e-05 4.180986434221268e-05 0.0 0.0 0.0 0.0
2.803 0.8083945512771606 0.030652305111289024 4.9603171646595e-05 3.481656312942505e-05 0.0 0.0 0.0 0.0
2.804 0.8063863515853882 0.006983909755945206 5.850754678249359e-05 5.426444113254547e-05 0.0 0.0 0.0 0.0
2.805 0.8040104508399963 -0.01148031186312437 1.0518357157707214e-05 7.1534886956214905e-06 0.0 0.0 0.0 0.0
2.806 0.8010273575782776 -0.03212001919746399 0.00010367389768362045 7.706321775913239e-05 0.0 0.0 0.0 0.0
2.807 0.7969617247581482 -0.05402909219264984 4.8493966460227966e-05 8.464884012937546e-05 0.0 0.0 0.0 0.0
2.808 0.7927716374397278 -0.07135231047868729 3.519561141729355e-05 3.246869891881943e-05 0.0 0.0 0.0 0.0
2.809 0.7872956395149231 -0.09372075647115707 0.00010638032108545303 3.7410296499729156e-05 0.0 0.0 0.0 0.0
2.81 0.7818691730499268 -0.11450797319412231 2.2542662918567657e-05 5.499552935361862e-05 0.0 0.0 0.0 0.0
2.811 0.7765710353851318 -0.13156285881996155 5.2570365369319916e-05 2.0638108253479004e-05 0.0 0.0 0.0 0.0
2.812 0.7694575786590576 -0.15466749668121338 6.988644599914551e-05 8.611753582954407e-05 0.0 0.0 0.0 0.0
2.813 0.7620279788970947 -0.1750326156616211 9.121838957071304e-05 2.102181315422058e-05 0.0 0.0 0.0 0.0
2.814 0.7544990181922913 -0.19762051105499268 8.66129994392395e-05 1.6937963664531708e-05 0.0 0.0 0.0 0.0
2.815 0.7477262020111084 -0.21153195202350616 6.99581578373909e-05 5.58486208319664e-05 0.0 0.0 0.0 0.0
2.816 0.7375708818435669 -0.23499085009098053 6.860028952360153e-05 2.4357810616493225e-05 0.0 0.0 0.0 0.0
2.817 0.7282276153564453 -0.25376343727111816 4.0337443351745605e-05 5.31589612364769e-05 0.0 0.0 0.0 0.0
2.818 0.7216296195983887 -0.26874351501464844 7.056910544633865e-05 1.895613968372345e-05 0.0 0.0 0.0 0.0
2.819 0.7073242664337158 -0.2925269305706024 6.506871432065964e-05 1.2964941561222076e-05 0.0 0.0 0.0 0.0
2.82 0.6982343792915344 -0.3071695864200592 6.370991468429565e-05 3.245379775762558e-05 0.0 0.0 0.0 0.0
2.821 0.6833966970443726 -0.3264099359512329 6.38812780380249e-05 5.636736750602722e-05 0.0 0.0 0.0 0.0
2.822 0.6726039052009583 -0.3457888960838318 7.891282439231873e-05 2.066139131784439e-05 0.0 0.0 0.0 0.0
2.823 0.6586741209030151 -0.36241862177848816 4.773959517478943e-05 7.431302219629288e-05 0.0 0.0 0.0 0.0
2.824 0.6456730365753174 -0.38098615407943726 3.9198435842990875e-05 4.912819713354111e-05 0.0 0.0 0.0 0.0
2.825 0.6337085962295532 -0.39723148941993713 8.040014654397964e-05 1.1700205504894257e-05 0.0 0.0 0.0 0.0
2.826 0.6184550523757935 -0.41307342052459717 6.219558417797089e-05 2.9985792934894562e-05 0.0 0.0 0.0 0.0
2.827 0.6037726998329163 -0.43053966760635376 7.7039934694767e-05 3.8739293813705444e-05 0.0 0.0 0.0 0.0
2.828 0.5914821028709412 -0.44295743107795715 0.00010775960981845856 2.863258123397827e-05 0.0 0.0 0.0 0.0
2.829 0.5759475827217102 -0.46046292781829834 0.00010026991367340088 5.3036026656627655e-05 0.0 0.0 0.0 0.0
2.83 0.5604385137557983 -0.47087574005126953 6.174389272928238e-05 8.425116539001465e-05 0.0 0.0 0.0 0.0
2.831 0.5435462594032288 -0.4883117973804474 5.0430186092853546e-05 6.482843309640884e-05 0.0 0.0 0.0 0.0
2.832 0.5287761092185974 -0.5039141774177551 6.260909140110016e-05 8.33999365568161e-06 0.0 0.0 0.0 0.0
2.833 0.5111127495765686 -0.5168036222457886 5.889683961868286e-05 1.743808388710022e-05 0.0 0.0 0.0 0.0
2.834 0.4949926733970642 -0.5260835289955139 2.9880553483963013e-05 2.6285648345947266e-05 0.0 0.0 0.0 0.0
2.835 0.47498685121536255 -0.5408352613449097 7.471628487110138e-05 4.322268068790436e-06 0.0 0.0 0.0 0.0
2.836 0.45904234051704407 -0.5561570525169373 7.084198296070099e-05 3.737024962902069e-05 0.0 0.0 0.0 0.0
2.837 0.4407290518283844 -0.5647012591362 7.76778906583786e-05 6.469059735536575e-05 0.0 0.0 0.0 0.0
2.838 0.41926392912864685 -0.5757778882980347 5.768239498138428e-05 4.76054847240448e-05 0.0 0.0 0.0 0.0
2.839 0.4062652885913849 -0.5867288708686829 2.6455149054527283e-05 1.8785707652568817e-05 0.0 0.0 0.0 0.0
2.84 0.3850739300251007 -0.5961487293243408 7.579848170280457e-05 4.940386861562729e-05 0.0 0.0 0.0 0.0
2.841 0.3681192994117737 -0.6020975112915039 6.627663969993591e-05 2.2874213755130768e-05 0.0 0.0 0.0 0.0
2.842 0.34915006160736084 -0.6135168671607971 5.952548235654831e-05 -7.445923984050751e-06 0.0 0.0 0.0 0.0
2.843 0.3282383680343628 -0.6233748197555542 9.158998727798462e-05 2.4835579097270966e-05 0.0 0.0 0.0 0.0
2.844 0.30323532223701477 -0.6335405707359314 5.4057687520980835e-05 3.1519681215286255e-05 0.0 0.0 0.0 0.0
2.845 0.28973978757858276 -0.6383912563323975 4.4889748096466064e-05 9.680166840553284e-06 0.0 0.0 0.0 0.0
2.846 0.270686537027359 -0.6439198851585388 7.214676588773727e-05 8.339807391166687e-05 0.0 0.0 0.0 0.0
2.847 0.2532464861869812 -0.6488950848579407 5.6345947086811066e-05 4.988908767700195e-05 0.0 0.0 0.0 0.0
2.848 0.22675064206123352 -0.6589052081108093 0.00010171066969633102 4.176236689090729e-05 0.0 0.0 0.0 0.0
2.849 0.21127349138259888 -0.6584380269050598 5.8311037719249725e-05 4.6321190893650055e-05 0.0 0.0 0.0 0.0
2.85 0.1957370787858963 -0.6631555557250977 9.337905794382095e-05 2.4714507162570953e-05 0.0 0.0 0.0 0.0
2.851 0.17316250503063202 -0.6662003993988037 5.0817616283893585e-05 1.6437843441963196e-05 0.0 0.0 0.0 0.0
2.852 0.1482497900724411 -0.6706938743591309 7.737521082162857e-05 1.7846934497356415e-05 0.0 0.0 0.0 0.0
2.853 0.13322871923446655 -0.6741291880607605 5.530938506126404e-05 2.4959444999694824e-06 0.0 0.0 0.0 0.0
2.854 0.11648185551166534 -0.6784652471542358 8.87550413608551e-06 3.4809112548828125e-05 0.0 0.0 0.0 0.0
2.855 0.09298533946275711 -0.6791257858276367 4.742853343486786e-05 4.535447806119919e-05 0.0 0.0 0.0 0.0
2.856 0.07648732513189316 -0.6811238527297974 5.8084726333618164e-05 1.1890195310115814e-05 0.0 0.0 0.0 0.0
2.857 0.052800100296735764 -0.6848447918891907 6.970111280679703e-05 2.9054470360279083e-05 0.0 0.0 0.0 0.0
2.858 0.03769413381814957 -0.6810105443000793 3.704149276018143e-05 1.2295320630073547e-05 0.0 0.0 0.0 0.0
2.859 0.012873766012489796 -0.6814423203468323 4.390161484479904e-05 6.366241723299026e-05 0.0 0.0 0.0 0.0
2.86 -0.00667195487767458 -0.6788904666900635 0.00010772701352834702 2.599228173494339e-05 0.0 0.0 0.0 0.0
2.861 -0.025337595492601395 -0.6793543100357056 0.00011077988892793655 5.475059151649475e-05 0.0 0.0 0.0 0.0
2.862 -0.04172900691628456 -0.6769910454750061 5.6462362408638e-05 4.450790584087372e-06 0.0 0.0 0.0 0.0
2.863 -0.06486895680427551 -0.6773061156272888 0.00010467600077390671 1.806393265724182e-05 0.0 0.0 0.0 0.0
2.864 -0.07880109548568726 -0.67610764503479 8.064229041337967e-05 1.169741153717041e-05 0.0 0.0 0.0 0.0
2.865 -0.09770015627145767 -0.6751521229743958 4.318542778491974e-05 1.8928200006484985e-05 0.0 0.0 0.0 0.0
2.866 -0.11555289477109909 -0.6652143001556396 3.2451003789901733e-05 4.817452281713486e-05 0.0 0.0 0.0 0.0
2.867 -0.1335567981004715 -0.6665476560592651 3.850087523460388e-05 3.5081058740615845e-05 0.0 0.0 0.0 0.0
2.868 -0.15279699862003326 -0.6580406427383423 4.055257886648178e-05 3.1181611120700836e-05 0.0 0.0 0.0 0.0
2.869 -0.16788193583488464 -0.6595693230628967 4.1435472667217255e-05 3.884267061948776e-05 0.0 0.0 0.0 0.0
2.87 -0.18879103660583496 -0.6541241407394409 7.265154272317886e-05 7.014162838459015e-05 0.0 0.0 0.0 0.0
2.871 -0.20610424876213074 -0.6454794406890869 4.4397078454494476e-05 6.819888949394226e-05 0.0 0.0 0.0 0.0
2.872 -0.22265978157520294 -0.6395142674446106 8.237455040216446e-05 2.384185791015625e-05 0.0 0.0 0.0 0.0
2.873 -0.2382146269083023 -0.6363747715950012 8.376780897378922e-05 2.7284957468509674e-05 0.0 0.0 0.0 0.0
2.874 -0.2545422315597534 -0.634783148765564 7.95312225818634e-05 5.267839878797531e-05 0.0 0.0 0.0 0.0
2.875 -0.27243995666503906 -0.6272009015083313 3.968551754951477e-05 8.29249620437622e-06 0.0 0.0 0.0 0.0
2.876 -0.28862205147743225 -0.6171331405639648 3.9014965295791626e-05 2.671126276254654e-05 0.0 0.0 0.0 0.0
2.877 -0.3042692244052887 -0.6110188364982605 4.1610561311244965e-05 5.816109478473663e-05 0.0 0.0 0.0 0.0
2.878 -0.31676366925239563 -0.6080678105354309 0.00011587049812078476 4.3283216655254364e-05 0.0 0.0 0.0 0.0
2.879 -0.3366934657096863 -0.5957474708557129 8.549634367227554e-05 1.589115709066391e-05 0.0 0.0 0.0 0.0
2.88 -0.3510705530643463 -0.5873969793319702 4.8644840717315674e-05 4.833657294511795e-05 0.0 0.0 0.0 0.0
2.881 -0.3646550178527832 -0.581229567527771 9.11196693778038e-05 2.4392269551753998e-05 0.0 0.0 0.0 0.0
2.882 -0.3809557557106018 -0.5724747180938721 5.89471310377121e-05 1.920945942401886e-05 0.0 0.0 0.0 0.0
2.883 -0.38995447754859924 -0.5647845268249512 6.187614053487778e-05 1.086108386516571e-05 0.0 0.0 0.0 0.0
2.884 -0.4082608222961426 -0.5583428144454956 6.19674101471901e-05 2.85981222987175e-05 0.0 0.0 0.0 0.0
2.885 -0.4246964752674103 -0.5452509522438049 5.4774805903434753e-05 3.667827695608139e-05 0.0 0.0 0.0 0.0
2.886 -0.431514173746109 -0.5396648049354553 3.855954855680466e-05 5.393289029598236e-05 0.0 0.0 0.0 0.0
2.887 -0.4440164268016815 -0.5312647819519043 5.9645622968673706e-05 1.8336810171604156e-05 0.0 0.0 0.0 0.0
2.888 -0.45805469155311584 -0.5209978222846985 8.866190910339355e-05 3.721565008163452e-05 0.0 0.0 0.0 0.0
2.889 -0.4724997580051422 -0.5096539855003357 2.3361295461654663e-05 2.6125460863113403e-05 0.0 0.0 0.0 0.0
2.89 -0.4869992434978485 -0.4988919198513031 5.6109391152858734e-05 6.249174475669861e-06 0.0 0.0 0.0 0.0
2.891 -0.49886563420295715 -0.4890131652355194 4.663597792387009e-05 6.72321766614914e-05 0.0 0.0 0.0 0.0
2.892 -0.5134998559951782 -0.47677576541900635 3.787688910961151e-05 4.3538399040699005e-05 0.0 0.0 0.0 0.0
2.893 -0.5218333005905151 -0.46910354495048523 6.609316915273666e-05 3.4011900424957275e-05 0.0 0.0 0.0 0.0
2.894 -0.5328789949417114 -0.45913437008857727 8.784793317317963e-05 1.8473714590072632e-05 0.0 0.0 0.0 0.0
2.895 -0.5417383909225464 -0.4486856460571289 7.389765232801437e-05 2.5634653866291046e-05 0.0 0.0 0.0 0.0
2.896 -0.5525882840156555 -0.4394078850746155 5.3958967328071594e-05 5.319714546203613e-06 0.0 0.0 0.0 0.0
2.897 -0.5650078058242798 -0.4264063537120819 6.170012056827545e-05 1.4904886484146118e-05 0.0 0.0 0.0 0.0
2.898 -0.5754200220108032 -0.4167262315750122 3.399793058633804e-05 5.450192838907242e-05 0.0 0.0 0.0 0.0
2.899 -0.5837398767471313 -0.404026061296463 0.0001010531559586525 4.2868778109550476e-05 0.0 0.0 0.0 0.0
2.9 -0.594910740852356 -0.3928137421607971 3.854651004076004e-05 1.065526157617569e-05 0.0 0.0 0.0 0.0
2.901 -0.6039767265319824 -0.3820717930793762 8.438434451818466e-05 4.388485103845596e-05 0.0 0.0 0.0 0.0
2.902 -0.6105518341064453 -0.3744513690471649 5.3755007684230804e-05 6.447546184062958e-06 0.0 0.0 0.0 0.0
2.903 -0.6209594011306763 -0.3607717752456665 6.840471178293228e-05 5.8453530073165894e-05 0.0 0.0 0.0 0.0
2.904 -0.6280089616775513 -0.34911301732063293 8.148141205310822e-05 1.971796154975891e-05 0.0 0.0 0.0 0.0
2.905 -0.6399965286254883 -0.33774131536483765 3.2065436244010925e-05 1.205597072839737e-05 0.0 0.0 0.0 0.0
2.906 -0.6475520133972168 -0.32166269421577454 8.762907236814499e-05 1.5142373740673065e-05 0.0 0.0 0.0 0.0
2.907 -0.6546634435653687 -0.3128063976764679 0.00011592451483011246 5.2842311561107635e-05 0.0 0.0 0.0 0.0
2.908 -0.6621385812759399 -0.3005548119544983 5.888007581233978e-05 7.056165486574173e-05 0.0 0.0 0.0 0.0
2.909 -0.6709991693496704 -0.2882498502731323 4.3781474232673645e-05 -2.4558044970035553e-05 0.0 0.0 0.0 0.0
2.91 -0.6771291494369507 -0.2754274010658264 3.7377700209617615e-05 2.5265850126743317e-05 0.0 0.0 0.0 0.0
2.911 -0.6827734112739563 -0.2662283778190613 4.134606570005417e-05 3.386475145816803e-05 0.0 0.0 0.0 0.0
2.912 -0.6896005272865295 -0.2543627917766571 0.00011035613715648651 2.3762695491313934e-05 0.0 0.0 0.0 0.0
2.913 -0.6970534324645996 -0.23939771950244904 0.00010420847684144974 3.949552774429321e-05 0.0 0.0 0.0 0.0
2.914 -0.7030853033065796 -0.22941787540912628 5.261413753032684e-05 3.5888515412807465e-05 0.0 0.0 0.0 0.0
2.915 -0.7071234583854675 -0.2175859808921814 3.750994801521301e-05 4.293397068977356e-07 0.0 0.0 0.0 0.0
2.916 -0.7143811583518982 -0.2094682902097702 6.681680679321289e-05 9.035691618919373e-06 0.0 0.0 0.0 0.0
2.917 -0.7187076210975647 -0.19423650205135345 9.696092456579208e-05 8.823350071907043e-06 0.0 0.0 0.0 0.0
2.918 -0.7262199521064758 -0.17439594864845276 0.0001069018617272377 1.5809200704097748e-05 0.0 0.0 0.0 0.0
2.919 -0.7301874756813049 -0.16394172608852386 5.4317526519298553e-05 6.865430623292923e-05 0.0 0.0 0.0 0.0
2.92 -0.7329732179641724 -0.1572953760623932 6.960425525903702e-05 1.9220635294914246e-05 0.0 0.0 0.0 0.0
2.921 -0.7382924556732178 -0.1439283788204193 4.70159575343132e-05 2.877507358789444e-05 0.0 0.0 0.0 0.0
2.922 -0.7433863282203674 -0.12948550283908844 4.8833899199962616e-05 -1.1902302503585815e-06 0.0 0.0 0.0 0.0
2.923 -0.7450263500213623 -0.11875829100608826 6.876420229673386e-05 2.8721988201141357e-06 0.0 0.0 0.0 0.0
2.924 -0.7496925592422485 -0.10763446986675262 5.996040999889374e-05 -1.047179102897644e-05 0.0 0.0 0.0 0.0
2.925 -0.7534242272377014 -0.09396012127399445 9.59029421210289e-05 2.0089559257030487e-05 0.0 0.0 0.0 0.0
2.926 -0.7561686038970947 -0.08156002312898636 3.3670105040073395e-05 4.218891263008118e-05 0.0 0.0 0.0 0.0
2.927 -0.759679913520813 -0.06878801435232162 6.75693154335022e-05 1.859571784734726e-05 0.0 0.0 0.0 0.0
2.928 -0.7632001638412476 -0.056189268827438354 7.475819438695908e-05 -1.2954697012901306e-05 0.0 0.0 0.0 0.0
2.929 -0.7658659815788269 -0.045349158346652985 7.753446698188782e-05 1.1296942830085754e-05 0.0 0.0 0.0 0.0
2.93 -0.7677596211433411 -0.03470757603645325 1.689605414867401e-05 2.297665923833847e-05 0.0 0.0 0.0 0.0
2.931 -0.7699083685874939 -0.02211625501513481 5.636364221572876e-05 2.0446255803108215e-05 0.0 0.0 0.0 0.0
2.932 -0.7719631195068359 -0.011412198655307293 5.7048164308071136e-05 5.0195492804050446e-05 0.0 0.0 0.0 0.0
2.933 -0.7742360830307007 -3.123469650745392e-05 6.450526416301727e-05 -5.712732672691345e-06 0.0 0.0 0.0 0.0
2.934 -0.7752860188484192 0.015060719102621078 8.737295866012573e-05 -5.552545189857483e-06 0.0 0.0 0.0 0.0
2.935 -0.7773408889770508 0.027842234820127487 6.098300218582153e-05 3.618374466896057e-05 0.0 0.0 0.0 0.0
2.936 -0.7785595655441284 0.040121108293533325 9.351875633001328e-05 1.828838139772415e-05 0.0 0.0 0.0 0.0
2.937 -0.7797160148620605 0.05223894864320755 5.228538066148758e-05 1.453980803489685e-05 0.0 0.0 0.0 0.0
2.938 -0.7809687852859497 0.06439927220344543 8.845888078212738e-05 6.508827209472656e-05 0.0 0.0 0.0 0.0
2.939 -0.7818381190299988 0.07165350764989853 7.433351129293442e-05 3.491528332233429e-06 0.0 0.0 0.0 0.0
2.94 -0.7815868854522705 0.08711732178926468 2.895854413509369e-05 3.059115260839462e-05 0.0 0.0 0.0 0.0
2.941 -0.7823864817619324 0.09630831331014633 6.891507655382156e-05 -3.091059625148773e-06 0.0 0.0 0.0 0.0
2.942 -0.7832843661308289 0.10766074061393738 7.376540452241898e-05 3.346707671880722e-05 0.0 0.0 0.0 0.0
2.943 -0.7842175960540771 0.11786133795976639 4.01744619011879e-05 7.00727105140686e-05 0.0 0.0 0.0 0.0
2.944 -0.7833373546600342 0.13432908058166504 4.881899803876877e-05 8.669495582580566e-05 0.0 0.0 0.0 0.0
2.945 -0.7845974564552307 0.14037927985191345 3.073737025260925e-05 1.718290150165558e-05 0.0 0.0 0.0 0.0
2.946 -0.7844757437705994 0.15175169706344604 2.4354085326194763e-05 4.458148032426834e-05 0.0 0.0 0.0 0.0
2.947 -0.7833340764045715 0.16521809995174408 1.0726042091846466e-05 6.090756505727768e-05 0.0 0.0 0.0 0.0
2.948 -0.7837666869163513 0.17377811670303345 8.494686335325241e-05 4.987791180610657e-05 0.0 0.0 0.0 0.0
2.949 -0.7818904519081116 0.18978393077850342 4.1824765503406525e-05 3.0115246772766113e-05 0.0 0.0 0.0 0.0
2.95 -0.7805839776992798 0.19968359172344208 8.439645171165466e-06 1.3804994523525238e-05 0.0 0.0 0.0 0.0
2.951 -0.779559850692749 0.21198517084121704 5.238223820924759e-05 9.350385516881943e-05 0.0 0.0 0.0 0.0
2.952 -0.7793722152709961 0.22177770733833313 4.0189363062381744e-05 -1.433398574590683e-05 0.0 0.0 0.0 0.0
2.953 -0.7783929705619812 0.23626551032066345 0.00010688416659832001 2.642720937728882e-05 0.0 0.0 0.0 0.0
2.954 -0.776013195514679 0.2466934323310852 8.594617247581482e-05 5.5767595767974854e-05 0.0 0.0 0.0 0.0
2.955 -0.7746700048446655 0.25537577271461487 4.2465515434741974e-05 4.438403993844986e-05 0.0 0.0 0.0 0.0
2.956 -0.7742668390274048 0.2655719518661499 2.925284206867218e-05 4.6244822442531586e-05 0.0 0.0 0.0 0.0
2.957 -0.7712504863739014 0.2771158516407013 9.368918836116791e-05 1.0821036994457245e-05 0.0 0.0 0.0 0.0
2.958 -0.7699721455574036 0.2879836857318878 6.474833935499191e-05 3.337860107421875e-06 0.0 0.0 0.0 0.0
2.959 -0.7668965458869934 0.29849666357040405 9.661167860031128e-05 2.3964792490005493e-05 0.0 0.0 0.0 0.0
2.96 -0.7652581930160522 0.3103127181529999 5.988217890262604e-05 4.0597282350063324e-05 0.0 0.0 0.0 0.0
2.961 -0.7609117031097412 0.32273581624031067 9.808503091335297e-05 1.3239681720733643e-05 0.0 0.0 0.0 0.0
2.962 -0.7599955797195435 0.33525750041007996 3.9472244679927826e-05 -1.6763806343078613e-08 0.0 0.0 0.0 0.0
2.963 -0.7559096217155457 0.34398841857910156 7.954426109790802e-05 7.585063576698303e-05 0.0 0.0 0.0 0.0
2.964 -0.7557080984115601 0.3523694574832916 7.632467895746231e-05 1.6985461115837097e-05 0.0 0.0 0.0 0.0
2.965 -0.7492685914039612 0.365168035030365 0.00010826066136360168 4.530232399702072e-05 0.0 0.0 0.0 0.0
2.966 -0.7471927404403687 0.374471515417099 1.26715749502182e-05 3.969389945268631e-05 0.0 0.0 0.0 0.0
2.967 -0.7445765733718872 0.3840741515159607 2.649892121553421e-05 1.819618046283722e-05 0.0 0.0 0.0 0.0
2.968 -0.7404294013977051 0.3963179886341095 2.979487180709839e-05 3.5013072192668915e-05 0.0 0.0 0.0 0.0
2.969 -0.737240195274353 0.4059150815010071 3.319978713989258e-05 7.568579167127609e-05 0.0 0.0 0.0 0.0
2.97 -0.7332214117050171 0.41669154167175293 8.607376366853714e-05 2.641882747411728e-05 0.0 0.0 0.0 0.0
2.971 -0.729256808757782 0.4266420602798462 8.195079863071442e-05 4.5631080865859985e-05 0.0 0.0 0.0 0.0
2.972 -0.7237953543663025 0.43713849782943726 2.864748239517212e-05 1.589953899383545e-05 0.0 0.0 0.0 0.0
2.973 -0.7206016182899475 0.4461744427680969 7.690116763114929e-05 -5.436129868030548e-06 0.0 0.0 0.0 0.0
2.974 -0.715668797492981 0.4547235369682312 8.32434743642807e-05 4.004407674074173e-05 0.0 0.0 0.0 0.0
2.975 -0.7135682702064514 0.4683055579662323 7.22203403711319e-05 2.298690378665924e-05 0.0 0.0 0.0 0.0
2.976 -0.7085359692573547 0.47644296288490295 7.097329944372177e-05 4.733353853225708e-05 0.0 0.0 0.0 0.0
2.977 -0.7039166688919067 0.4858894348144531 7.501896470785141e-05 5.0339847803115845e-05 0.0 0.0 0.0 0.0
2.978 -0.6993791460990906 0.4951472282409668 3.780238330364227e-05 2.2496096789836884e-05 0.0 0.0 0.0 0.0
2.979 -0.6945649981498718 0.5044241547584534 4.605669528245926e-05 1.5429221093654633e-05 0.0 0.0 0.0 0.0
2.98 -0.6888519525527954 0.5141873359680176 7.818732410669327e-05 2.775713801383972e-05 0.0 0.0 0.0 0.0
2.981 -0.6808853149414062 0.5272448658943176 3.872346132993698e-05 6.612762808799744e-05 0.0 0.0 0.0 0.0
2.982 -0.6771939396858215 0.5375645756721497 8.385907858610153e-05 -4.09688800573349e-06 0.0 0.0 0.0 0.0
2.983 -0.6709222197532654 0.5484402775764465 2.4527311325073242e-05 2.954341471195221e-05 0.0 0.0 0.0 0.0
2.984 -0.6690881848335266 0.5520016551017761 2.652779221534729e-05 1.788884401321411e-05 0.0 0.0 0.0 0.0
2.985 -0.6571312546730042 0.5702478289604187 8.059851825237274e-05 6.673019379377365e-05 0.0 0.0 0.0 0.0
2.986 -0.6536779403686523 0.5756816267967224 4.945322871208191e-05 6.375834345817566e-05 0.0 0.0 0.0 0.0
2.987 -0.6501383185386658 0.579560399055481 3.668013960123062e-05 7.431022822856903e-06 0.0 0.0 0.0 0.0
2.988 -0.6387076377868652 0.5933323502540588 7.987115532159805e-05 2.1723099052906036e-05 0.0 0.0 0.0 0.0
2.989 -0.6361233592033386 0.5992453694343567 3.8467347621917725e-05 3.160908818244934e-06 0.0 0.0 0.0 0.0
2.99 -0.6274521350860596 0.6106330752372742 3.031175583600998e-05 4.5495107769966125e-05 0.0 0.0 0.0 0.0
2.991 -0.6215213537216187 0.618992269039154 3.033597022294998e-05 2.611149102449417e-05 0.0 0.0 0.0 0.0
2.992 -0.6139503121376038 0.6325145959854126 6.928574293851852e-05 7.185898721218109e-05 0.0 0.0 0.0 0.0
2.993 -0.6085780262947083 0.6356560587882996 2.7261674404144287e-05 8.833594620227814e-06 0.0 0.0 0.0 0.0
2.994 -0.6014038920402527 0.6435120701789856 2.3256056010723114e-05 5.515385419130325e-05 0.0 0.0 0.0 0.0
2.995 -0.5963297486305237 0.6493937969207764 3.228895366191864e-05 7.362291216850281e-05 0.0 0.0 0.0 0.0
2.996 -0.5889425873756409 0.6595703959465027 7.056817412376404e-05 4.4261105358600616e-05 0.0 0.0 0.0 0.0
2.997 -0.5779075026512146 0.6687929034233093 3.330595791339874e-05 8.439924567937851e-05 0.0 0.0 0.0 0.0
2.998 -0.5710614919662476 0.6794436573982239 8.876807987689972e-05 1.959223300218582e-05 0.0 0.0 0.0 0.0
2.999 -0.5641984939575195 0.687186598777771 9.054690599441528e-05 3.6908313632011414e-05 0.0 0.0 0.0 0.0
3.0 -0.5567607283592224 0.694486141204834 7.42599368095398e-05 5.185510963201523e-05 0.0 0.0 0.0 0.0
3.001 -0.5436427593231201 0.7052472233772278 1.9184313714504242e-05 3.368314355611801e-05 0.0 0.0 0.0 0.0
3.002 -0.538130521774292 0.710288405418396 7.437821477651596e-05 6.064027547836304e-05 0.0 0.0 0.0 0.0
3.003 -0.5337294340133667 0.7168753147125244 8.27377662062645e-05 2.3646280169487e-06 0.0 0.0 0.0 0.0
3.004 -0.5213896632194519 0.7269229292869568 7.430464029312134e-05 1.1703930795192719e-05 0.0 0.0 0.0 0.0
3.005 -0.5133979320526123 0.7346161007881165 2.4658627808094025e-05 6.652995944023132e-05 0.0 0.0 0.0 0.0
3.006 -0.5075079798698425 0.7389701008796692 3.4487806260585785e-05 4.028528928756714e-05 0.0 0.0 0.0 0.0
3.007 -0.4961808919906616 0.7479712963104248 6.198883056640625e-05 3.296695649623871e-05 0.0 0.0 0.0 0.0
3.008 -0.49135804176330566 0.7552483677864075 6.34295865893364e-05 6.002373993396759e-05 0.0 0.0 0.0 0.0
3.009 -0.47729089856147766 0.7623032927513123 7.348880171775818e-05 8.216220885515213e-05 0.0 0.0 0.0 0.0
3.01 -0.4733724594116211 0.7697253227233887 1.7357058823108673e-05 3.3756718039512634e-05 0.0 0.0 0.0 0.0
3.011 -0.4559548795223236 0.77869713306427 2.887006849050522e-05 5.608703941106796e-05 0.0 0.0 0.0 0.0
3.012 -0.45244652032852173 0.7783151268959045 2.5787390768527985e-05 4.61433082818985e-05 0.0 0.0 0.0 0.0
3.013 -0.43597105145454407 0.793910562992096 -1.4959834516048431e-05 2.541765570640564e-05 0.0 0.0 0.0 0.0
3.014 -0.4338288903236389 0.7964933514595032 8.506234735250473e-05 4.765484482049942e-05 0.0 0.0 0.0 0.0
3.015 -0.42302021384239197 0.8052607178688049 1.9268132746219635e-05 4.83216717839241e-05 0.0 0.0 0.0 0.0
3.016 -0.41110387444496155 0.8095037937164307 -1.6223639249801636e-06 -2.9457733035087585e-06 0.0 0.0 0.0 0.0
3.017 -0.4046148955821991 0.8123447299003601 5.5897049605846405e-05 -9.318813681602478e-06 0.0 0.0 0.0 0.0
3.018 -0.3961437940597534 0.8174493908882141 3.587547689676285e-05 6.64200633764267e-05 0.0 0.0 0.0 0.0
3.019 -0.3804406523704529 0.828822135925293 1.8212944269180298e-05 4.0733255445957184e-05 0.0 0.0 0.0 0.0
3.02 -0.36919277906417847 0.832874596118927 -1.293327659368515e-05 5.0337985157966614e-05 0.0 0.0 0.0 0.0
3.021 -0.35461118817329407 0.8410190939903259 3.536418080329895e-05 3.429874777793884e-05 0.0 0.0 0.0 0.0
3.022 -0.34825241565704346 0.840772807598114 3.639422357082367e-05 3.61492857336998e-05 0.0 0.0 0.0 0.0
3.023 -0.3369564414024353 0.8507952690124512 5.635339766740799e-05 4.220474511384964e-05 0.0 0.0 0.0 0.0
3.024 -0.33008626103401184 0.8546196222305298 5.0868839025497437e-05 7.263757288455963e-05 0.0 0.0 0.0 0.0
3.025 -0.3178969621658325 0.8583979606628418 4.173442721366882e-05 3.670342266559601e-06 0.0 0.0 0.0 0.0
3.026 -0.305390328168869 0.8651888370513916 1.3737939298152924e-05 1.0522082448005676e-05 0.0 0.0 0.0 0.0
3.027 -0.2904893457889557 0.8683257102966309 2.9194168746471405e-05 8.716247975826263e-05 0.0 0.0 0.0 0.0
3.028 -0.2809546887874603 0.8765878081321716 3.411620855331421e-05 4.0903687477111816e-05 0.0 0.0 0.0 0.0
3.029 -0.2639760673046112 0.8804609179496765 4.8209913074970245e-05 1.8882565200328827e-05 0.0 0.0 0.0 0.0
3.03 -0.258825421333313 0.8835597634315491 6.937701255083084e-05 7.634982466697693e-06 0.0 0.0 0.0 0.0
3.031 -0.24792532622814178 0.8840905427932739 3.8236379623413086e-05 4.268530756235123e-05 0.0 0.0 0.0 0.0
3.032 -0.23219409584999084 0.8890383839607239 2.4283304810523987e-05 4.8590824007987976e-05 0.0 0.0 0.0 0.0
3.033 -0.2213062345981598 0.8954206109046936 7.243920117616653e-05 5.050934851169586e-05 0.0 0.0 0.0 0.0
3.034 -0.20633549988269806 0.8969616889953613 4.250556230545044e-05 2.688821405172348e-05 0.0 0.0 0.0 0.0
3.035 -0.1967947632074356 0.900727391242981 7.185898721218109e-05 5.4552219808101654e-05 0.0 0.0 0.0 0.0
3.036 -0.18223926424980164 0.9071211218833923 7.657986134290695e-05 0.00012216530740261078 0.0 0.0 0.0 0.0
3.037 -0.16648061573505402 0.9074375629425049 7.009226828813553e-05 7.241498678922653e-05 0.0 0.0 0.0 0.0
3.038 -0.15624691545963287 0.9097744226455688 4.4182874262332916e-05 9.571388363838196e-05 0.0 0.0 0.0 0.0
3.039 -0.1460769921541214 0.9121677279472351 2.162531018257141e-06 4.4658780097961426e-05 0.0 0.0 0.0 0.0
3.04 -0.13931889832019806 0.9119501113891602 4.204828292131424e-05 8.780881762504578e-05 0.0 0.0 0.0 0.0
3.041 -0.11569811403751373 0.916302502155304 3.1082890927791595e-05 1.1813826858997345e-05 0.0 0.0 0.0 0.0
3.042 -0.10130830854177475 0.916752815246582 4.686415195465088e-05 8.882023394107819e-06 0.0 0.0 0.0 0.0
3.043 -0.09003287553787231 0.9203346371650696 8.201133459806442e-05 5.782023072242737e-05 0.0 0.0 0.0 0.0
3.044 -0.07524707168340683 0.9206312894821167 2.5908462703227997e-05 6.366800516843796e-05 0.0 0.0 0.0 0.0
3.045 -0.05888544023036957 0.9230536222457886 4.2941421270370483e-05 5.3581781685352325e-05 0.0 0.0 0.0 0.0
3.046 -0.0525829903781414 0.9208670258522034 1.832563430070877e-05 4.318542778491974e-05 0.0 0.0 0.0 0.0
3.047 -0.04163718223571777 0.9234694838523865 4.999898374080658e-05 6.267987191677094e-05 0.0 0.0 0.0 0.0
3.048 -0.019337758421897888 0.9250012636184692 1.3845041394233704e-05 2.0859763026237488e-05 0.0 0.0 0.0 0.0
3.049 -0.0025346344336867332 0.925252377986908 2.8765760362148285e-05 4.919711500406265e-05 0.0 0.0 0.0 0.0
3.05 0.0066812774166464806 0.9237697124481201 6.182864308357239e-05 -4.410743713378906e-06 0.0 0.0 0.0 0.0
3.051 0.02341323345899582 0.9223600625991821 2.933107316493988e-05 1.3455748558044434e-05 0.0 0.0 0.0 0.0
3.052 0.039297256618738174 0.922543466091156 4.565715789794922e-05 7.267110049724579e-05 0.0 0.0 0.0 0.0
3.053 0.0479278601706028 0.9220803380012512 6.330758333206177e-05 4.8318877816200256e-05 0.0 0.0 0.0 0.0
3.054 0.05820688605308533 0.923018753528595 3.096833825111389e-05 5.190819501876831e-05 0.0 0.0 0.0 0.0
3.055 0.08010271191596985 0.9201928377151489 3.7044286727905273e-05 9.169895201921463e-05 0.0 0.0 0.0 0.0
3.056 0.08577891439199448 0.9182230830192566 1.2340955436229706e-05 6.730016320943832e-05 0.0 0.0 0.0 0.0
3.057 0.1085365042090416 0.915772557258606 2.5695189833641052e-05 2.0947307348251343e-05 0.0 0.0 0.0 0.0
3.058 0.12260054051876068 0.9172675609588623 5.61857596039772e-05 0.00010063499212265015 0.0 0.0 0.0 0.0
3.059 0.13945220410823822 0.9119358062744141 2.7536414563655853e-05 8.314382284879684e-05 0.0 0.0 0.0 0.0
3.06 0.15177957713603973 0.9083235263824463 5.62816858291626e-05 4.32012602686882e-05 0.0 0.0 0.0 0.0
3.061 0.1665244698524475 0.9040396809577942 5.975458770990372e-05 1.4356337487697601e-05 0.0 0.0 0.0 0.0
3.062 0.1824938803911209 0.9019684195518494 7.548369467258453e-05 1.7405487596988678e-05 0.0 0.0 0.0 0.0
3.063 0.19782787561416626 0.8969948887825012 2.5410205125808716e-05 9.089149534702301e-05 0.0 0.0 0.0 0.0
3.064 0.2173294872045517 0.893929660320282 4.059821367263794e-05 9.308941662311554e-05 0.0 0.0 0.0 0.0
3.065 0.23176681995391846 0.8870243430137634 6.499793380498886e-05 3.0178576707839966e-05 0.0 0.0 0.0 0.0
3.066 0.2480507642030716 0.8830726146697998 1.8224120140075684e-05 4.674214869737625e-05 0.0 0.0 0.0 0.0
3.067 0.26051846146583557 0.8765069246292114 5.970615893602371e-05 3.483705222606659e-05 0.0 0.0 0.0 0.0
3.068 0.27291661500930786 0.8733835220336914 -4.230998456478119e-06 8.573383092880249e-05 0.0 0.0 0.0 0.0
3.069 0.28780221939086914 0.868049681186676 5.78761100769043e-05 8.127093315124512e-05 0.0 0.0 0.0 0.0
3.07 0.30437618494033813 0.8634299635887146 5.161110311746597e-05 4.583131521940231e-05 0.0 0.0 0.0 0.0
3.071 0.31724393367767334 0.8531765341758728 6.205402314662933e-05 7.326621562242508e-05 0.0 0.0 0.0 0.0
3.072 0.3330174684524536 0.8483316898345947 9.809620678424835e-06 3.1297095119953156e-05 0.0 0.0 0.0 0.0
3.073 0.3489935100078583 0.8367172479629517 1.9453465938568115e-05 3.6071985960006714e-05 0.0 0.0 0.0 0.0
3.074 0.3661222755908966 0.8316114544868469 2.3691914975643158e-05 4.872120916843414e-05 0.0 0.0 0.0 0.0
3.075 0.3812941312789917 0.8235864639282227 5.507189780473709e-05 5.2172690629959106e-05 0.0 0.0 0.0 0.0
3.076 0.3924703299999237 0.812427818775177 4.7800131142139435e-05 5.739368498325348e-05 0.0 0.0 0.0 0.0
3.077 0.4085363447666168 0.8051965236663818 2.258550375699997e-05 9.846501052379608e-05 0.0 0.0 0.0 0.0
3.078 0.42032507061958313 0.7978812456130981 3.60291451215744e-05 5.847308784723282e-05 0.0 0.0 0.0 0.0
3.079 0.43255677819252014 0.787916898727417 5.568191409111023e-05 6.984826177358627e-05 0.0 0.0 0.0 0.0
3.08 0.4514181613922119 0.7758803367614746 2.1560117602348328e-05 3.205239772796631e-05 0.0 0.0 0.0 0.0
3.081 0.46645691990852356 0.766170084476471 -1.4143064618110657e-05 4.642270505428314e-05 0.0 0.0 0.0 0.0
3.082 0.4788456857204437 0.7569103240966797 4.884134978055954e-05 9.750574827194214e-05 0.0 0.0 0.0 0.0
3.083 0.49132201075553894 0.7460060715675354 7.990747690200806e-06 4.424620419740677e-05 0.0 0.0 0.0 0.0
3.084 0.5044673681259155 0.7355569005012512 1.7177313566207886e-05 9.411294013261795e-05 0.0 0.0 0.0 0.0
3.085 0.5197707414627075 0.7225888967514038 1.3606622815132141e-05 4.170183092355728e-05 0.0 0.0 0.0 0.0
3.086 0.5306011438369751 0.7119046449661255 4.1117891669273376e-05 6.95968046784401e-05 0.0 0.0 0.0 0.0
3.087 0.5469368696212769 0.6967671513557434 6.527267396450043e-05 5.801394581794739e-05 0.0 0.0 0.0 0.0
3.088 0.5618159174919128 0.6806138157844543 4.293862730264664e-05 4.6047382056713104e-05 0.0 0.0 0.0 0.0
3.089 0.5764896273612976 0.6677613258361816 6.041768938302994e-05 3.876909613609314e-05 0.0 0.0 0.0 0.0
3.09 0.5862303972244263 0.6537948250770569 -1.651141792535782e-05 6.053410470485687e-05 0.0 0.0 0.0 0.0
3.091 0.5971825122833252 0.6424556970596313 1.0108575224876404e-05 7.739011198282242e-05 0.0 0.0 0.0 0.0
3.092 0.6081821322441101 0.6272734999656677 1.409091055393219e-05 2.8391368687152863e-05 0.0 0.0 0.0 0.0
3.093 0.6191158890724182 0.6126938462257385 6.582774221897125e-05 5.4970383644104004e-05 0.0 0.0 0.0 0.0
3.094 0.6303797364234924 0.5981643199920654 3.426428884267807e-05 7.706880569458008e-05 0.0 0.0 0.0 0.0
3.095 0.6451497077941895 0.5788577198982239 2.0957551896572113e-05 7.287412881851196e-05 0.0 0.0 0.0 0.0
3.096 0.6536755561828613 0.5657621622085571 1.80806964635849e-05 4.019215703010559e-05 0.0 0.0 0.0 0.0
3.097 0.6666484475135803 0.5453135371208191 2.6093795895576477e-05 4.597660154104233e-05 0.0 0.0 0.0 0.0
3.098 0.6750614047050476 0.531037449836731 6.954092532396317e-05 7.834192365407944e-05 0.0 0.0 0.0 0.0
3.099 0.681797444820404 0.5183852910995483 -1.0739080607891083e-05 6.942451000213623e-05 0.0 0.0 0.0 0.0
3.1 0.694913923740387 0.49583691358566284 7.270555943250656e-05 6.509106606245041e-05 0.0 0.0 0.0 0.0
3.101 0.7055681943893433 0.4752751290798187 0.00011518038809299469 0.00010480079799890518 0.0 0.0 0.0 0.0
3.102 0.7126388549804688 0.45859697461128235 1.246575266122818e-05 5.7765282690525055e-05 0.0 0.0 0.0 0.0
3.103 0.7203748822212219 0.44074663519859314 7.361732423305511e-05 0.00010453443974256516 0.0 0.0 0.0 0.0
3.104 0.7297173738479614 0.41921377182006836 -1.1177733540534973e-05 6.186868995428085e-05 0.0 0.0 0.0 0.0
3.105 0.7362569570541382 0.4029006361961365 -2.7352944016456604e-06 5.385652184486389e-05 0.0 0.0 0.0 0.0
3.106 0.7432341575622559 0.3827110826969147 6.773136556148529e-05 0.00011402275413274765 0.0 0.0 0.0 0.0
3.107 0.747639000415802 0.3678646981716156 -2.422463148832321e-05 7.02468678355217e-05 0.0 0.0 0.0 0.0
3.108 0.7563698291778564 0.3458005487918854 9.892415255308151e-05 4.052650183439255e-05 0.0 0.0 0.0 0.0
3.109 0.760162353515625 0.32487305998802185 3.325100988149643e-05 4.613865166902542e-05 0.0 0.0 0.0 0.0
3.11 0.7637825012207031 0.3071426749229431 -1.9370578229427338e-05 4.3502077460289e-05 0.0 0.0 0.0 0.0
3.111 0.7700674533843994 0.2810766398906708 3.3103860914707184e-05 0.00010364502668380737 0.0 0.0 0.0 0.0
3.112 0.7741179466247559 0.26237159967422485 9.375344961881638e-05 6.570480763912201e-05 0.0 0.0 0.0 0.0
3.113 0.7774035334587097 0.2436283677816391 8.524954319000244e-05 6.830599159002304e-05 0.0 0.0 0.0 0.0
3.114 0.7802079319953918 0.22055846452713013 5.0883740186691284e-05 0.00013233721256256104 0.0 0.0 0.0 0.0
3.115 0.7832052707672119 0.195659339427948 4.3490901589393616e-05 0.00014274660497903824 0.0 0.0 0.0 0.0
3.116 0.7850064039230347 0.17854811251163483 3.91155481338501e-08 1.851748675107956e-05 0.0 0.0 0.0 0.0
3.117 0.7857199311256409 0.15812934935092926 -1.3887882232666016e-05 3.7196092307567596e-05 0.0 0.0 0.0 0.0
3.118 0.7849850654602051 0.13701632618904114 1.8541701138019562e-05 0.00012230221182107925 0.0 0.0 0.0 0.0
3.119 0.7866330146789551 0.11319541186094284 5.4922886192798615e-05 0.0001275632530450821 0.0 0.0 0.0 0.0
3.12 0.7853417992591858 0.09083385765552521 9.49222594499588e-05 7.039867341518402e-05 0.0 0.0 0.0 0.0
3.121 0.7862101793289185 0.06825138628482819 5.066767334938049e-05 1.093745231628418e-05 0.0 0.0 0.0 0.0
3.122 0.7835483551025391 0.04480738192796707 3.584660589694977e-06 0.00010825507342815399 0.0 0.0 0.0 0.0
3.123 0.7809031009674072 0.025315269827842712 1.158006489276886e-05 6.969273090362549e-05 0.0 0.0 0.0 0.0
3.124 0.7781949639320374 0.00412389449775219 5.110260099172592e-05 0.00013601593673229218 0.0 0.0 0.0 0.0
3.125 0.7756078243255615 -0.017068207263946533 9.936559945344925e-05 0.00010251346975564957 0.0 0.0 0.0 0.0
3.126 0.7712575793266296 -0.037856392562389374 8.383858948945999e-05 0.00010385643690824509 0.0 0.0 0.0 0.0
3.127 0.7666520476341248 -0.061707764863967896 5.92060387134552e-05 4.306994378566742e-05 0.0 0.0 0.0 0.0
3.128 0.7608184814453125 -0.08481153845787048 6.148312240839005e-05 0.00014478527009487152 0.0 0.0 0.0 0.0
3.129 0.7559086084365845 -0.10519986599683762 -1.8174760043621063e-05 5.29726967215538e-05 0.0 0.0 0.0 0.0
3.13 0.7494124174118042 -0.12649290263652802 1.7168931663036346e-05 7.492676377296448e-05 0.0 0.0 0.0 0.0
3.131 0.742321789264679 -0.15040704607963562 8.317269384860992e-05 6.644893437623978e-05 0.0 0.0 0.0 0.0
3.132 0.734584629535675 -0.1664734184741974 7.721316069364548e-05 4.733819514513016e-05 0.0 0.0 0.0 0.0
3.133 0.7277740836143494 -0.1866001933813095 2.7132220566272736e-05 1.8878839910030365e-05 0.0 0.0 0.0 0.0
3.134 0.719269335269928 -0.20646660029888153 7.691513746976852e-05 0.00013982318341732025 0.0 0.0 0.0 0.0
3.135 0.7093183994293213 -0.2294444888830185 1.0074116289615631e-05 5.966797471046448e-05 0.0 0.0 0.0 0.0
3.136 0.6988464593887329 -0.25088149309158325 7.846951484680176e-05 0.00011571962386369705 0.0 0.0 0.0 0.0
3.137 0.6893754005432129 -0.2704586684703827 -2.7455389499664307e-05 7.323641330003738e-05 0.0 0.0 0.0 0.0
3.138 0.6780478358268738 -0.2905416786670685 9.909458458423615e-05 7.140170782804489e-05 0.0 0.0 0.0 0.0
3.139 0.6683576107025146 -0.3076655864715576 -1.7461366951465607e-05 3.6100856959819794e-05 0.0 0.0 0.0 0.0
3.14 0.655963122844696 -0.326524019241333 -3.817584365606308e-05 8.560344576835632e-05 0.0 0.0 0.0 0.0
3.141 0.6434838771820068 -0.3446727991104126 6.076693534851074e-05 0.00011610519140958786 0.0 0.0 0.0 0.0
3.142 0.6315957307815552 -0.3630309998989105 2.4922192096710205e-05 1.51023268699646e-05 0.0 0.0 0.0 0.0
3.143 0.6169701218605042 -0.38192570209503174 8.191540837287903e-05 7.606204599142075e-05 0.0 0.0 0.0 0.0
3.144 0.6026486158370972 -0.4013112783432007 7.214397192001343e-05 8.693244308233261e-05 0.0 0.0 0.0 0.0
3.145 0.5884804129600525 -0.4179534316062927 2.502184361219406e-05 0.00013176724314689636 0.0 0.0 0.0 0.0
3.146 0.5736103653907776 -0.43420103192329407 4.509463906288147e-06 7.463712245225906e-05 0.0 0.0 0.0 0.0
3.147 0.5571916699409485 -0.4525143802165985 8.120853453874588e-05 8.945818990468979e-05 0.0 0.0 0.0 0.0
3.148 0.5443310141563416 -0.46672773361206055 4.672352224588394e-05 0.00012519210577011108 0.0 0.0 0.0 0.0
3.149 0.5292272567749023 -0.4815393090248108 1.1296011507511139e-05 3.61073762178421e-05 0.0 0.0 0.0 0.0
3.15 0.5130563974380493 -0.4953995645046234 7.809232920408249e-05 5.128420889377594e-05 0.0 0.0 0.0 0.0
3.151 0.49802765250205994 -0.5085415244102478 6.851647049188614e-05 8.88211652636528e-05 0.0 0.0 0.0 0.0
3.152 0.4803723394870758 -0.5235147476196289 3.378093242645264e-05 7.570907473564148e-05 0.0 0.0 0.0 0.0
3.153 0.46063682436943054 -0.5386320352554321 1.8666498363018036e-05 3.135576844215393e-05 0.0 0.0 0.0 0.0
3.154 0.4456274211406708 -0.5508180260658264 6.551481783390045e-05 4.329904913902283e-05 0.0 0.0 0.0 0.0
3.155 0.4257009029388428 -0.5650791525840759 -9.381212294101715e-06 7.36340880393982e-05 0.0 0.0 0.0 0.0
3.156 0.4049905836582184 -0.5772565603256226 -1.757405698299408e-06 0.00011541508138179779 0.0 0.0 0.0 0.0
3.157 0.3896714448928833 -0.587746262550354 -2.240203320980072e-05 0.0001270035281777382 0.0 0.0 0.0 0.0
3.158 0.3751750886440277 -0.5966827869415283 5.0572678446769714e-05 3.3309683203697205e-05 0.0 0.0 0.0 0.0
3.159 0.3552657663822174 -0.6083717942237854 3.572087734937668e-05 3.73227521777153e-05 0.0 0.0 0.0 0.0
3.16 0.3331812024116516 -0.6202481389045715 5.683861672878265e-06 4.821456968784332e-05 0.0 0.0 0.0 0.0
3.161 0.3151140809059143 -0.6290228366851807 5.806516855955124e-05 0.00010923948138952255 0.0 0.0 0.0 0.0
3.162 0.29526859521865845 -0.6384739279747009 1.4799647033214569e-05 0.0001270342618227005 0.0 0.0 0.0 0.0
3.163 0.2766132950782776 -0.6466672420501709 5.1326118409633636e-05 9.755231440067291e-05 0.0 0.0 0.0 0.0
3.164 0.25871485471725464 -0.6543871760368347 -1.0201707482337952e-05 8.371938019990921e-05 0.0 0.0 0.0 0.0
3.165 0.24144090712070465 -0.6598678827285767 -3.3546239137649536e-06 5.1349401473999023e-05 0.0 0.0 0.0 0.0
3.166 0.21792814135551453 -0.6683449149131775 1.0399147868156433e-05 0.00012126564979553223 0.0 0.0 0.0 0.0
3.167 0.1987493932247162 -0.6745207905769348 7.403641939163208e-05 5.51026314496994e-05 0.0 0.0 0.0 0.0
3.168 0.17686116695404053 -0.6833008527755737 6.709340959787369e-05 6.399955600500107e-05 0.0 0.0 0.0 0.0
3.169 0.16210445761680603 -0.6861029267311096 -3.3670105040073395e-05 7.45430588722229e-05 0.0 0.0 0.0 0.0
3.17 0.13949695229530334 -0.6909829378128052 8.321274071931839e-05 9.88868996500969e-05 0.0 0.0 0.0 0.0
3.171 0.12153318524360657 -0.6963980197906494 3.223493695259094e-05 0.0001247841864824295 0.0 0.0 0.0 0.0
3.172 0.10135850310325623 -0.699609100818634 7.515121251344681e-05 8.373614400625229e-05 0.0 0.0 0.0 0.0
3.173 0.08116702735424042 -0.7023707032203674 1.2616626918315887e-05 2.9602088034152985e-05 0.0 0.0 0.0 0.0
3.174 0.05781377851963043 -0.7064937353134155 -2.2011809051036835e-05 9.197555482387543e-05 0.0 0.0 0.0 0.0
3.175 0.03891001269221306 -0.7084844708442688 4.968605935573578e-05 0.00011398922652006149 0.0 0.0 0.0 0.0
3.176 0.020296288654208183 -0.7104313969612122 -1.0641291737556458e-05 5.266163498163223e-05 0.0 0.0 0.0 0.0
3.177 0.0014687664806842804 -0.7121711373329163 8.02166759967804e-05 5.42541965842247e-05 0.0 0.0 0.0 0.0
3.178 -0.014577708207070827 -0.7128511071205139 -2.0479783415794373e-05 5.2611343562603e-05 0.0 0.0 0.0 0.0
3.179 -0.03722469136118889 -0.7137215733528137 -1.2579374015331268e-05 9.760167449712753e-05 0.0 0.0 0.0 0.0
3.18 -0.05742056295275688 -0.7172911763191223 1.5039928257465363e-05 0.00013794656842947006 0.0 0.0 0.0 0.0
3.181 -0.07396812736988068 -0.7134383320808411 5.847681313753128e-05 3.810599446296692e-05 0.0 0.0 0.0 0.0
3.182 -0.09631551802158356 -0.7128224968910217 2.405606210231781e-05 4.449766129255295e-05 0.0 0.0 0.0 0.0
3.183 -0.11391721665859222 -0.7127370238304138 1.51144340634346e-05 0.00010906625539064407 0.0 0.0 0.0 0.0
3.184 -0.13426992297172546 -0.7092987298965454 1.2438744306564331e-05 2.856925129890442e-05 0.0 0.0 0.0 0.0
3.185 -0.15063610672950745 -0.7100101709365845 -2.7874484658241272e-05 4.70820814371109e-05 0.0 0.0 0.0 0.0
3.186 -0.1676555871963501 -0.7062616944313049 5.2986666560173035e-05 8.700229227542877e-05 0.0 0.0 0.0 0.0
3.187 -0.18534283339977264 -0.704469621181488 6.26416876912117e-05 0.00010880827903747559 0.0 0.0 0.0 0.0
3.188 -0.20425169169902802 -0.7011986970901489 5.158316344022751e-05 2.5848858058452606e-05 0.0 0.0 0.0 0.0
3.189 -0.22279873490333557 -0.6969075798988342 9.376835078001022e-05 6.825476884841919e-05 0.0 0.0 0.0 0.0
3.19 -0.2459990531206131 -0.6922016739845276 3.1674280762672424e-06 6.499607115983963e-05 0.0 0.0 0.0 0.0
3.191 -0.26294320821762085 -0.6876970529556274 1.4071352779865265e-05 4.977919161319733e-05 0.0 0.0 0.0 0.0
3.192 -0.2777324318885803 -0.6834074854850769 -4.024244844913483e-06 0.00012519676238298416 0.0 0.0 0.0 0.0
3.193 -0.2945347726345062 -0.68001389503479 7.340312004089355e-05 0.00013380125164985657 0.0 0.0 0.0 0.0
3.194 -0.31241580843925476 -0.6747481822967529 8.42846930027008e-06 0.00013870373368263245 0.0 0.0 0.0 0.0
3.195 -0.3285371661186218 -0.6702958941459656 5.749240517616272e-05 0.00010543502867221832 0.0 0.0 0.0 0.0
3.196 -0.34555089473724365 -0.6635900139808655 6.527546793222427e-05 5.209539085626602e-05 0.0 0.0 0.0 0.0
3.197 -0.35874661803245544 -0.6573922634124756 -4.869140684604645e-05 2.83755362033844e-05 0.0 0.0 0.0 0.0
3.198 -0.3740954101085663 -0.6523378491401672 1.4615245163440704e-05 1.2530013918876648e-05 0.0 0.0 0.0 0.0
3.199 -0.3919667601585388 -0.6447222828865051 -3.555137664079666e-05 9.238161146640778e-05 0.0 0.0 0.0 0.0
3.2 -0.4092123210430145 -0.6363276839256287 1.583993434906006e-05 5.906354635953903e-05 0.0 0.0 0.0 0.0
3.201 -0.4248642921447754 -0.6298298835754395 2.7677975594997406e-05 3.275927156209946e-05 0.0 0.0 0.0 0.0
3.202 -0.4403217136859894 -0.6225197315216064 -1.744180917739868e-05 0.00012077298015356064 0.0 0.0 0.0 0.0
3.203 -0.45494407415390015 -0.6150498986244202 -7.992610335350037e-06 8.900929242372513e-05 0.0 0.0 0.0 0.0
3.204 -0.46940693259239197 -0.6088793277740479 3.4794211387634277e-06 7.026642560958862e-05 0.0 0.0 0.0 0.0
3.205 -0.4822104871273041 -0.6003163456916809 7.032882422208786e-05 6.642285734415054e-05 0.0 0.0 0.0 0.0
3.206 -0.49738308787345886 -0.5900434851646423 -8.495524525642395e-06 0.00014381948858499527 0.0 0.0 0.0 0.0
3.207 -0.5114564895629883 -0.5804887413978577 8.375383913516998e-06 5.43203204870224e-05 0.0 0.0 0.0 0.0
3.208 -0.5270226001739502 -0.5724729299545288 -1.4028511941432953e-05 7.970072329044342e-05 0.0 0.0 0.0 0.0
3.209 -0.5399016737937927 -0.5628739595413208 4.93144616484642e-05 5.218200385570526e-05 0.0 0.0 0.0 0.0
3.21 -0.5556368231773376 -0.5513092279434204 -1.814868301153183e-05 5.326326936483383e-05 0.0 0.0 0.0 0.0
3.211 -0.5639322400093079 -0.5459442138671875 6.476789712905884e-05 9.950250387191772e-05 0.0 0.0 0.0 0.0
3.212 -0.577315092086792 -0.5362207293510437 -3.746524453163147e-05 3.9946287870407104e-05 0.0 0.0 0.0 0.0
3.213 -0.5911918878555298 -0.5252134203910828 -2.9426999390125275e-05 6.186589598655701e-05 0.0 0.0 0.0 0.0
3.214 -0.6023034453392029 -0.5153735876083374 -1.343991607427597e-05 7.890630513429642e-05 0.0 0.0 0.0 0.0
3.215 -0.6144243478775024 -0.5052783489227295 2.3764558136463165e-05 0.00013175234198570251 0.0 0.0 0.0 0.0
3.216 -0.6242122054100037 -0.4948326349258423 3.848224878311157e-06 9.240582585334778e-05 0.0 0.0 0.0 0.0
3.217 -0.6406257748603821 -0.4801217019557953 -4.279427230358124e-06 2.8170645236968994e-05 0.0 0.0 0.0 0.0
3.218 -0.6477186679840088 -0.47399431467056274 -3.327522426843643e-05 6.832089275121689e-05 0.0 0.0 0.0 0.0
3.219 -0.6602421402931213 -0.4615040719509125 -2.572033554315567e-05 6.438978016376495e-05 0.0 0.0 0.0 0.0
3.22 -0.6724449992179871 -0.44948211312294006 -2.7175061404705048e-05 0.00010432582348585129 0.0 0.0 0.0 0.0
3.221 -0.6813559532165527 -0.4388471245765686 1.3072974979877472e-05 0.00014959927648305893 0.0 0.0 0.0 0.0
3.222 -0.6922411918640137 -0.4263920783996582 4.896335303783417e-05 0.0001443810760974884 0.0 0.0 0.0 0.0
3.223 -0.7006638646125793 -0.4176443815231323 -6.834045052528381e-06 2.9921531677246094e-05 0.0 0.0 0.0 0.0
3.224 -0.7094757556915283 -0.40650150179862976 -3.858935087919235e-05 6.4801424741745e-05 0.0 0.0 0.0 0.0
3.225 -0.7188920974731445 -0.39383092522621155 -6.922706961631775e-05 7.30687752366066e-05 0.0 0.0 0.0 0.0
3.226 -0.727776825428009 -0.3840959966182709 1.043081283569336e-07 0.00012639444321393967 0.0 0.0 0.0 0.0
3.227 -0.736411988735199 -0.3712417185306549 -6.039440631866455e-05 9.135808795690536e-05 0.0 0.0 0.0 0.0
3.228 -0.7439215779304504 -0.3607395887374878 1.814216375350952e-05 5.5478885769844055e-05 0.0 0.0 0.0 0.0
3.229 -0.7548666596412659 -0.3444119989871979 5.307607352733612e-06 0.0001217816025018692 0.0 0.0 0.0 0.0
3.23 -0.7636922001838684 -0.33021852374076843 -1.86823308467865e-05 0.0001341095194220543 0.0 0.0 0.0 0.0
3.231 -0.7711818814277649 -0.3199281394481659 4.191230982542038e-05 0.00011615920811891556 0.0 0.0 0.0 0.0
3.232 -0.7783088684082031 -0.30679482221603394 -3.5186298191547394e-05 9.157694876194e-05 0.0 0.0 0.0 0.0
3.233 -0.785369873046875 -0.29457348585128784 5.047302693128586e-05 0.00010552629828453064 0.0 0.0 0.0 0.0
3.234 -0.7905455231666565 -0.2846040725708008 -3.2638199627399445e-05 1.8222257494926453e-05 0.0 0.0 0.0 0.0
3.235 -0.7972179651260376 -0.27268922328948975 1.306924968957901e-05 1.7503276467323303e-05 0.0 0.0 0.0 0.0
3.236 -0.8036444783210754 -0.25966915488243103 2.1381303668022156e-05 0.00011247675865888596 0.0 0.0 0.0 0.0
3.237 -0.8099942207336426 -0.24533072113990784 -8.833594620227814e-06 0.000142756849527359 0.0 0.0 0.0 0.0
3.238 -0.8161063194274902 -0.23262305557727814 3.593508154153824e-05 -3.6973506212234497e-07 0.0 0.0 0.0 0.0
3.239 -0.8227701783180237 -0.219279944896698 3.4594908356666565e-05 6.49699941277504e-05 0.0 0.0 0.0 0.0
3.24 -0.8275659680366516 -0.2082417905330658 -2.9453076422214508e-05 0.00011469144374132156 0.0 0.0 0.0 0.0
3.241 -0.8318480253219604 -0.1988963484764099 -1.670699566602707e-05 0.00010469276458024979 0.0 0.0 0.0 0.0
3.242 -0.8363013863563538 -0.18645787239074707 1.4940276741981506e-05 3.655068576335907e-05 0.0 0.0 0.0 0.0
3.243 -0.8408964276313782 -0.17276957631111145 -5.942024290561676e-05 8.629169315099716e-05 0.0 0.0 0.0 0.0
3.244 -0.844724178314209 -0.16357578337192535 -4.173349589109421e-05 7.035862654447556e-05 0.0 0.0 0.0 0.0
3.245 -0.8501434326171875 -0.1460578292608261 -2.5597400963306427e-05 9.52715054154396e-05 0.0 0.0 0.0 0.0
3.246 -0.8546536564826965 -0.1315806806087494 -1.1150725185871124e-05 3.573298454284668e-05 0.0 0.0 0.0 0.0
3.247 -0.85886150598526 -0.12049756944179535 2.2125430405139923e-05 6.93146139383316e-05 0.0 0.0 0.0 0.0
3.248 -0.86284339427948 -0.1067497581243515 2.851337194442749e-05 0.00013144593685865402 0.0 0.0 0.0 0.0
3.249 -0.865712583065033 -0.09240992367267609 5.4487958550453186e-05 8.401088416576385e-05 0.0 0.0 0.0 0.0
3.25 -0.8684630990028381 -0.08625427633523941 3.332924097776413e-05 0.00011450797319412231 0.0 0.0 0.0 0.0
3.251 -0.8725516200065613 -0.07126831263303757 2.3768283426761627e-05 0.00010045710951089859 0.0 0.0 0.0 0.0
3.252 -0.8741281628608704 -0.06122507527470589 -7.605832070112228e-05 7.177982479333878e-05 0.0 0.0 0.0 0.0
3.253 -0.8779822587966919 -0.04755547642707825 2.7883797883987427e-06 0.00013465061783790588 0.0 0.0 0.0 0.0
3.254 -0.8796095252037048 -0.035507023334503174 -8.472707122564316e-05 8.354708552360535e-05 0.0 0.0 0.0 0.0
3.255 -0.8821939826011658 -0.021166587248444557 -2.2188760340213776e-05 4.8745423555374146e-05 0.0 0.0 0.0 0.0
3.256 -0.8845808506011963 -0.009792215190827847 -1.3850629329681396e-05 0.00012570712715387344 0.0 0.0 0.0 0.0
3.257 -0.8872418403625488 0.004338330589234829 -1.9159168004989624e-05 3.411248326301575e-05 0.0 0.0 0.0 0.0
3.258 -0.8890686631202698 0.01588742434978485 3.91155481338501e-08 0.00010413583368062973 0.0 0.0 0.0 0.0
3.259 -0.8907633423805237 0.028679607436060905 -4.2292289435863495e-05 2.2835098206996918e-05 0.0 0.0 0.0 0.0
3.26 -0.892302393913269 0.04313649237155914 1.420639455318451e-05 9.651202708482742e-05 0.0 0.0 0.0 0.0
3.261 -0.8930540680885315 0.04808051139116287 -4.128459841012955e-05 0.00011123716831207275 0.0 0.0 0.0 0.0
3.262 -0.8945225477218628 0.06313692033290863 -8.388422429561615e-06 9.412597864866257e-05 0.0 0.0 0.0 0.0
3.263 -0.8950731754302979 0.0774456113576889 -4.100799560546875e-05 6.298534572124481e-06 0.0 0.0 0.0 0.0
3.264 -0.8957067131996155 0.09499263763427734 -1.292303204536438e-05 2.2720545530319214e-05 0.0 0.0 0.0 0.0
3.265 -0.8970865607261658 0.10236237198114395 3.0081719160079956e-05 4.3087638914585114e-05 0.0 0.0 0.0 0.0
3.266 -0.8980430960655212 0.11208902299404144 -6.146728992462158e-08 9.788665920495987e-05 0.0 0.0 0.0 0.0
3.267 -0.8975304961204529 0.12881526350975037 -3.1482428312301636e-05 6.386358290910721e-05 0.0 0.0 0.0 0.0
3.268 -0.8980842232704163 0.1366739124059677 3.59145924448967e-05 7.339287549257278e-05 0.0 0.0 0.0 0.0
3.269 -0.8980083465576172 0.15006698668003082 -6.016343832015991e-07 0.00012409035116434097 0.0 0.0 0.0 0.0
3.27 -0.897493839263916 0.16138070821762085 -3.894604742527008e-05 2.2707507014274597e-05 0.0 0.0 0.0 0.0
3.271 -0.897311806678772 0.17197392880916595 -4.048924893140793e-05 0.0001093987375497818 0.0 0.0 0.0 0.0
3.272 -0.8960323333740234 0.18914374709129333 -6.151385605335236e-06 3.676023334264755e-05 0.0 0.0 0.0 0.0
3.273 -0.8949682712554932 0.20265942811965942 -2.1472573280334473e-05 3.7536025047302246e-05 0.0 0.0 0.0 0.0
3.274 -0.8935859203338623 0.2157687246799469 -5.572568625211716e-05 5.035474896430969e-05 0.0 0.0 0.0 0.0
3.275 -0.8937006592750549 0.22426660358905792 2.477318048477173e-07 6.485916674137115e-05 0.0 0.0 0.0 0.0
3.276 -0.8920354247093201 0.24129557609558105 4.1338615119457245e-05 6.40619546175003e-05 0.0 0.0 0.0 0.0
3.277 -0.8898895382881165 0.25087985396385193 2.923421561717987e-05 9.85320657491684e-05 0.0 0.0 0.0 0.0
3.278 -0.8886717557907104 0.25943976640701294 -8.143018931150436e-05 6.249919533729553e-05 0.0 0.0 0.0 0.0
3.279 -0.885004460811615 0.2751695215702057 -0.00011277105659246445 3.402587026357651e-05 0.0 0.0 0.0 0.0
3.28 -0.8843634724617004 0.28714969754219055 -2.4177134037017822e-06 7.001310586929321e-05 0.0 0.0 0.0 0.0
3.281 -0.882353663444519 0.2971097230911255 -4.084501415491104e-05 9.194016456604004e-06 0.0 0.0 0.0 0.0
3.282 -0.8781219720840454 0.314118355512619 -2.2591091692447662e-05 2.5274232029914856e-05 0.0 0.0 0.0 0.0
3.283 -0.8767863512039185 0.32369428873062134 -6.726942956447601e-06 7.198099046945572e-05 0.0 0.0 0.0 0.0
3.284 -0.8744921684265137 0.33510416746139526 -2.0303763449192047e-05 0.00013556424528360367 0.0 0.0 0.0 0.0
3.285 -0.8710647821426392 0.3483516275882721 -2.9022805392742157e-05 5.4642558097839355e-05 0.0 0.0 0.0 0.0
3.286 -0.8681274056434631 0.3559621572494507 -9.997934103012085e-05 6.744544953107834e-05 0.0 0.0 0.0 0.0
3.287 -0.8671698570251465 0.3651096224784851 -2.207234501838684e-06 6.19012862443924e-05 0.0 0.0 0.0 0.0
3.288 -0.8608042597770691 0.3799251914024353 -8.660741150379181e-05 6.538815796375275e-05 0.0 0.0 0.0 0.0
3.289 -0.8570012450218201 0.39313867688179016 -1.4358200132846832e-05 6.574578583240509e-05 0.0 0.0 0.0 0.0
3.29 -0.8520873785018921 0.40716803073883057 -6.80210068821907e-05 0.00010641571134328842 0.0 0.0 0.0 0.0
3.291 -0.8486595153808594 0.4164202809333801 -6.505567580461502e-05 5.5699609220027924e-05 0.0 0.0 0.0 0.0
3.292 -0.8443276882171631 0.4316786527633667 -3.727339208126068e-05 5.006510764360428e-05 0.0 0.0 0.0 0.0
3.293 -0.8404807448387146 0.44152331352233887 -2.8024427592754364e-05 0.00013226550072431564 0.0 0.0 0.0 0.0
3.294 -0.8365418314933777 0.4513781666755676 -0.00010976195335388184 4.3876469135284424e-05 0.0 0.0 0.0 0.0
3.295 -0.832848310470581 0.4613862931728363 -1.453980803489685e-05 7.556285709142685e-05 0.0 0.0 0.0 0.0
3.296 -0.8273975849151611 0.4726456105709076 -7.596239447593689e-05 0.00012693088501691818 0.0 0.0 0.0 0.0
3.297 -0.821413516998291 0.4843730330467224 -7.216352969408035e-05 0.00014937389642000198 0.0 0.0 0.0 0.0
3.298 -0.8162795305252075 0.49575796723365784 -2.2654421627521515e-05 8.357781916856766e-05 0.0 0.0 0.0 0.0
3.299 -0.809941828250885 0.5077373385429382 -4.084128886461258e-05 5.2959658205509186e-05 0.0 0.0 0.0 0.0
3.3 -0.8083012104034424 0.5201174020767212 3.8053840398788452e-06 4.438869655132294e-05 0.0 0.0 0.0 0.0
3.301 -0.7992038726806641 0.5294219255447388 -7.374025881290436e-05 5.056988447904587e-05 0.0 0.0 0.0 0.0
3.302 -0.792436957359314 0.5424665212631226 -3.342609852552414e-05 0.00011513102799654007 0.0 0.0 0.0 0.0
3.303 -0.7899299263954163 0.5488924980163574 -1.6259029507637024e-05 9.526778012514114e-05 0.0 0.0 0.0 0.0
3.304 -0.7813840508460999 0.5617771744728088 -5.055684596300125e-05 4.179496318101883e-05 0.0 0.0 0.0 0.0
3.305 -0.7747282385826111 0.5714924931526184 -8.558575063943863e-05 4.494562745094299e-05 0.0 0.0 0.0 0.0
3.306 -0.7677638530731201 0.5820257067680359 -0.00011770334094762802 3.489851951599121e-05 0.0 0.0 0.0 0.0
3.307 -0.7595492005348206 0.5936338901519775 -0.00011520832777023315 7.475446909666061e-05 0.0 0.0 0.0 0.0
3.308 -0.7528408765792847 0.604913055896759 -7.078982889652252e-05 5.200132727622986e-05 0.0 0.0 0.0 0.0
3.309 -0.7440267205238342 0.6165463924407959 -3.045797348022461e-05 1.493748277425766e-05 0.0 0.0 0.0 0.0
3.31 -0.7375766634941101 0.6264942288398743 -0.0001327330246567726 9.264610707759857e-05 0.0 0.0 0.0 0.0
3.311 -0.7315278649330139 0.6358232498168945 -8.607190102338791e-05 0.0001609809696674347 0.0 0.0 0.0 0.0
3.312 -0.7252428531646729 0.6421906352043152 -8.183438330888748e-05 8.495151996612549e-05 0.0 0.0 0.0 0.0
3.313 -0.7174408435821533 0.6554255485534668 -3.6572106182575226e-05 9.891018271446228e-05 0.0 0.0 0.0 0.0
3.314 -0.7112977504730225 0.6615537405014038 -0.00010811164975166321 5.564466118812561e-05 0.0 0.0 0.0 0.0
3.315 -0.6982607841491699 0.6759006381034851 -7.740780711174011e-05 1.4897435903549194e-05 0.0 0.0 0.0 0.0
3.316 -0.6914650201797485 0.6842270493507385 -8.38814303278923e-05 0.00013756006956100464 0.0 0.0 0.0 0.0
3.317 -0.6814462542533875 0.6949397325515747 -5.374103784561157e-05 0.000126606784760952 0.0 0.0 0.0 0.0
3.318 -0.6720194220542908 0.7050818204879761 -8.47112387418747e-05 0.00014108233153820038 0.0 0.0 0.0 0.0
3.319 -0.6597987413406372 0.7164432406425476 -0.0001186467707157135 3.9946287870407104e-05 0.0 0.0 0.0 0.0
3.32 -0.6516405940055847 0.7250670790672302 -0.0001391032710671425 0.0001119859516620636 0.0 0.0 0.0 0.0
3.321 -0.6453404426574707 0.7315680980682373 -0.0001265406608581543 0.00013245642185211182 0.0 0.0 0.0 0.0
3.322 -0.6357477307319641 0.7402508854866028 -4.4912099838256836e-05 0.00011415872722864151 0.0 0.0 0.0 0.0
3.323 -0.6314340829849243 0.7453212141990662 -7.54697248339653e-05 0.00010134279727935791 0.0 0.0 0.0 0.0
3.324 -0.6225771307945251 0.7516641616821289 -7.727276533842087e-05 7.591862231492996e-05 0.0 0.0 0.0 0.0
3.325 -0.6073560118675232 0.7663581371307373 -5.9699639678001404e-05 0.00015904754400253296 0.0 0.0 0.0 0.0
3.326 -0.5967754125595093 0.7743558287620544 -0.0001321546733379364 3.3425167202949524e-05 0.0 0.0 0.0 0.0
3.327 -0.5794429779052734 0.7878496050834656 -0.00010266434401273727 6.199348717927933e-05 0.0 0.0 0.0 0.0
3.328 -0.5753350257873535 0.7907140254974365 -3.3503398299217224e-05 9.897816926240921e-05 0.0 0.0 0.0 0.0
3.329 -0.5639967322349548 0.7994621992111206 -0.00012902170419692993 6.158556789159775e-05 0.0 0.0 0.0 0.0
3.33 -0.5587379932403564 0.8046625256538391 -0.0001500900834798813 0.0001066913828253746 0.0 0.0 0.0 0.0
3.331 -0.5481650233268738 0.8120847344398499 -0.00014031212776899338 2.6174820959568024e-05 0.0 0.0 0.0 0.0
3.332 -0.5316788554191589 0.823230504989624 -2.7134083211421967e-05 9.088590741157532e-05 0.0 0.0 0.0 0.0
3.333 -0.5195730328559875 0.8289473056793213 -0.00010649673640727997 -1.8413178622722626e-05 0.0 0.0 0.0 0.0
3.334 -0.5092445611953735 0.83595210313797 -7.576029747724533e-05 5.1225535571575165e-05 0.0 0.0 0.0 0.0
3.335 -0.49238675832748413 0.8466536998748779 -0.00015814509242773056 0.00010669790208339691 0.0 0.0 0.0 0.0
3.336 -0.4849344491958618 0.8529962301254272 -0.0001225816085934639 0.0001080445945262909 0.0 0.0 0.0 0.0
3.337 -0.4755583703517914 0.857001543045044 -0.00017298199236392975 6.344448775053024e-05 0.0 0.0 0.0 0.0
3.338 -0.46442070603370667 0.8635680675506592 -0.00012328755110502243 1.6948208212852478e-05 0.0 0.0 0.0 0.0
3.339 -0.4503132700920105 0.8697081208229065 -5.889497697353363e-05 0.0001731179654598236 0.0 0.0 0.0 0.0
3.34 -0.44016650319099426 0.8761274218559265 -5.481299012899399e-05 7.895473390817642e-05 0.0 0.0 0.0 0.0
3.341 -0.42167583107948303 0.8839555382728577 -0.00013551954180002213 0.0001205960288643837 0.0 0.0 0.0 0.0
3.342 -0.4101511836051941 0.889512836933136 -0.00011060480028390884 0.00010817870497703552 0.0 0.0 0.0 0.0
3.343 -0.3981178104877472 0.8956331610679626 -0.00010642688721418381 -1.2684613466262817e-05 0.0 0.0 0.0 0.0
3.344 -0.38742795586586 0.8987273573875427 -0.00013187993317842484 7.928907871246338e-05 0.0 0.0 0.0 0.0
3.345 -0.3719564974308014 0.9052820801734924 -3.490038216114044e-05 3.6677345633506775e-05 0.0 0.0 0.0 0.0
3.346 -0.36603671312332153 0.90732342004776 -0.0001429971307516098 9.52836126089096e-06 0.0 0.0 0.0 0.0
3.347 -0.34637582302093506 0.9143286347389221 -0.00019898824393749237 0.00015497393906116486 0.0 0.0 0.0 0.0
3.348 -0.34329578280448914 0.915458083152771 -6.045494228601456e-05 0.00016577262431383133 0.0 0.0 0.0 0.0
3.349 -0.324296236038208 0.9223695993423462 -8.123461157083511e-05 4.332512617111206e-06 0.0 0.0 0.0 0.0
3.35 -0.3053106963634491 0.926933765411377 -0.00018188077956438065 7.739569991827011e-05 0.0 0.0 0.0 0.0
3.351 -0.2872867286205292 0.9310700297355652 -0.00016997195780277252 4.9717724323272705e-05 0.0 0.0 0.0 0.0
3.352 -0.2782207429409027 0.9355272054672241 -8.626095950603485e-05 0.00010804831981658936 0.0 0.0 0.0 0.0
3.353 -0.2661055028438568 0.9388068318367004 -0.00018326938152313232 2.871546894311905e-05 0.0 0.0 0.0 0.0
3.354 -0.24826908111572266 0.9430569410324097 -0.00014762673527002335 2.01445072889328e-05 0.0 0.0 0.0 0.0
3.355 -0.2361992597579956 0.944804310798645 -0.00018910225480794907 6.857793778181076e-05 0.0 0.0 0.0 0.0
3.356 -0.22280777990818024 0.9476096630096436 -4.033464938402176e-05 0.0001355232670903206 0.0 0.0 0.0 0.0
3.357 -0.208982914686203 0.9474440217018127 -5.478411912918091e-05 0.00010357517749071121 0.0 0.0 0.0 0.0
3.358 -0.19043821096420288 0.9529324173927307 -0.00018865521997213364 5.623418837785721e-05 0.0 0.0 0.0 0.0
3.359 -0.18088945746421814 0.9535836577415466 -0.00013251043856143951 0.00016274210065603256 0.0 0.0 0.0 0.0
3.36 -0.16136787831783295 0.9537661671638489 -0.0001709265634417534 0.00015661213546991348 0.0 0.0 0.0 0.0
3.361 -0.14609237015247345 0.9584023952484131 -8.014030754566193e-05 8.571706712245941e-05 0.0 0.0 0.0 0.0
3.362 -0.13030527532100677 0.9587178230285645 -0.00021180883049964905 5.2492134273052216e-05 0.0 0.0 0.0 0.0
3.363 -0.12072809040546417 0.9582374691963196 -0.0001993868499994278 -1.9084662199020386e-05 0.0 0.0 0.0 0.0
3.364 -0.10213358700275421 0.9608644843101501 -0.00010199472308158875 0.00012472737580537796 0.0 0.0 0.0 0.0
3.365 -0.08883345872163773 0.9606906771659851 -0.00010421872138977051 7.166992872953415e-05 0.0 0.0 0.0 0.0
3.366 -0.07020703703165054 0.9604974389076233 -9.987317025661469e-05 8.592754602432251e-05 0.0 0.0 0.0 0.0
3.367 -0.05617924779653549 0.9595131278038025 -0.00021078623831272125 -2.5257468223571777e-05 0.0 0.0 0.0 0.0
3.368 -0.040253896266222 0.9588501453399658 -9.706057608127594e-05 0.00015834905207157135 0.0 0.0 0.0 0.0
3.369 -0.026988482102751732 0.9579766988754272 -9.498186409473419e-05 0.00011559948325157166 0.0 0.0 0.0 0.0
3.37 -0.012673438526690006 0.9577343463897705 -0.0002557365223765373 0.00014768075197935104 0.0 0.0 0.0 0.0
3.371 0.0068263160064816475 0.9559905529022217 -8.028093725442886e-05 7.141754031181335e-05 0.0 0.0 0.0 0.0
3.372 0.02157505229115486 0.9584816098213196 -8.356105536222458e-05 3.4365803003311157e-06 0.0 0.0 0.0 0.0
3.373 0.032199613749980927 0.9521681666374207 -8.896645158529282e-05 0.00015064049512147903 0.0 0.0 0.0 0.0
3.374 0.056983571499586105 0.9505952596664429 -0.0002088574692606926 -9.806826710700989e-06 0.0 0.0 0.0 0.0
3.375 0.07485394179821014 0.9478158354759216 -0.0002457527443766594 0.00013899896293878555 0.0 0.0 0.0 0.0
3.376 0.08263286203145981 0.9446893334388733 -0.0002223784103989601 0.00010764133185148239 0.0 0.0 0.0 0.0
3.377 0.0989617332816124 0.942811906337738 -0.000226643867790699 3.700423985719681e-05 0.0 0.0 0.0 0.0
3.378 0.11987106502056122 0.9373283386230469 -0.00022814422845840454 2.180691808462143e-05 0.0 0.0 0.0 0.0
3.379 0.13263855874538422 0.9342219829559326 -0.00017870869487524033 0.00014708656817674637 0.0 0.0 0.0 0.0
3.38 0.1475154012441635 0.9306411147117615 -0.00014184042811393738 5.5186450481414795e-05 0.0 0.0 0.0 0.0
3.381 0.16775305569171906 0.9256601333618164 -0.00017162971198558807 0.00015380606055259705 0.0 0.0 0.0 0.0
3.382 0.18062125146389008 0.921079695224762 -0.00025883689522743225 0.00010795891284942627 0.0 0.0 0.0 0.0
3.383 0.19494988024234772 0.9158132672309875 -0.00010354816913604736 0.00013553351163864136 0.0 0.0 0.0 0.0
3.384 0.21292303502559662 0.9091640710830688 -0.00023512914776802063 7.190648466348648e-05 0.0 0.0 0.0 0.0
3.385 0.22593460977077484 0.9050111174583435 -0.0001684306189417839 2.565421164035797e-05 0.0 0.0 0.0 0.0
3.386 0.23999740183353424 0.8968087434768677 -0.0002481769770383835 0.0001926114782691002 0.0 0.0 0.0 0.0
3.387 0.2588593363761902 0.8909936547279358 -0.00023737270385026932 9.216368198394775e-05 0.0 0.0 0.0 0.0
3.388 0.27626821398735046 0.8823975920677185 -0.0001375759020447731 0.00011061504483222961 0.0 0.0 0.0 0.0
3.389 0.28024816513061523 0.8753628730773926 -0.0002353191375732422 4.2776577174663544e-05 0.0 0.0 0.0 0.0
3.39 0.29823431372642517 0.866847574710846 -0.00022932514548301697 6.843265146017075e-05 0.0 0.0 0.0 0.0
3.391 0.313321977853775 0.8591694831848145 -0.0002519497647881508 2.2868625819683075e-05 0.0 0.0 0.0 0.0
3.392 0.33015257120132446 0.8495318293571472 -0.00021207518875598907 0.00015874207019805908 0.0 0.0 0.0 0.0
3.393 0.34290021657943726 0.8412014245986938 -0.0002142004668712616 0.0001383647322654724 0.0 0.0 0.0 0.0
3.394 0.36300885677337646 0.8320754766464233 -0.0002536224201321602 6.3382089138031e-05 0.0 0.0 0.0 0.0
3.395 0.37213629484176636 0.8252289295196533 -0.00022546295076608658 0.0001574801281094551 0.0 0.0 0.0 0.0
3.396 0.38426944613456726 0.812964141368866 -0.0002042911946773529 0.0001258188858628273 0.0 0.0 0.0 0.0
3.397 0.3986745774745941 0.8072850704193115 -0.0001362403854727745 7.677823305130005e-05 0.0 0.0 0.0 0.0
3.398 0.41581445932388306 0.7953484654426575 -0.00021127983927726746 0.00010711047798395157 0.0 0.0 0.0 0.0
3.399 0.43076252937316895 0.7841410636901855 -0.00022111088037490845 4.547834396362305e-05 0.0 0.0 0.0 0.0
3.4 0.44588884711265564 0.7725858688354492 -0.00022492464631795883 0.00016561802476644516 0.0 0.0 0.0 0.0
3.401 0.4581867456436157 0.7631945610046387 -0.00014982838183641434 0.00015953555703163147 0.0 0.0 0.0 0.0
3.402 0.4747554361820221 0.750167727470398 -0.00013922154903411865 0.00015745125710964203 0.0 0.0 0.0 0.0
3.403 0.4877973794937134 0.7391196489334106 -0.00020953267812728882 5.057826638221741e-05 0.0 0.0 0.0 0.0
3.404 0.5017678141593933 0.7254869937896729 -0.0002859523519873619 0.0001171063631772995 0.0 0.0 0.0 0.0
3.405 0.5127636790275574 0.7137476801872253 -0.0002639610320329666 0.0001119617372751236 0.0 0.0 0.0 0.0
3.406 0.5258506536483765 0.7015278935432434 -0.00014632288366556168 0.00016586203128099442 0.0 0.0 0.0 0.0
3.407 0.5408154129981995 0.6863276362419128 -0.0002669189125299454 2.04332172870636e-05 0.0 0.0 0.0 0.0
3.408 0.547858715057373 0.6736974716186523 -0.00023347605019807816 3.7389807403087616e-05 0.0 0.0 0.0 0.0
3.409 0.5652381181716919 0.6576353907585144 -0.0002248138189315796 0.00013767648488283157 0.0 0.0 0.0 0.0
3.41 0.5789948105812073 0.6440372467041016 -0.00019507389515638351 9.58908349275589e-05 0.0 0.0 0.0 0.0
3.411 0.5900856852531433 0.6300875544548035 -0.00019688718020915985 9.025353938341141e-05 0.0 0.0 0.0 0.0
3.412 0.6001904010772705 0.6165001392364502 -0.00029215216636657715 0.00011849682778120041 0.0 0.0 0.0 0.0
3.413 0.6110202670097351 0.6003620624542236 -0.0001952415332198143 0.00017362646758556366 0.0 0.0 0.0 0.0
3.414 0.6213620901107788 0.5849772095680237 -0.0002600867301225662 0.00022441521286964417 0.0 0.0 0.0 0.0
3.415 0.6326776742935181 0.5705794095993042 -0.0002121003344655037 7.242057472467422e-05 0.0 0.0 0.0 0.0
3.416 0.6410733461380005 0.5553638339042664 -0.0002099955454468727 0.00017737038433551788 0.0 0.0 0.0 0.0
3.417 0.6530816555023193 0.5361244678497314 -0.0003272769972681999 0.0001236647367477417 0.0 0.0 0.0 0.0
3.418 0.6641866564750671 0.5194175839424133 -0.00020396243780851364 0.000180879607796669 0.0 0.0 0.0 0.0
3.419 0.6734331846237183 0.5032508373260498 -0.00015738140791654587 0.0001151813194155693 0.0 0.0 0.0 0.0
3.42 0.6819363832473755 0.4868088364601135 -0.00013213232159614563 0.0001005716621875763 0.0 0.0 0.0 0.0
3.421 0.6932682991027832 0.4625335931777954 -0.00033322907984256744 0.0002061557024717331 0.0 0.0 0.0 0.0
3.422 0.6987751722335815 0.4508109390735626 -0.00013262592256069183 5.3753145039081573e-05 0.0 0.0 0.0 0.0
3.423 0.7053799629211426 0.43311449885368347 -0.00026146695017814636 0.00019478518515825272 0.0 0.0 0.0 0.0
3.424 0.713517963886261 0.41414904594421387 -0.00025068409740924835 3.629270941019058e-05 0.0 0.0 0.0 0.0
3.425 0.720779538154602 0.3969223201274872 -0.00025954190641641617 4.751328378915787e-05 0.0 0.0 0.0 0.0
3.426 0.7281208038330078 0.37546417117118835 -0.00028155185282230377 0.00015746988356113434 0.0 0.0 0.0 0.0
3.427 0.7343112826347351 0.3575108051300049 -0.00025540031492710114 0.00019296444952487946 0.0 0.0 0.0 0.0
3.428 0.7409548759460449 0.3391997814178467 -0.0003267889842391014 7.623899728059769e-05 0.0 0.0 0.0 0.0
3.429 0.745474636554718 0.3192124366760254 -0.00031864456832408905 6.485078483819962e-05 0.0 0.0 0.0 0.0
3.43 0.7512916922569275 0.301959753036499 -0.0003675222396850586 9.332224726676941e-05 0.0 0.0 0.0 0.0
3.431 0.7546963095664978 0.2838890552520752 -0.00025996193289756775 2.4734996259212494e-05 0.0 0.0 0.0 0.0
3.432 0.7575523257255554 0.2665942907333374 -0.0002214331179857254 0.00022064987570047379 0.0 0.0 0.0 0.0
3.433 0.7631239295005798 0.24098968505859375 -0.0002790456637740135 0.00019031018018722534 0.0 0.0 0.0 0.0
3.434 0.766834020614624 0.22233015298843384 -0.0003808373585343361 0.0001540323719382286 0.0 0.0 0.0 0.0
3.435 0.7701376676559448 0.1999673843383789 -0.00035859178751707077 0.00012946035712957382 0.0 0.0 0.0 0.0
3.436 0.7724635004997253 0.1806277334690094 -0.0002354457974433899 0.00021142885088920593 0.0 0.0 0.0 0.0
3.437 0.7738214135169983 0.16002781689167023 -0.0002274857833981514 0.0001448979601264 0.0 0.0 0.0 0.0
3.438 0.7752505540847778 0.14278419315814972 -0.00023905746638774872 0.00018044374883174896 0.0 0.0 0.0 0.0
3.439 0.7762941122055054 0.12196808308362961 -0.0003153439611196518 4.0551647543907166e-05 0.0 0.0 0.0 0.0
3.44 0.7762491106987 0.09937820583581924 -0.00032991915941238403 0.00017979368567466736 0.0 0.0 0.0 0.0
3.441 0.7764917016029358 0.08136114478111267 -0.00023422297090291977 0.00017564091831445694 0.0 0.0 0.0 0.0
3.442 0.7765406370162964 0.05972379818558693 -0.00021525472402572632 0.00018679630011320114 0.0 0.0 0.0 0.0
3.443 0.7764143943786621 0.03840446099638939 -0.0003570336848497391 2.3428350687026978e-05 0.0 0.0 0.0 0.0
3.444 0.7745538949966431 0.018265709280967712 -0.00038448162376880646 0.00012637581676244736 0.0 0.0 0.0 0.0
3.445 0.7731142044067383 -0.003107571043074131 -0.0003489786759018898 0.00020964909344911575 0.0 0.0 0.0 0.0
3.446 0.7706629037857056 -0.022735491394996643 -0.00025836657732725143 9.839609265327454e-05 0.0 0.0 0.0 0.0
3.447 0.767098605632782 -0.04217730090022087 -0.0001941351220011711 0.00014371983706951141 0.0 0.0 0.0 0.0
3.448 0.7646411657333374 -0.06044972315430641 -0.0004414767026901245 4.919804632663727e-05 0.0 0.0 0.0 0.0
3.449 0.7593547105789185 -0.08481200784444809 -0.00024840980768203735 0.00019753072410821915 0.0 0.0 0.0 0.0
3.45 0.7551220059394836 -0.10521877557039261 -0.00026138313114643097 0.00016838032752275467 0.0 0.0 0.0 0.0
3.451 0.7512426972389221 -0.12651871144771576 -0.00025369785726070404 5.642883479595184e-05 0.0 0.0 0.0 0.0
3.452 0.7456659078598022 -0.14720961451530457 -0.0003581857308745384 0.00014987122267484665 0.0 0.0 0.0 0.0
3.453 0.7389041185379028 -0.1697048842906952 -0.0003966093063354492 0.00020919833332300186 0.0 0.0 0.0 0.0
3.454 0.7349342107772827 -0.1835135966539383 -0.0002802163362503052 8.6967833340168e-05 0.0 0.0 0.0 0.0
3.455 0.7278929352760315 -0.20219430327415466 -0.0003865491598844528 3.3942051231861115e-05 0.0 0.0 0.0 0.0
3.456 0.7209830284118652 -0.223373144865036 -0.0003626840189099312 8.34837555885315e-05 0.0 0.0 0.0 0.0
3.457 0.7112269997596741 -0.24428310990333557 -0.0003658328205347061 0.00019999686628580093 0.0 0.0 0.0 0.0
3.458 0.7040143013000488 -0.26250141859054565 -0.0002677915617823601 0.0001423535868525505 0.0 0.0 0.0 0.0
3.459 0.6960711479187012 -0.2852160334587097 -0.00027091894298791885 7.900409400463104e-06 0.0 0.0 0.0 0.0
3.46 0.6847808957099915 -0.30597081780433655 -0.00040702521800994873 0.00015212967991828918 0.0 0.0 0.0 0.0
3.461 0.6776925325393677 -0.3196118175983429 -0.00034909043461084366 0.00022318121045827866 0.0 0.0 0.0 0.0
3.462 0.6664929986000061 -0.340760737657547 -0.00033285096287727356 0.0001630149781703949 0.0 0.0 0.0 0.0
3.463 0.6575137972831726 -0.35620346665382385 -0.00029898155480623245 8.626095950603485e-05 0.0 0.0 0.0 0.0
3.464 0.6448413133621216 -0.37730440497398376 -0.0004345439374446869 0.0001559276133775711 0.0 0.0 0.0 0.0
3.465 0.6349160075187683 -0.3925856053829193 -0.0003628283739089966 0.00010183267295360565 0.0 0.0 0.0 0.0
3.466 0.6214955449104309 -0.4112347662448883 -0.0003209766000509262 0.00012252014130353928 0.0 0.0 0.0 0.0
3.467 0.6092126965522766 -0.4306735694408417 -0.0003869570791721344 9.994953870773315e-05 0.0 0.0 0.0 0.0
3.468 0.5986421704292297 -0.44946789741516113 -0.00029101409018039703 8.269306272268295e-05 0.0 0.0 0.0 0.0
3.469 0.5845253467559814 -0.4635407328605652 -0.0005309702828526497 0.00013575423508882523 0.0 0.0 0.0 0.0
3.47 0.5709779858589172 -0.4798814058303833 -0.0002801455557346344 0.00013200566172599792 0.0 0.0 0.0 0.0
3.471 0.5565230250358582 -0.49558377265930176 -0.00037926528602838516 0.0002100858837366104 0.0 0.0 0.0 0.0
3.472 0.5458280444145203 -0.5093788504600525 -0.0004699956625699997 6.397999823093414e-05 0.0 0.0 0.0 0.0
3.473 0.5291187167167664 -0.524455726146698 -0.00041245482861995697 0.00021426379680633545 0.0 0.0 0.0 0.0
3.474 0.5142340660095215 -0.5397973656654358 -0.0005072867497801781 0.00021375436335802078 0.0 0.0 0.0 0.0
3.475 0.500477135181427 -0.5545424818992615 -0.000340459868311882 2.5684013962745667e-05 0.0 0.0 0.0 0.0
3.476 0.4819118082523346 -0.5698065757751465 -0.00047136377543210983 0.00014037732034921646 0.0 0.0 0.0 0.0
3.477 0.4673313796520233 -0.5846549868583679 -0.0004815468564629555 0.00017408467829227448 0.0 0.0 0.0 0.0
3.478 0.45280733704566956 -0.595716118812561 -0.00031046848744153976 0.00019915495067834854 0.0 0.0 0.0 0.0
3.479 0.43681737780570984 -0.609162449836731 -0.00038108788430690765 3.7867575883865356e-05 0.0 0.0 0.0 0.0
3.48 0.41660168766975403 -0.6238346695899963 -0.00040164776146411896 2.8432346880435944e-05 0.0 0.0 0.0 0.0
3.481 0.40178149938583374 -0.6351082921028137 -0.00036141276359558105 5.9194862842559814e-05 0.0 0.0 0.0 0.0
3.482 0.3848351240158081 -0.6454493403434753 -0.0003046393394470215 5.6420452892780304e-05 0.0 0.0 0.0 0.0
3.483 0.3672795593738556 -0.6573477983474731 -0.00035138241946697235 6.434880197048187e-05 0.0 0.0 0.0 0.0
3.484 0.34485381841659546 -0.6703048348426819 -0.0005175415426492691 7.244572043418884e-05 0.0 0.0 0.0 0.0
3.485 0.33188915252685547 -0.677912712097168 -0.0003727879375219345 0.00028800591826438904 0.0 0.0 0.0 0.0
3.486 0.31294599175453186 -0.6884363293647766 -0.0004124995321035385 0.0002692677080631256 0.0 0.0 0.0 0.0
3.487 0.29621636867523193 -0.6972987055778503 -0.00048352964222431183 0.00011899881064891815 0.0 0.0 0.0 0.0
3.488 0.27733656764030457 -0.7068526148796082 -0.0005118558183312416 0.00017267465591430664 0.0 0.0 0.0 0.0
3.489 0.2589336633682251 -0.7144050002098083 -0.0004833703860640526 0.0001746462658047676 0.0 0.0 0.0 0.0
3.49 0.24051432311534882 -0.7221195697784424 -0.00037931837141513824 -1.21360644698143e-05 0.0 0.0 0.0 0.0
3.491 0.22073771059513092 -0.73140949010849 -0.0004832679405808449 6.21667131781578e-05 0.0 0.0 0.0 0.0
3.492 0.19411075115203857 -0.7399733066558838 -0.0005087070167064667 0.00016178656369447708 0.0 0.0 0.0 0.0
3.493 0.18181286752223969 -0.745805561542511 -0.0005412064492702484 0.00026685092598199844 0.0 0.0 0.0 0.0
3.494 0.16373077034950256 -0.7510470747947693 -0.00036862120032310486 0.0001896088942885399 0.0 0.0 0.0 0.0
3.495 0.1432381570339203 -0.7561776638031006 -0.00040721800178289413 0.00024057365953922272 0.0 0.0 0.0 0.0
3.496 0.12218600511550903 -0.7626364231109619 -0.0005889199674129486 0.00010998733341693878 0.0 0.0 0.0 0.0
3.497 0.10486984997987747 -0.7677168846130371 -0.0004659276455640793 0.00023280642926692963 0.0 0.0 0.0 0.0
3.498 0.08278796076774597 -0.7725324630737305 -0.0004972657188773155 0.0002784552052617073 0.0 0.0 0.0 0.0
3.499 0.06349363923072815 -0.7758382558822632 -0.0004397369921207428 3.0720606446266174e-05 0.0 0.0 0.0 0.0
3.5 0.04348688945174217 -0.7801112532615662 -0.0005805641412734985 4.127435386180878e-05 0.0 0.0 0.0 0.0
3.501 0.022599603980779648 -0.7825793623924255 -0.0005939202383160591 0.00016467832028865814 0.0 0.0 0.0 0.0
3.502 0.004460307769477367 -0.7854827046394348 -0.00046413205564022064 0.0001915954053401947 0.0 0.0 0.0 0.0
3.503 -0.01078101433813572 -0.787609338760376 -0.0004939055070281029 7.411278784275055e-05 0.0 0.0 0.0 0.0
3.504 -0.03317373991012573 -0.788576066493988 -0.00043498165905475616 0.00014553498476743698 0.0 0.0 0.0 0.0
3.505 -0.05825008451938629 -0.790428876876831 -0.0005527064204216003 0.00017872639000415802 0.0 0.0 0.0 0.0
3.506 -0.0749187171459198 -0.7896018028259277 -0.0005675125867128372 0.00015226751565933228 0.0 0.0 0.0 0.0
3.507 -0.09524232149124146 -0.7905517220497131 -0.0005252808332443237 0.00024937745183706284 0.0 0.0 0.0 0.0
3.508 -0.12005075812339783 -0.789253294467926 -0.0005674604326486588 0.0002324562519788742 0.0 0.0 0.0 0.0
3.509 -0.13633184134960175 -0.789301335811615 -0.0005651414394378662 0.0002312585711479187 0.0 0.0 0.0 0.0
3.51 -0.15807974338531494 -0.7878546118736267 -0.0005376385524868965 0.00022568181157112122 0.0 0.0 0.0 0.0
3.511 -0.17814265191555023 -0.7863631248474121 -0.0005369298160076141 0.00019898544996976852 0.0 0.0 0.0 0.0
3.512 -0.19986192882061005 -0.7843870520591736 -0.0006188936531543732 0.00022184476256370544 0.0 0.0 0.0 0.0
3.513 -0.21379348635673523 -0.782535195350647 -0.0005613677203655243 0.0002373047173023224 0.0 0.0 0.0 0.0
3.514 -0.2323046326637268 -0.779977023601532 -0.000516165979206562 0.0002519851550459862 0.0 0.0 0.0 0.0
3.515 -0.25137946009635925 -0.7773484587669373 -0.0007450142875313759 0.00024506915360689163 0.0 0.0 0.0 0.0
3.516 -0.2672089636325836 -0.7741734981536865 -0.0005238261073827744 0.00019800476729869843 0.0 0.0 0.0 0.0
3.517 -0.29079127311706543 -0.769725501537323 -0.0005120076239109039 0.0002810712903738022 0.0 0.0 0.0 0.0
3.518 -0.30784350633621216 -0.7644084692001343 -0.0006355196237564087 0.00035017821937799454 0.0 0.0 0.0 0.0
3.519 -0.33061134815216064 -0.7595256567001343 -0.0007655536755919456 0.0005031684413552284 0.0 0.0 0.0 0.0
3.52 -0.34778106212615967 -0.7541897296905518 -0.00061076320707798 0.0004701772704720497 0.0 0.0 0.0 0.0
3.521 -0.3645712435245514 -0.7492035627365112 -0.0005791382864117622 0.00042355991899967194 0.0 0.0 0.0 0.0
3.522 -0.3824654519557953 -0.7424765229225159 -0.0006450572982430458 0.000388123095035553 0.0 0.0 0.0 0.0
3.523 -0.403019517660141 -0.7351358532905579 -0.0006668539717793465 0.0002056565135717392 0.0 0.0 0.0 0.0
3.524 -0.41788458824157715 -0.7293974161148071 -0.0006078816950321198 0.00036354828625917435 0.0 0.0 0.0 0.0
3.525 -0.43614837527275085 -0.7204102873802185 -0.0006318511441349983 0.00045480579137802124 0.0 0.0 0.0 0.0
3.526 -0.45341819524765015 -0.7140540480613708 -0.0007528997957706451 0.0004431894049048424 0.0 0.0 0.0 0.0
3.527 -0.47123637795448303 -0.7047451734542847 -0.000766528770327568 0.0003108065575361252 0.0 0.0 0.0 0.0
3.528 -0.48855167627334595 -0.6967090368270874 -0.0006948625668883324 0.000479954294860363 0.0 0.0 0.0 0.0
3.529 -0.503301203250885 -0.6898687481880188 -0.0008255867287516594 0.00042429566383361816 0.0 0.0 0.0 0.0
3.53 -0.5197855234146118 -0.6804724335670471 -0.0006563104689121246 0.00048697926104068756 0.0 0.0 0.0 0.0
3.531 -0.5345986485481262 -0.6720001697540283 -0.0007424168288707733 0.00030625518411397934 0.0 0.0 0.0 0.0
3.532 -0.5502030849456787 -0.6638575792312622 -0.0007134899497032166 0.0005108444020152092 0.0 0.0 0.0 0.0
3.533 -0.5648908019065857 -0.6539962291717529 -0.0007930388674139977 0.0006275661289691925 0.0 0.0 0.0 0.0
3.534 -0.5785264372825623 -0.6438104510307312 -0.0007531102746725082 0.0004887925460934639 0.0 0.0 0.0 0.0
3.535 -0.5957658886909485 -0.6304764151573181 -0.0008074631914496422 0.00038423575460910797 0.0 0.0 0.0 0.0
3.536 -0.6131237745285034 -0.6185250282287598 -0.0008346866816282272 0.0005044126883149147 0.0 0.0 0.0 0.0
3.537 -0.6300087571144104 -0.6056848168373108 -0.000560227781534195 0.000362984836101532 0.0 0.0 0.0 0.0
3.538 -0.639958918094635 -0.5986803770065308 -0.0006372770294547081 0.0005489559844136238 0.0 0.0 0.0 0.0
3.539 -0.6571629643440247 -0.5834295153617859 -0.0006698444485664368 0.00044558756053447723 0.0 0.0 0.0 0.0
3.54 -0.6680415272712708 -0.5748416781425476 -0.0006845314055681229 0.000588664785027504 0.0 0.0 0.0 0.0
3.541 -0.678454577922821 -0.5618589520454407 -0.0007360242307186127 0.0005223127081990242 0.0 0.0 0.0 0.0
3.542 -0.692313551902771 -0.5501709580421448 -0.0006360244005918503 0.0004348438233137131 0.0 0.0 0.0 0.0
3.543 -0.7061519622802734 -0.5352492928504944 -0.0006442135199904442 0.00041428953409194946 0.0 0.0 0.0 0.0
3.544 -0.7168587446212769 -0.5224111676216125 -0.0007928786799311638 0.0004752427339553833 0.0 0.0 0.0 0.0
3.545 -0.7334410548210144 -0.5044283866882324 -0.0007160454988479614 0.0004114322364330292 0.0 0.0 0.0 0.0
3.546 -0.7405692934989929 -0.4970206618309021 -0.0007595857605338097 0.0006102044135332108 0.0 0.0 0.0 0.0
3.547 -0.7540554404258728 -0.47918322682380676 -0.0009049857035279274 0.000529605895280838 0.0 0.0 0.0 0.0
3.548 -0.7616285681724548 -0.4712832570075989 -0.0006700120866298676 0.0005271667614579201 0.0 0.0 0.0 0.0
3.549 -0.7718420028686523 -0.45758679509162903 -0.0007816366851329803 0.0006453162059187889 0.0 0.0 0.0 0.0
3.55 -0.7779862880706787 -0.4472098648548126 -0.000947088934481144 0.00048594363033771515 0.0 0.0 0.0 0.0
3.551 -0.7911690473556519 -0.42819562554359436 -0.0008545685559511185 0.000646982342004776 0.0 0.0 0.0 0.0
3.552 -0.8038276433944702 -0.40899357199668884 -0.0008172197267413139 0.000642634928226471 0.0 0.0 0.0 0.0
3.553 -0.8100776672363281 -0.3978956639766693 -0.0007299277931451797 0.0005669305101037025 0.0 0.0 0.0 0.0
3.554 -0.817915678024292 -0.382834792137146 -0.0008506486192345619 0.0004154415801167488 0.0 0.0 0.0 0.0
3.555 -0.8273111581802368 -0.36843669414520264 -0.0007460294291377068 0.0005134586244821548 0.0 0.0 0.0 0.0
3.556 -0.834723174571991 -0.35539114475250244 -0.0008611297234892845 0.0006530527025461197 0.0 0.0 0.0 0.0
3.557 -0.8414373397827148 -0.34084975719451904 -0.0006632227450609207 0.000528053380548954 0.0 0.0 0.0 0.0
3.558 -0.8464887142181396 -0.3298144042491913 -0.0007982542738318443 0.0007057543843984604 0.0 0.0 0.0 0.0
3.559 -0.855533242225647 -0.31189703941345215 -0.0006778798997402191 0.0006493097171187401 0.0 0.0 0.0 0.0
3.56 -0.8636701107025146 -0.29142433404922485 -0.0007879734039306641 0.0006793886423110962 0.0 0.0 0.0 0.0
3.561 -0.8671837449073792 -0.28548672795295715 -0.0007999148219823837 0.0006215972825884819 0.0 0.0 0.0 0.0
3.562 -0.8749967217445374 -0.2627582252025604 -0.0006647221744060516 0.0006379447877407074 0.0 0.0 0.0 0.0
3.563 -0.8798578977584839 -0.25282174348831177 -0.0009077582508325577 0.0006500091403722763 0.0 0.0 0.0 0.0
3.564 -0.8867088556289673 -0.2380707710981369 -0.000758620910346508 0.0008215485140681267 0.0 0.0 0.0 0.0
3.565 -0.8895536661148071 -0.22400616109371185 -0.0007481062784790993 0.0006431946530938148 0.0 0.0 0.0 0.0
3.566 -0.8954586982727051 -0.20601379871368408 -0.0008760858327150345 0.0006250515580177307 0.0 0.0 0.0 0.0
3.567 -0.8995087146759033 -0.1913829743862152 -0.0006736805662512779 0.000540146604180336 0.0 0.0 0.0 0.0
3.568 -0.9033872485160828 -0.17941513657569885 -0.0008324971422553062 0.0007785679772496223 0.0 0.0 0.0 0.0
3.569 -0.9073817133903503 -0.16220897436141968 -0.0009388122707605362 0.0007179873064160347 0.0 0.0 0.0 0.0
3.57 -0.9110628962516785 -0.1469040811061859 -0.0008414695039391518 0.0006648758426308632 0.0 0.0 0.0 0.0
3.571 -0.9153581261634827 -0.13056956231594086 -0.0007914425805211067 0.0006611067801713943 0.0 0.0 0.0 0.0
3.572 -0.9196980595588684 -0.11828094720840454 -0.0006403373554348946 0.0007459837943315506 0.0 0.0 0.0 0.0
3.573 -0.9226360321044922 -0.10269138962030411 -0.0007167430594563484 0.0007039261981844902 0.0 0.0 0.0 0.0
3.574 -0.9248532652854919 -0.08793269097805023 -0.0007673203945159912 0.0008160872384905815 0.0 0.0 0.0 0.0
3.575 -0.9264718890190125 -0.07266933470964432 -0.0006786277517676353 0.0007357941940426826 0.0 0.0 0.0 0.0
3.576 -0.9288502335548401 -0.05654527246952057 -0.0008036764338612556 0.0007846234366297722 0.0 0.0 0.0 0.0
3.577 -0.9295605421066284 -0.04553995281457901 -0.0009554969146847725 0.0007147304713726044 0.0 0.0 0.0 0.0
3.578 -0.9325114488601685 -0.02169104851782322 -0.0006693592295050621 0.0007093800231814384 0.0 0.0 0.0 0.0
3.579 -0.9332913160324097 -0.01124798133969307 -0.0006894255056977272 0.0007300944998860359 0.0 0.0 0.0 0.0
3.58 -0.9347879886627197 0.0038947071880102158 -0.0007223263382911682 0.0006402004510164261 0.0 0.0 0.0 0.0
3.581 -0.9344156384468079 0.017845766618847847 -0.0008419286459684372 0.0006723878905177116 0.0 0.0 0.0 0.0
3.582 -0.9357840418815613 0.0379224494099617 -0.0008469140157103539 0.0006452547386288643 0.0 0.0 0.0 0.0
3.583 -0.9348292946815491 0.0472496896982193 -0.0009196316823363304 0.0008011981844902039 0.0 0.0 0.0 0.0
3.584 -0.9355689287185669 0.0638861209154129 -0.0006707971915602684 0.0008391672745347023 0.0 0.0 0.0 0.0
3.585 -0.9340278506278992 0.07842178642749786 -0.0006979983299970627 0.0006460109725594521 0.0 0.0 0.0 0.0
3.586 -0.9344655871391296 0.09433463960886002 -0.0007268181070685387 0.0006963079795241356 0.0 0.0 0.0 0.0
3.587 -0.9326563477516174 0.10873277485370636 -0.0008290689438581467 0.0007197055965662003 0.0 0.0 0.0 0.0
3.588 -0.9316034913063049 0.12466854602098465 -0.0009093321859836578 0.0007520467042922974 0.0 0.0 0.0 0.0
3.589 -0.9312179088592529 0.1373603641986847 -0.0007456634193658829 0.0009307935833930969 0.0 0.0 0.0 0.0
3.59 -0.9293632507324219 0.15499737858772278 -0.0007063029333949089 0.0008419239893555641 0.0 0.0 0.0 0.0
3.591 -0.9261976480484009 0.16946953535079956 -0.0008058482781052589 0.0008526304736733437 0.0 0.0 0.0 0.0
3.592 -0.9255186319351196 0.17941296100616455 -0.0008518947288393974 0.0007223794236779213 0.0 0.0 0.0 0.0
3.593 -0.9241145849227905 0.18807443976402283 -0.0008770227432250977 0.0007262323051691055 0.0 0.0 0.0 0.0
3.594 -0.9191742539405823 0.21136276423931122 -0.0007884334772825241 0.0007443446666002274 0.0 0.0 0.0 0.0
3.595 -0.9157572388648987 0.2260628193616867 -0.0008649937808513641 0.0009130854159593582 0.0 0.0 0.0 0.0
3.596 -0.9137334227561951 0.24038565158843994 -0.0006804289296269417 0.0009441496804356575 0.0 0.0 0.0 0.0
3.597 -0.9095817804336548 0.2588748037815094 -0.0007559787482023239 0.0008868351578712463 0.0 0.0 0.0 0.0
3.598 -0.9052950143814087 0.27070170640945435 -0.0009329803287982941 0.0008260654285550117 0.0 0.0 0.0 0.0
3.599 -0.9037895202636719 0.2807970643043518 -0.0007410310208797455 0.0008211815729737282 0.0 0.0 0.0 0.0
3.6 -0.9001672863960266 0.30183207988739014 -0.0009495941922068596 0.0009186156094074249 0.0 0.0 0.0 0.0
3.601 -0.8977595567703247 0.3132686913013458 -0.000733531080186367 0.0009595276787877083 0.0 0.0 0.0 0.0
3.602 -0.889400839805603 0.33039799332618713 -0.0009025502949953079 0.0008574323728680611 0.0 0.0 0.0 0.0
3.603 -0.8870339393615723 0.34188711643218994 -0.0008595744147896767 0.0009436048567295074 0.0 0.0 0.0 0.0
3.604 -0.8789515495300293 0.3607136905193329 -0.0009362464770674706 0.0009531909599900246 0.0 0.0 0.0 0.0
3.605 -0.8762450814247131 0.36790886521339417 -0.0008908454328775406 0.0009135892614722252 0.0 0.0 0.0 0.0
3.606 -0.8698346614837646 0.3834846019744873 -0.000769810751080513 0.0008510006591677666 0.0 0.0 0.0 0.0
3.607 -0.8635386228561401 0.39679428935050964 -0.0009262925013899803 0.0009354352951049805 0.0 0.0 0.0 0.0
3.608 -0.8583073616027832 0.40892714262008667 -0.0007994342595338821 0.0009557725861668587 0.0 0.0 0.0 0.0
3.609 -0.8508399724960327 0.4248431622982025 -0.0007481491193175316 0.0009329579770565033 0.0 0.0 0.0 0.0
3.61 -0.8457986116409302 0.43375471234321594 -0.0006930716335773468 0.0010400908067822456 0.0 0.0 0.0 0.0
3.611 -0.8399373888969421 0.44597065448760986 -0.000783049501478672 0.000913289375603199 0.0 0.0 0.0 0.0
3.612 -0.8313646912574768 0.4619635045528412 -0.0008683763444423676 0.001003338024020195 0.0 0.0 0.0 0.0
3.613 -0.8241726756095886 0.47339868545532227 -0.0007439414039254189 0.001140078529715538 0.0 0.0 0.0 0.0
3.614 -0.8163071870803833 0.48653578758239746 -0.0007031243294477463 0.0011218665167689323 0.0 0.0 0.0 0.0
3.615 -0.8117092251777649 0.49362486600875854 -0.0007011778652667999 0.0008770553395152092 0.0 0.0 0.0 0.0
3.616 -0.8054961562156677 0.5070534944534302 -0.0007116300985217094 0.001106717623770237 0.0 0.0 0.0 0.0
3.617 -0.7942084074020386 0.5189309120178223 -0.0008538225665688515 0.001018112525343895 0.0 0.0 0.0 0.0
3.618 -0.7868103384971619 0.530938982963562 -0.0007553258910775185 0.0011088894680142403 0.0 0.0 0.0 0.0
3.619 -0.777728796005249 0.5416644811630249 -0.0008736280724406242 0.0011050030589103699 0.0 0.0 0.0 0.0
3.62 -0.771312952041626 0.5525544285774231 -0.0008423421531915665 0.001012885943055153 0.0 0.0 0.0 0.0
3.621 -0.7613323926925659 0.5662916302680969 -0.0008652741089463234 0.0009670993313193321 0.0 0.0 0.0 0.0
3.622 -0.7518827319145203 0.5776932835578918 -0.0006815586239099503 0.0010116659104824066 0.0 0.0 0.0 0.0
3.623 -0.743972659111023 0.5875771045684814 -0.0006751073524355888 0.001175137236714363 0.0 0.0 0.0 0.0
3.624 -0.7356057167053223 0.5975689888000488 -0.0007612453773617744 0.001269838772714138 0.0 0.0 0.0 0.0
3.625 -0.7233789563179016 0.6086814403533936 -0.0008600838482379913 0.001249011605978012 0.0 0.0 0.0 0.0
3.626 -0.7157539129257202 0.6188837885856628 -0.000708126462996006 0.0010914737358689308 0.0 0.0 0.0 0.0
3.627 -0.7051680684089661 0.6305680871009827 -0.0006957771256566048 0.0011064978316426277 0.0 0.0 0.0 0.0
3.628 -0.696470320224762 0.638161838054657 -0.0007012607529759407 0.001226171851158142 0.0 0.0 0.0 0.0
3.629 -0.6846563816070557 0.6508108973503113 -0.0006360625848174095 0.001367161050438881 0.0 0.0 0.0 0.0
3.63 -0.6755368709564209 0.6577965617179871 -0.0007152492180466652 0.0012835543602705002 0.0 0.0 0.0 0.0
3.631 -0.6655832529067993 0.6678946018218994 -0.0007617427036166191 0.001156603917479515 0.0 0.0 0.0 0.0
3.632 -0.6555100083351135 0.6772579550743103 -0.0007385024800896645 0.0011505959555506706 0.0 0.0 0.0 0.0
3.633 -0.645959198474884 0.6850085854530334 -0.0006925920024514198 0.0012298570945858955 0.0 0.0 0.0 0.0
3.634 -0.6345876455307007 0.69613116979599 -0.0005976837128400803 0.0013434356078505516 0.0 0.0 0.0 0.0
3.635 -0.6228146553039551 0.7037704586982727 -0.0008024172857403755 0.0013370895758271217 0.0 0.0 0.0 0.0
3.636 -0.6187542676925659 0.7129254937171936 -0.0007266681641340256 0.0011001741513609886 0.0 0.0 0.0 0.0
3.637 -0.5992932319641113 0.7222023606300354 -0.000775541178882122 0.0011944957077503204 0.0 0.0 0.0 0.0
3.638 -0.5905637741088867 0.7295149564743042 -0.0007659997791051865 0.0012957137078046799 0.0 0.0 0.0 0.0
3.639 -0.5809932351112366 0.736790120601654 -0.0006796726956963539 0.0013080872595310211 0.0 0.0 0.0 0.0
3.64 -0.5698236227035522 0.7421063780784607 -0.0006476584821939468 0.0013757161796092987 0.0 0.0 0.0 0.0
3.641 -0.5550920367240906 0.7518854141235352 -0.0007335580885410309 0.001202036626636982 0.0 0.0 0.0 0.0
3.642 -0.5434542894363403 0.7608542442321777 -0.0006600068882107735 0.0013265646994113922 0.0 0.0 0.0 0.0
3.643 -0.5328264832496643 0.7669314742088318 -0.0005743131041526794 0.0013355696573853493 0.0 0.0 0.0 0.0
3.644 -0.5192174911499023 0.7766610383987427 -0.000544283539056778 0.0013262853026390076 0.0 0.0 0.0 0.0
3.645 -0.5059135556221008 0.7834935784339905 -0.000594007782638073 0.0014314278960227966 0.0 0.0 0.0 0.0
3.646 -0.4968559145927429 0.7884427309036255 -0.0006152670830488205 0.0014547761529684067 0.0 0.0 0.0 0.0
3.647 -0.48854389786720276 0.7919453382492065 -0.0005843080580234528 0.0014702267944812775 0.0 0.0 0.0 0.0
3.648 -0.4742644131183624 0.8006461262702942 -0.0005458705127239227 0.0016397451981902122 0.0 0.0 0.0 0.0
3.649 -0.4569697976112366 0.8080710768699646 -0.0005890624597668648 0.0013052914291620255 0.0 0.0 0.0 0.0
3.65 -0.446298211812973 0.8129999041557312 -0.00061060581356287 0.001331881619989872 0.0 0.0 0.0 0.0
3.651 -0.43287497758865356 0.8194220066070557 -0.0005765976384282112 0.0013949284330010414 0.0 0.0 0.0 0.0
3.652 -0.41487106680870056 0.8267683982849121 -0.0004583364352583885 0.0014755669981241226 0.0 0.0 0.0 0.0
3.653 -0.40790197253227234 0.8289570212364197 -0.0005843676626682281 0.001431366428732872 0.0 0.0 0.0 0.0
3.654 -0.400112509727478 0.8308302760124207 -0.00046311598271131516 0.0014436598867177963 0.0 0.0 0.0 0.0
3.655 -0.3815425932407379 0.8388667106628418 -0.0005083028227090836 0.0014640484005212784 0.0 0.0 0.0 0.0
3.656 -0.3699124753475189 0.8413298726081848 -0.0005864538252353668 0.0014645867049694061 0.0 0.0 0.0 0.0
3.657 -0.35408011078834534 0.8479679822921753 -0.000581696629524231 0.0014708247035741806 0.0 0.0 0.0 0.0
3.658 -0.3395911455154419 0.851620078086853 -0.000588580034673214 0.001529507339000702 0.0 0.0 0.0 0.0
3.659 -0.3283352255821228 0.8574151396751404 -0.0003120880573987961 0.0015818960964679718 0.0 0.0 0.0 0.0
3.66 -0.3147174119949341 0.8683736324310303 -0.00046931393444538116 0.0016118502244353294 0.0 0.0 0.0 0.0
3.661 -0.3006437122821808 0.8655195832252502 -0.00039469823241233826 0.0015190718695521355 0.0 0.0 0.0 0.0
3.662 -0.28766971826553345 0.8662358522415161 -0.00029857177287340164 0.0015635015442967415 0.0 0.0 0.0 0.0
3.663 -0.2766115665435791 0.8694978356361389 -0.0004886630922555923 0.0016518421471118927 0.0 0.0 0.0 0.0
3.664 -0.2580990791320801 0.8729962110519409 -0.00039623118937015533 0.0015459051355719566 0.0 0.0 0.0 0.0
3.665 -0.24658846855163574 0.8770772814750671 -0.0002714702859520912 0.0015454990789294243 0.0 0.0 0.0 0.0
3.666 -0.23167163133621216 0.8792338371276855 -0.0003744130954146385 0.0015996722504496574 0.0 0.0 0.0 0.0
3.667 -0.2180706113576889 0.8794966340065002 -0.00048493221402168274 0.0015387898311018944 0.0 0.0 0.0 0.0
3.668 -0.19706887006759644 0.8828819990158081 -0.00028155092149972916 0.001612277701497078 0.0 0.0 0.0 0.0
3.669 -0.1894434690475464 0.885615885257721 -0.00018767639994621277 0.0016566943377256393 0.0 0.0 0.0 0.0
3.67 -0.1744578629732132 0.8854940533638 -0.00026624836027622223 0.0016685249283909798 0.0 0.0 0.0 0.0
3.671 -0.160805806517601 0.8873845934867859 -0.00024789292365312576 0.0016354992985725403 0.0 0.0 0.0 0.0
3.672 -0.14482653141021729 0.8897964954376221 -0.0003976905718445778 0.0017011212185025215 0.0 0.0 0.0 0.0
3.673 -0.12914010882377625 0.8889719247817993 -0.00023010745644569397 0.0015456825494766235 0.0 0.0 0.0 0.0
3.674 -0.11799037456512451 0.8900107145309448 -0.0002247607335448265 0.0017149876803159714 0.0 0.0 0.0 0.0
3.675 -0.10595125705003738 0.8895957469940186 -0.00024739746004343033 0.001707669347524643 0.0 0.0 0.0 0.0
3.676 -0.08714980632066727 0.8895756602287292 -0.00012612156569957733 0.0017148535698652267 0.0 0.0 0.0 0.0
3.677 -0.07826948910951614 0.8888997435569763 -0.00011761579662561417 0.0016955910250544548 0.0 0.0 0.0 0.0
3.678 -0.06196916103363037 0.8906721472740173 -0.00017757806926965714 0.0017063850536942482 0.0 0.0 0.0 0.0
3.679 -0.04652715101838112 0.8893301486968994 -0.00012334901839494705 0.0016922177746891975 0.0 0.0 0.0 0.0
3.68 -0.031536150723695755 0.8880292773246765 -0.00011191889643669128 0.0018292153254151344 0.0 0.0 0.0 0.0
3.681 -0.01921285130083561 0.8859096765518188 -0.00015929900109767914 0.0016493108123540878 0.0 0.0 0.0 0.0
3.682 -0.006842775270342827 0.8869903087615967 -2.022925764322281e-05 0.001723637804389 0.0 0.0 0.0 0.0
3.683 0.008045731112360954 0.8844122886657715 6.519723683595657e-05 0.0017912471666932106 0.0 0.0 0.0 0.0
3.684 0.0267036035656929 0.884756326675415 -6.5267086029052734e-06 0.0018057338893413544 0.0 0.0 0.0 0.0
3.685 0.03852391615509987 0.8813691735267639 1.2565404176712036e-05 0.001689785160124302 0.0 0.0 0.0 0.0
3.686 0.0539931058883667 0.8803899884223938 -9.830668568611145e-05 0.0017506936565041542 0.0 0.0 0.0 0.0
3.687 0.070900097489357 0.8775444626808167 -2.1966174244880676e-05 0.0016448358073830605 0.0 0.0 0.0 0.0
3.688 0.08934514969587326 0.8728440999984741 9.399931877851486e-05 0.0017555467784404755 0.0 0.0 0.0 0.0
3.689 0.09690786898136139 0.8704273700714111 0.00010174326598644257 0.0018324889242649078 0.0 0.0 0.0 0.0
3.69 0.11310870200395584 0.868346095085144 3.985408693552017e-05 0.002031228505074978 0.0 0.0 0.0 0.0
3.691 0.12374655902385712 0.8642664551734924 0.00011407304555177689 0.0017379410564899445 0.0 0.0 0.0 0.0
3.692 0.14168286323547363 0.8594432473182678 0.00012733042240142822 0.0019029146060347557 0.0 0.0 0.0 0.0
3.693 0.15173129737377167 0.8565798401832581 0.0002136779949069023 0.001714956946671009 0.0 0.0 0.0 0.0
3.694 0.17227287590503693 0.8514488935470581 0.0001971423625946045 0.001814916729927063 0.0 0.0 0.0 0.0
3.695 0.18349188566207886 0.8475774526596069 0.0002831835299730301 0.0018315669149160385 0.0 0.0 0.0 0.0
3.696 0.19954170286655426 0.8451917767524719 0.00033381208777427673 0.0020712735131382942 0.0 0.0 0.0 0.0
3.697 0.20573821663856506 0.8400877714157104 0.0002495190128684044 0.0017891889438033104 0.0 0.0 0.0 0.0
3.698 0.22621966898441315 0.8340970873832703 0.0002700444310903549 0.0019211266189813614 0.0 0.0 0.0 0.0
3.699 0.240085631608963 0.8281156420707703 0.0003068679943680763 0.0017444686964154243 0.0 0.0 0.0 0.0
3.7 0.256755530834198 0.8208271265029907 0.00041858479380607605 0.0018198676407337189 0.0 0.0 0.0 0.0
3.701 0.2703418731689453 0.8125755786895752 0.00042502302676439285 0.0018657203763723373 0.0 0.0 0.0 0.0
3.702 0.28302639722824097 0.8074708580970764 0.0005201892927289009 0.0019122809171676636 0.0 0.0 0.0 0.0
3.703 0.29862383008003235 0.7998912334442139 0.0004765363410115242 0.001805041916668415 0.0 0.0 0.0 0.0
3.704 0.312030553817749 0.7945056557655334 0.00045248307287693024 0.001891440711915493 0.0 0.0 0.0 0.0
3.705 0.324955552816391 0.7854267954826355 0.0005151890218257904 0.0018210113048553467 0.0 0.0 0.0 0.0
3.706 0.3348435163497925 0.7796160578727722 0.0006801439449191093 0.001855773851275444 0.0 0.0 0.0 0.0
3.707 0.3517703413963318 0.7713026404380798 0.000684048980474472 0.0018515819683670998 0.0 0.0 0.0 0.0
3.708 0.3639867305755615 0.7635400891304016 0.0006157010793685913 0.0018788110464811325 0.0 0.0 0.0 0.0
3.709 0.37532004714012146 0.7583970427513123 0.0006069177761673927 0.0016942722722887993 0.0 0.0 0.0 0.0
3.71 0.3914780914783478 0.7484577298164368 0.0005559967830777168 0.0018167560920119286 0.0 0.0 0.0 0.0
3.711 0.4064711630344391 0.7367643713951111 0.0008183568716049194 0.0017792535945773125 0.0 0.0 0.0 0.0
3.712 0.42166638374328613 0.7290773987770081 0.0006379522383213043 0.0020619984716176987 0.0 0.0 0.0 0.0
3.713 0.42806169390678406 0.7193120718002319 0.0009456342086195946 0.0019352734088897705 0.0 0.0 0.0 0.0
3.714 0.4425724148750305 0.7129766345024109 0.0008184043690562248 0.0015972703695297241 0.0 0.0 0.0 0.0
3.715 0.45518776774406433 0.7038887143135071 0.000792577862739563 0.001676761545240879 0.0 0.0 0.0 0.0
3.716 0.4655645787715912 0.6933904886245728 0.0008607981726527214 0.0017297081649303436 0.0 0.0 0.0 0.0
3.717 0.48305338621139526 0.6783708333969116 0.0008859355002641678 0.001858438365161419 0.0 0.0 0.0 0.0
3.718 0.49355414509773254 0.668461799621582 0.0008286591619253159 0.0018737642094492912 0.0 0.0 0.0 0.0
3.719 0.5060930252075195 0.6580273509025574 0.0010980069637298584 0.0016831932589411736 0.0 0.0 0.0 0.0
3.72 0.5181299448013306 0.6485993266105652 0.0009450120851397514 0.0018172748386859894 0.0 0.0 0.0 0.0
3.721 0.5282384157180786 0.6391859650611877 0.0009346138685941696 0.0017204247415065765 0.0 0.0 0.0 0.0
3.722 0.5375659465789795 0.6296972036361694 0.0009004902094602585 0.0019003301858901978 0.0 0.0 0.0 0.0
3.723 0.5494763851165771 0.615227460861206 0.00132082961499691 0.0016863895580172539 0.0 0.0 0.0 0.0
3.724 0.5649831295013428 0.5988971590995789 0.0011071385815739632 0.0015529580414295197 0.0 0.0 0.0 0.0
3.725 0.5728315711021423 0.5908603668212891 0.0011086221784353256 0.0015309136360883713 0.0 0.0 0.0 0.0
3.726 0.5863305330276489 0.5779271125793457 0.0009689116850495338 0.0014450512826442719 0.0 0.0 0.0 0.0
3.727 0.5974931716918945 0.5595977306365967 0.001281866803765297 0.00172444898635149 0.0 0.0 0.0 0.0
3.728 0.6056600213050842 0.5547816157341003 0.0010979976505041122 0.001569022424519062 0.0 0.0 0.0 0.0
3.729 0.6145024299621582 0.5410745143890381 0.0012049870565533638 0.001384299248456955 0.0 0.0 0.0 0.0
3.73 0.6236802935600281 0.5267125964164734 0.0011842893436551094 0.001449165865778923 0.0 0.0 0.0 0.0
3.731 0.632777750492096 0.5134216547012329 0.0013653300702571869 0.0016492530703544617 0.0 0.0 0.0 0.0
3.732 0.6453403234481812 0.4959838390350342 0.0015970924869179726 0.001618511974811554 0.0 0.0 0.0 0.0
3.733 0.6542405486106873 0.4836256504058838 0.0011590877547860146 0.0014078030362725258 0.0 0.0 0.0 0.0
3.734 0.6623938083648682 0.4675496816635132 0.0015441616997122765 0.0015115775167942047 0.0 0.0 0.0 0.0
3.735 0.6692491173744202 0.4563293755054474 0.001638505607843399 0.0016926303505897522 0.0 0.0 0.0 0.0
3.736 0.6779768466949463 0.4436737895011902 0.0013481620699167252 0.0013605356216430664 0.0 0.0 0.0 0.0
3.737 0.6895821690559387 0.4204467833042145 0.0013293232768774033 0.0015445668250322342 0.0 0.0 0.0 0.0
3.738 0.6908342242240906 0.4139612019062042 0.0016668597236275673 0.0014573903754353523 0.0 0.0 0.0 0.0
3.739 0.704752504825592 0.39159825444221497 0.0016951831057667732 0.0012726252898573875 0.0 0.0 0.0 0.0
3.74 0.7083214521408081 0.3801926076412201 0.0016416814178228378 0.0015202034264802933 0.0 0.0 0.0 0.0
3.741 0.7212116122245789 0.3606969118118286 0.0014385432004928589 0.0012601036578416824 0.0 0.0 0.0 0.0
3.742 0.7226069569587708 0.3469680845737457 0.0017898641526699066 0.0014465739950537682 0.0 0.0 0.0 0.0
3.743 0.7304389476776123 0.33272427320480347 0.001705484464764595 0.001180269755423069 0.0 0.0 0.0 0.0
3.744 0.7370137572288513 0.3186720311641693 0.0013587484136223793 0.0013058111071586609 0.0 0.0 0.0 0.0
3.745 0.7434387803077698 0.2974556088447571 0.0015738122165203094 0.0013553109019994736 0.0 0.0 0.0 0.0
3.746 0.7461499571800232 0.28196632862091064 0.0019567767158150673 0.0009675817564129829 0.0 0.0 0.0 0.0
3.747 0.7518681287765503 0.26473313570022583 0.0018787039443850517 0.0011600693687796593 0.0 0.0 0.0 0.0
3.748 0.7581217288970947 0.24874524772167206 0.0018715457990765572 0.000535767525434494 0.0 0.0 0.0 0.0
3.749 0.7644083499908447 0.23135733604431152 0.001721012406051159 0.001161070540547371 0.0 0.0 0.0 0.0
3.75 0.7677592635154724 0.21351344883441925 0.001393255777657032 0.0009455755352973938 0.0 0.0 0.0 0.0
3.751 0.7687121033668518 0.1993618905544281 0.0018799146637320518 0.0011996440589427948 0.0 0.0 0.0 0.0
3.752 0.7731157541275024 0.18184563517570496 0.0022723302245140076 0.0007077166810631752 0.0 0.0 0.0 0.0
3.753 0.7757730484008789 0.16404981911182404 0.002264297567307949 0.0009243963286280632 0.0 0.0 0.0 0.0
3.754 0.7817055583000183 0.14146964251995087 0.0014404812827706337 0.0008015260100364685 0.0 0.0 0.0 0.0
3.755 0.7821915149688721 0.12472709268331528 0.0022173356264829636 0.0006798543035984039 0.0 0.0 0.0 0.0
3.756 0.7837197780609131 0.1058814749121666 0.001953686587512493 0.0009340979158878326 0.0 0.0 0.0 0.0
3.757 0.7850915789604187 0.09310612082481384 0.002256724052131176 0.0004444792866706848 0.0 0.0 0.0 0.0
3.758 0.7893368005752563 0.07374732196331024 0.0014956509694457054 0.0006316201761364937 0.0 0.0 0.0 0.0
3.759 0.7908135652542114 0.05356970056891441 0.0015868796035647392 0.0006969049572944641 0.0 0.0 0.0 0.0
3.76 0.7913302183151245 0.03274470567703247 0.0017108013853430748 0.0005920501425862312 0.0 0.0 0.0 0.0
3.761 0.7878429889678955 0.016386639326810837 0.0023462632670998573 0.0006219092756509781 0.0 0.0 0.0 0.0
3.762 0.7888522744178772 -0.0007460629567503929 0.002194087952375412 0.00038276612758636475 0.0 0.0 0.0 0.0
3.763 0.7902635931968689 -0.02012162283062935 0.0017797863110899925 0.00033069681376218796 0.0 0.0 0.0 0.0
3.764 0.7862385511398315 -0.03933923691511154 0.0020327912643551826 0.0007706806063652039 0.0 0.0 0.0 0.0
3.765 0.7844386100769043 -0.05449976027011871 0.002116544172167778 0.0008340207859873772 0.0 0.0 0.0 0.0
3.766 0.783660888671875 -0.07466746866703033 0.002246890217065811 8.89291986823082e-05 0.0 0.0 0.0 0.0
3.767 0.7798382639884949 -0.09306368976831436 0.0023716669529676437 0.00028988067060709 0.0 0.0 0.0 0.0
3.768 0.7778652906417847 -0.11550012230873108 0.0019041066989302635 0.00020912382751703262 0.0 0.0 0.0 0.0
3.769 0.7772578597068787 -0.13523080945014954 0.0019148802384734154 0.00042808055877685547 0.0 0.0 0.0 0.0
3.77 0.7736017107963562 -0.1514054387807846 0.0017676306888461113 0.0003397250548005104 0.0 0.0 0.0 0.0
3.771 0.7677919268608093 -0.16467638313770294 0.0024982430040836334 6.656069308519363e-05 0.0 0.0 0.0 0.0
3.772 0.7622187733650208 -0.18390680849552155 0.0022991495206952095 0.00041538476943969727 0.0 0.0 0.0 0.0
3.773 0.757115364074707 -0.20532551407814026 0.0023198164999485016 9.817816317081451e-05 0.0 0.0 0.0 0.0
3.774 0.7519058585166931 -0.22139008343219757 0.0021766945719718933 5.394499748945236e-05 0.0 0.0 0.0 0.0
3.775 0.7477463483810425 -0.23965710401535034 0.002560405060648918 0.00031634606420993805 0.0 0.0 0.0 0.0
3.776 0.7415294051170349 -0.2603028118610382 0.002140629105269909 0.00021423492580652237 0.0 0.0 0.0 0.0
3.777 0.7359212040901184 -0.2759566009044647 0.0022064633667469025 -0.0003146585077047348 0.0 0.0 0.0 0.0
3.778 0.7302436232566833 -0.2950505316257477 0.0017080195248126984 -0.00021496694535017014 0.0 0.0 0.0 0.0
3.779 0.7219287157058716 -0.30843374133110046 0.0021434975787997246 -9.605847299098969e-05 0.0 0.0 0.0 0.0
3.78 0.7112706303596497 -0.3297712206840515 0.0018077744171023369 0.00019203685224056244 0.0 0.0 0.0 0.0
3.781 0.7081338167190552 -0.3389163613319397 0.001972992904484272 -0.0001652594655752182 0.0 0.0 0.0 0.0
3.782 0.6929159164428711 -0.3679754436016083 0.0021996255964040756 -0.0006159553304314613 0.0 0.0 0.0 0.0
3.783 0.6897178888320923 -0.38314756751060486 0.001852136105298996 -0.0008315714076161385 0.0 0.0 0.0 0.0
3.784 0.6777374148368835 -0.3989419639110565 0.0023160232231020927 -0.0005327211692929268 0.0 0.0 0.0 0.0
3.785 0.670926570892334 -0.4137141704559326 0.0022318940609693527 -0.0006505986675620079 0.0 0.0 0.0 0.0
3.786 0.6588427424430847 -0.43242618441581726 0.0025305701419711113 -0.0007193638011813164 0.0 0.0 0.0 0.0
3.787 0.6458978056907654 -0.4519021809101105 0.0020738812163472176 -0.00029333028942346573 0.0 0.0 0.0 0.0
3.788 0.6376163363456726 -0.46335989236831665 0.0016080336645245552 -0.0004280470311641693 0.0 0.0 0.0 0.0
3.789 0.6281337738037109 -0.47914010286331177 0.001348254270851612 -0.0005980907008051872 0.0 0.0 0.0 0.0
3.79 0.6122375726699829 -0.4982893466949463 0.002165442332625389 -6.696116179227829e-05 0.0 0.0 0.0 0.0
3.791 0.6043859124183655 -0.5094307065010071 0.00167189072817564 -0.0010085953399538994 0.0 0.0 0.0 0.0
3.792 0.5911757946014404 -0.52737957239151 0.0015217680484056473 -0.00033823587000370026 0.0 0.0 0.0 0.0
3.793 0.5774456262588501 -0.5393326282501221 0.0015697674825787544 -0.0004086960107088089 0.0 0.0 0.0 0.0
3.794 0.5635898113250732 -0.5542156100273132 0.0020901206880807877 -0.0005250154063105583 0.0 0.0 0.0 0.0
3.795 0.5521960854530334 -0.5650865435600281 0.0020905835554003716 -0.00022345036268234253 0.0 0.0 0.0 0.0
3.796 0.5344254374504089 -0.5813006162643433 0.002078917808830738 -0.0010093720629811287 0.0 0.0 0.0 0.0
3.797 0.5250692367553711 -0.5949289202690125 0.0014073988422751427 -0.0011598188430070877 0.0 0.0 0.0 0.0
3.798 0.5113460421562195 -0.6081194877624512 0.0012358278036117554 -0.000969977118074894 0.0 0.0 0.0 0.0
3.799 0.4904341399669647 -0.6241475343704224 0.0014735423028469086 -0.0005235075950622559 0.0 0.0 0.0 0.0
3.8 0.47955018281936646 -0.6314309239387512 0.0023257602006196976 -0.0008663758635520935 0.0 0.0 0.0 0.0
3.801 0.46108534932136536 -0.6431769728660583 0.0016792453825473785 -0.0007793158292770386 0.0 0.0 0.0 0.0
3.802 0.4486179053783417 -0.6560149192810059 0.001650041900575161 -0.0012745941057801247 0.0 0.0 0.0 0.0
3.803 0.43155473470687866 -0.6666557192802429 0.001689230091869831 -0.000658123753964901 0.0 0.0 0.0 0.0
3.804 0.4141322672367096 -0.681997537612915 0.0014459490776062012 -0.0008742790669202805 0.0 0.0 0.0 0.0
3.805 0.3980065584182739 -0.6896241903305054 0.0016385242342948914 -0.0012814439833164215 0.0 0.0 0.0 0.0
3.806 0.3824503421783447 -0.7014104723930359 0.001745103858411312 -0.0015661213546991348 0.0 0.0 0.0 0.0
3.807 0.36829474568367004 -0.7121119499206543 0.0009420737624168396 -0.000999552197754383 0.0 0.0 0.0 0.0
3.808 0.3530404567718506 -0.7154404520988464 0.0013750027865171432 -0.0014005759730935097 0.0 0.0 0.0 0.0
3.809 0.3330560624599457 -0.7268695831298828 0.0010229935869574547 -0.0013077184557914734 0.0 0.0 0.0 0.0
3.81 0.30922943353652954 -0.7362645864486694 0.0013373363763093948 -0.0006224699318408966 0.0 0.0 0.0 0.0
3.811 0.2905409038066864 -0.7467948198318481 0.0013883654028177261 -0.000848991796374321 0.0 0.0 0.0 0.0
3.812 0.2774212956428528 -0.7543537616729736 0.0010133562609553337 -0.001154353842139244 0.0 0.0 0.0 0.0
3.813 0.25810131430625916 -0.7619704604148865 0.0011716317385435104 -0.0008606854826211929 0.0 0.0 0.0 0.0
3.814 0.24128840863704681 -0.7643908262252808 0.0018126796931028366 -0.0009796246886253357 0.0 0.0 0.0 0.0
3.815 0.22503167390823364 -0.770930290222168 0.0013106660917401314 -0.0005001155659556389 0.0 0.0 0.0 0.0
3.816 0.20349495112895966 -0.7768595218658447 0.0015662126243114471 -0.001093967817723751 0.0 0.0 0.0 0.0
3.817 0.18435563147068024 -0.7815414667129517 0.001775125041604042 -0.0012366501614451408 0.0 0.0 0.0 0.0
3.818 0.15823346376419067 -0.7887328863143921 0.0016412073746323586 -0.0011273398995399475 0.0 0.0 0.0 0.0
3.819 0.14791417121887207 -0.7942923307418823 0.000863310880959034 -0.0016247117891907692 0.0 0.0 0.0 0.0
3.82 0.1268872320652008 -0.7982761859893799 0.001279233954846859 -0.0010901903733611107 0.0 0.0 0.0 0.0
3.821 0.11087501794099808 -0.7984885573387146 0.0019380468875169754 -0.0016997596248984337 0.0 0.0 0.0 0.0
3.822 0.09495009481906891 -0.8008512854576111 0.0020502330735325813 -0.0011051669716835022 0.0 0.0 0.0 0.0
3.823 0.07428205758333206 -0.8055648803710938 0.0014254134148359299 -0.0016407864168286324 0.0 0.0 0.0 0.0
3.824 0.05361779406666756 -0.8098179697990417 0.0009651491418480873 -0.0009398628026247025 0.0 0.0 0.0 0.0
3.825 0.03247937932610512 -0.8111332654953003 0.0013255942612886429 -0.0009661773219704628 0.0 0.0 0.0 0.0
3.826 0.014663946814835072 -0.8125917315483093 0.000979490578174591 -0.0020637791603803635 0.0 0.0 0.0 0.0
3.827 -0.008596851490437984 -0.8128378391265869 0.0007576839998364449 -0.0016221161931753159 0.0 0.0 0.0 0.0
3.828 -0.021697962656617165 -0.8140829205513 0.001489570364356041 -0.0008709337562322617 0.0 0.0 0.0 0.0
3.829 -0.0438753142952919 -0.8090694546699524 0.0017876150086522102 -0.0013959435746073723 0.0 0.0 0.0 0.0
3.83 -0.06526250392198563 -0.8106434345245361 0.0012464690953493118 -0.0008409591391682625 0.0 0.0 0.0 0.0
3.831 -0.0792587623000145 -0.8137657046318054 0.0011792555451393127 -0.0019850023090839386 0.0 0.0 0.0 0.0
3.832 -0.1037360429763794 -0.8103160858154297 0.0009595416486263275 -0.001204698346555233 0.0 0.0 0.0 0.0
3.833 -0.12129354476928711 -0.8080054521560669 0.0005761971697211266 -0.00115245021879673 0.0 0.0 0.0 0.0
3.834 -0.1339966207742691 -0.8041762709617615 0.001134401187300682 -0.0016635097563266754 0.0 0.0 0.0 0.0
3.835 -0.1548852026462555 -0.8011807203292847 0.0012445850297808647 -0.0022978773340582848 0.0 0.0 0.0 0.0
3.836 -0.17342446744441986 -0.7974987030029297 0.0005055423825979233 -0.0015590470284223557 0.0 0.0 0.0 0.0
3.837 -0.18987831473350525 -0.7959921956062317 0.00046517513692379 -0.001325555145740509 0.0 0.0 0.0 0.0
3.838 -0.21176677942276 -0.7905498743057251 0.0008914070203900337 -0.0010466855019330978 0.0 0.0 0.0 0.0
3.839 -0.23052971065044403 -0.7847393751144409 0.0014916202053427696 -0.0021226564422249794 0.0 0.0 0.0 0.0
3.84 -0.2508281469345093 -0.7795902490615845 0.0009379740804433823 -0.0015168152749538422 0.0 0.0 0.0 0.0
3.841 -0.26480504870414734 -0.7785930633544922 0.0004155309870839119 -0.0013973815366625786 0.0 0.0 0.0 0.0
3.842 -0.2784687876701355 -0.7725241780281067 0.0014708470553159714 -0.0014808224514126778 0.0 0.0 0.0 0.0
3.843 -0.2990109324455261 -0.7656720280647278 0.0011087190359830856 -0.0013962164521217346 0.0 0.0 0.0 0.0
3.844 -0.31629103422164917 -0.7581570148468018 0.001407090574502945 -0.0017829770222306252 0.0 0.0 0.0 0.0
3.845 -0.3365853726863861 -0.7506017088890076 0.000689210370182991 -0.0018522515892982483 0.0 0.0 0.0 0.0
3.846 -0.35411980748176575 -0.7435225248336792 0.0005403701215982437 -0.0015044249594211578 0.0 0.0 0.0 0.0
3.847 -0.3671974241733551 -0.737112283706665 0.0010625878348946571 -0.0012804185971617699 0.0 0.0 0.0 0.0
3.848 -0.38354554772377014 -0.7291925549507141 0.0003510890528559685 -0.0019288752228021622 0.0 0.0 0.0 0.0
3.849 -0.40232545137405396 -0.7225107550621033 0.001367734745144844 -0.0020347516983747482 0.0 0.0 0.0 0.0
3.85 -0.41573894023895264 -0.7122162580490112 0.001362551935017109 -0.0015450045466423035 0.0 0.0 0.0 0.0
3.851 -0.43257397413253784 -0.7027022242546082 0.0007197568193078041 -0.0011533275246620178 0.0 0.0 0.0 0.0
3.852 -0.4455191493034363 -0.6953087449073792 0.0009352946653962135 -0.0012769447639584541 0.0 0.0 0.0 0.0
3.853 -0.4670812785625458 -0.6804681420326233 0.0011731870472431183 -0.0012588603422045708 0.0 0.0 0.0 0.0
3.854 -0.4791133403778076 -0.6717051267623901 0.0010412996634840965 -0.002191416919231415 0.0 0.0 0.0 0.0
3.855 -0.49663856625556946 -0.6630493998527527 -0.00011473335325717926 -0.0013707345351576805 0.0 0.0 0.0 0.0
3.856 -0.510834813117981 -0.6486609578132629 0.0015007471665740013 -0.001363322138786316 0.0 0.0 0.0 0.0
3.857 -0.5206984877586365 -0.6418472528457642 0.0005230000242590904 -0.0022995630279183388 0.0 0.0 0.0 0.0
3.858 -0.534236490726471 -0.6297454833984375 0.0004899352788925171 -0.0023084841668605804 0.0 0.0 0.0 0.0
3.859 -0.547410786151886 -0.6154391765594482 0.000165427103638649 -0.0017839819192886353 0.0 0.0 0.0 0.0
3.86 -0.5606642961502075 -0.6073585152626038 0.0006444202736020088 -0.00115982536226511 0.0 0.0 0.0 0.0
3.861 -0.5756741762161255 -0.5921526551246643 0.00018481630831956863 -0.0012360448017716408 0.0 0.0 0.0 0.0
3.862 -0.5898379683494568 -0.5778802037239075 -2.974923700094223e-05 -0.0012879008427262306 0.0 0.0 0.0 0.0
3.863 -0.599678635597229 -0.5678319334983826 0.0001497175544500351 -0.002169312909245491 0.0 0.0 0.0 0.0
3.864 -0.6092246174812317 -0.553215742111206 0.000944383442401886 -0.0021051624789834023 0.0 0.0 0.0 0.0
3.865 -0.6222929358482361 -0.5403465032577515 -9.575765579938889e-05 -0.0016317619010806084 0.0 0.0 0.0 0.0
3.866 -0.6340039968490601 -0.5305413007736206 0.0010143015533685684 -0.001371641643345356 0.0 0.0 0.0 0.0
3.867 -0.6409790515899658 -0.5179175734519958 0.0004342254251241684 -0.0023141875863075256 0.0 0.0 0.0 0.0
3.868 -0.6535293459892273 -0.5021088123321533 4.701782017946243e-05 -0.0015238048508763313 0.0 0.0 0.0 0.0
3.869 -0.6627874374389648 -0.4885437786579132 0.00012745801359415054 -0.0015384964644908905 0.0 0.0 0.0 0.0
3.87 -0.6723083853721619 -0.4737759232521057 0.0005543995648622513 -0.0012369314208626747 0.0 0.0 0.0 0.0
3.871 -0.6825141310691833 -0.4578544497489929 0.00041007064282894135 -0.0013388535007834435 0.0 0.0 0.0 0.0
3.872 -0.6929814219474792 -0.4408731460571289 0.0010412093251943588 -0.0023809028789401054 0.0 0.0 0.0 0.0
3.873 -0.7008029222488403 -0.42767956852912903 0.0006409864872694016 -0.0011857375502586365 0.0 0.0 0.0 0.0
3.874 -0.706062376499176 -0.41621023416519165 0.0003314223140478134 -0.0014204466715455055 0.0 0.0 0.0 0.0
3.875 -0.71444171667099 -0.40268251299858093 0.00029982905834913254 -0.002035878598690033 0.0 0.0 0.0 0.0
3.876 -0.7216322422027588 -0.3880119025707245 4.441943019628525e-05 -0.0014822809025645256 0.0 0.0 0.0 0.0
3.877 -0.7293233275413513 -0.373822957277298 0.0011002663522958755 -0.0008706273511052132 0.0 0.0 0.0 0.0
3.878 -0.7358988523483276 -0.35748574137687683 0.00014908332377672195 -0.0022626863792538643 0.0 0.0 0.0 0.0
3.879 -0.741827130317688 -0.342274010181427 1.8924474716186523e-05 -0.001961604692041874 0.0 0.0 0.0 0.0
3.88 -0.746380627155304 -0.3280884921550751 0.0003587566316127777 -0.00138123519718647 0.0 0.0 0.0 0.0
3.881 -0.7550789713859558 -0.3088207244873047 -0.0002417340874671936 -0.0017836345359683037 0.0 0.0 0.0 0.0
3.882 -0.7578017115592957 -0.29903942346572876 4.253629595041275e-05 -0.0013210531324148178 0.0 0.0 0.0 0.0
3.883 -0.7610350251197815 -0.2902827262878418 0.0009583625942468643 -0.0016289660707116127 0.0 0.0 0.0 0.0
3.884 -0.7692559957504272 -0.2687388062477112 0.0005525508895516396 -0.0014868630096316338 0.0 0.0 0.0 0.0
3.885 -0.7696564197540283 -0.25846067070961 -9.536556899547577e-05 -0.0016049006953835487 0.0 0.0 0.0 0.0
3.886 -0.7750857472419739 -0.24001723527908325 0.00014007184654474258 -0.001010935753583908 0.0 0.0 0.0 0.0
3.887 -0.7831138372421265 -0.22468425333499908 0.0007774773985147476 -0.0019039446488022804 0.0 0.0 0.0 0.0
3.888 -0.7853050827980042 -0.20708264410495758 0.0007089115679264069 -0.0015843547880649567 0.0 0.0 0.0 0.0
3.889 -0.7872281670570374 -0.19190196692943573 0.0007885294035077095 -0.0011393027380108833 0.0 0.0 0.0 0.0
3.89 -0.7903287410736084 -0.18203043937683105 -0.00029094424098730087 -0.0018275007605552673 0.0 0.0 0.0 0.0
3.891 -0.7934746146202087 -0.16807155311107635 9.32132825255394e-05 -0.0017334390431642532 0.0 0.0 0.0 0.0
3.892 -0.795845091342926 -0.15542811155319214 0.0006566429510712624 -0.001613939180970192 0.0 0.0 0.0 0.0
3.893 -0.7963062524795532 -0.1386881321668625 -0.0001208791509270668 -0.002038373611867428 0.0 0.0 0.0 0.0
3.894 -0.8003252744674683 -0.12392598390579224 -0.00015296321362257004 -0.001985544338822365 0.0 0.0 0.0 0.0
3.895 -0.8017324209213257 -0.10551527887582779 0.00037748832255601883 -0.0011573629453778267 0.0 0.0 0.0 0.0
3.896 -0.8027293682098389 -0.08868157118558884 0.0007541533559560776 -0.0018795095384120941 0.0 0.0 0.0 0.0
3.897 -0.8042955994606018 -0.07663680613040924 0.0008435286581516266 -0.0014880131930112839 0.0 0.0 0.0 0.0
3.898 -0.8067177534103394 -0.06329073756933212 0.000528496690094471 -0.0019174395129084587 0.0 0.0 0.0 0.0
3.899 -0.8037932515144348 -0.04740791395306587 0.0005708122625946999 -0.001565716229379177 0.0 0.0 0.0 0.0
3.9 -0.8064900636672974 -0.036742329597473145 0.0005727624520659447 -0.0014002006500959396 0.0 0.0 0.0 0.0
3.901 -0.8065189719200134 -0.01782594807446003 0.0003071241080760956 -0.002146271988749504 0.0 0.0 0.0 0.0
3.902 -0.8038851618766785 -0.0036978498101234436 7.502268999814987e-05 -0.0014677979052066803 0.0 0.0 0.0 0.0
3.903 -0.8031905889511108 0.010674013756215572 -0.00031990092247724533 -0.001648763194680214 0.0 0.0 0.0 0.0
3.904 -0.8041696548461914 0.023829765617847443 0.0010883444920182228 -0.0015736427158117294 0.0 0.0 0.0 0.0
3.905 -0.8041021823883057 0.04038630798459053 0.0005964050069451332 -0.001335526816546917 0.0 0.0 0.0 0.0
3.906 -0.8027247786521912 0.05260505527257919 0.0002098139375448227 -0.0020065931603312492 0.0 0.0 0.0 0.0
3.907 -0.8008779287338257 0.06775370240211487 0.0005485899746417999 -0.002039697952568531 0.0 0.0 0.0 0.0
3.908 -0.7981777787208557 0.08043728768825531 -0.0002531660720705986 -0.0018282318487763405 0.0 0.0 0.0 0.0
3.909 -0.7976565957069397 0.09566794335842133 0.0006578769534826279 -0.002189246006309986 0.0 0.0 0.0 0.0
3.91 -0.7939121127128601 0.10379092395305634 0.00026004109531641006 -0.001041896641254425 0.0 0.0 0.0 0.0
3.911 -0.7943389415740967 0.12341656535863876 0.0008091386407613754 -0.0017838720232248306 0.0 0.0 0.0 0.0
3.912 -0.7884612679481506 0.1363207995891571 -0.0005732085555791855 -0.0019893404096364975 0.0 0.0 0.0 0.0
3.913 -0.7876688241958618 0.14989566802978516 0.00025992654263973236 -0.0010812534019351006 0.0 0.0 0.0 0.0
3.914 -0.7843469381332397 0.16569653153419495 0.0004183845594525337 -0.001972123049199581 0.0 0.0 0.0 0.0
3.915 -0.7805730104446411 0.18199537694454193 0.0002789916470646858 -0.0021033231168985367 0.0 0.0 0.0 0.0
3.916 -0.7775249481201172 0.19160957634449005 0.0003225449472665787 -0.0013799294829368591 0.0 0.0 0.0 0.0
3.917 -0.7713316679000854 0.20292223989963531 -0.0004356689751148224 -0.0017291586846113205 0.0 0.0 0.0 0.0
3.918 -0.7691199779510498 0.21614114940166473 0.0002989377826452255 -0.00189144816249609 0.0 0.0 0.0 0.0
3.919 -0.7660465240478516 0.23314613103866577 0.0005619777366518974 -0.001954188570380211 0.0 0.0 0.0 0.0
3.92 -0.75742107629776 0.24498626589775085 -0.00042155757546424866 -0.0015651080757379532 0.0 0.0 0.0 0.0
3.921 -0.7535896301269531 0.25730013847351074 0.00019991770386695862 -0.001401553861796856 0.0 0.0 0.0 0.0
3.922 -0.7492168545722961 0.2699824571609497 0.0004283105954527855 -0.001288626343011856 0.0 0.0 0.0 0.0
3.923 -0.7438821196556091 0.28267887234687805 0.0004031555727124214 -0.0016651935875415802 0.0 0.0 0.0 0.0
3.924 -0.74175626039505 0.29760628938674927 0.0005641411989927292 -0.0015597008168697357 0.0 0.0 0.0 0.0
3.925 -0.7331904768943787 0.31047090888023376 0.00016367249190807343 -0.0022117961198091507 0.0 0.0 0.0 0.0
3.926 -0.727694034576416 0.31510698795318604 -0.00022587738931179047 -0.0012811245396733284 0.0 0.0 0.0 0.0
3.927 -0.7204965353012085 0.32978397607803345 -0.0002379491925239563 -0.001400010660290718 0.0 0.0 0.0 0.0
3.928 -0.7174001932144165 0.3457982540130615 0.0006267568096518517 -0.0017222324386239052 0.0 0.0 0.0 0.0
3.929 -0.7099953293800354 0.3565203547477722 -9.707175195217133e-06 -0.0023368466645479202 0.0 0.0 0.0 0.0
3.93 -0.7049710154533386 0.36746519804000854 0.000570426695048809 -0.001978682354092598 0.0 0.0 0.0 0.0
3.931 -0.6946095824241638 0.3877595365047455 -0.0002232193946838379 -0.002023446373641491 0.0 0.0 0.0 0.0
3.932 -0.6909682750701904 0.38864582777023315 0.00040863268077373505 -0.0019221007823944092 0.0 0.0 0.0 0.0
3.933 -0.6834815144538879 0.40349119901657104 0.0005765575915575027 -0.0012620417401194572 0.0 0.0 0.0 0.0
3.934 -0.6731128692626953 0.4197816550731659 -4.605669528245926e-05 -0.002035386860370636 0.0 0.0 0.0 0.0
3.935 -0.6647376418113708 0.4268620014190674 -0.0004221610724925995 -0.0014245612546801567 0.0 0.0 0.0 0.0
3.936 -0.657225489616394 0.43472835421562195 0.0002210894599556923 -0.0012442851439118385 0.0 0.0 0.0 0.0
3.937 -0.6547740697860718 0.44459986686706543 0.0005932571366429329 -0.0014382731169462204 0.0 0.0 0.0 0.0
3.938 -0.6429775357246399 0.4584755301475525 -0.0004938039928674698 -0.0017248429358005524 0.0 0.0 0.0 0.0
3.939 -0.6335955262184143 0.47163429856300354 -0.000261818990111351 -0.0018111979588866234 0.0 0.0 0.0 0.0
3.94 -0.629610002040863 0.4809214174747467 0.0005262447521090508 -0.0017854953184723854 0.0 0.0 0.0 0.0
3.941 -0.6119091510772705 0.49493905901908875 -0.00037317071110010147 -0.0018648551777005196 0.0 0.0 0.0 0.0
3.942 -0.6118857264518738 0.49930426478385925 0.00042361393570899963 -0.0013220850378274918 0.0 0.0 0.0 0.0
3.943 -0.5993283987045288 0.5147742629051208 0.0002254033461213112 -0.0015843827277421951 0.0 0.0 0.0 0.0
3.944 -0.5892042517662048 0.5230088233947754 -0.0005185566842556 -0.0018258262425661087 0.0 0.0 0.0 0.0
3.945 -0.5864440202713013 0.5243075489997864 -0.00035487208515405655 -0.0011135097593069077 0.0 0.0 0.0 0.0
3.946 -0.5740799307823181 0.5413442850112915 0.00045590195804834366 -0.0017477823421359062 0.0 0.0 0.0 0.0
3.947 -0.562424898147583 0.5528870820999146 -0.0002012886106967926 -0.0014659911394119263 0.0 0.0 0.0 0.0
3.948 -0.5556071996688843 0.5593292713165283 -0.0004060845822095871 -0.0014278916642069817 0.0 0.0 0.0 0.0
3.949 -0.5412828922271729 0.5690933465957642 -0.0005457224324345589 -0.001527152955532074 0.0 0.0 0.0 0.0
3.95 -0.534328281879425 0.5775001049041748 -0.00028461404144763947 -0.001875065267086029 0.0 0.0 0.0 0.0
3.951 -0.5245981812477112 0.5862232446670532 0.0005315607413649559 -0.0016418211162090302 0.0 0.0 0.0 0.0
3.952 -0.517460823059082 0.5949706435203552 0.00016735028475522995 -0.0014503169804811478 0.0 0.0 0.0 0.0
3.953 -0.5077769756317139 0.6022347807884216 0.00012674089521169662 -0.0017608152702450752 0.0 0.0 0.0 0.0
3.954 -0.49390488862991333 0.6097763776779175 0.00023003853857517242 -0.001249144785106182 0.0 0.0 0.0 0.0
3.955 -0.4803413152694702 0.6200459003448486 -0.00012968759983778 -0.0019015362486243248 0.0 0.0 0.0 0.0
3.956 -0.4686580300331116 0.62675940990448 -0.0003236420452594757 -0.0015926389023661613 0.0 0.0 0.0 0.0
3.957 -0.45962783694267273 0.6341075301170349 -0.0005691647529602051 -0.0013366704806685448 0.0 0.0 0.0 0.0
3.958 -0.4461612105369568 0.6460013389587402 -0.0004952633753418922 -0.0015795566141605377 0.0 0.0 0.0 0.0
3.959 -0.440079003572464 0.646187961101532 -2.5263987481594086e-05 -0.00093085877597332 0.0 0.0 0.0 0.0
3.96 -0.43105262517929077 0.655546247959137 -0.0002578962594270706 -0.0020915092900395393 0.0 0.0 0.0 0.0
3.961 -0.416305273771286 0.66061931848526 -0.0004275934770703316 -0.0011864816769957542 0.0 0.0 0.0 0.0
3.962 -0.40480974316596985 0.6698645949363708 -0.0006123427301645279 -0.0016402360051870346 0.0 0.0 0.0 0.0
3.963 -0.3955380916595459 0.6763180494308472 -4.182755947113037e-05 -0.0014020567759871483 0.0 0.0 0.0 0.0
3.964 -0.3759547173976898 0.6845223903656006 -0.0006287749856710434 -0.0016950322315096855 0.0 0.0 0.0 0.0
3.965 -0.3711627125740051 0.6873200535774231 -0.00020777899771928787 -0.0008230991661548615 0.0 0.0 0.0 0.0
3.966 -0.35923153162002563 0.6932094097137451 -0.00021285004913806915 -0.0008049299940466881 0.0 0.0 0.0 0.0
3.967 -0.3485506772994995 0.7033088803291321 0.00023030489683151245 -0.0015026601031422615 0.0 0.0 0.0 0.0
3.968 -0.33576640486717224 0.7062568664550781 -0.00045595504343509674 -0.001581607386469841 0.0 0.0 0.0 0.0
3.969 -0.32625821232795715 0.7117130756378174 -8.135847747325897e-05 -0.0008829189464449883 0.0 0.0 0.0 0.0
3.97 -0.3074231743812561 0.7171661853790283 -0.00044662225991487503 -0.001214561052620411 0.0 0.0 0.0 0.0
3.971 -0.295350581407547 0.7241902351379395 -6.645079702138901e-05 -0.0017063738778233528 0.0 0.0 0.0 0.0
3.972 -0.2813745141029358 0.7295249700546265 0.00017375312745571136 -0.0009340718388557434 0.0 0.0 0.0 0.0
3.973 -0.27207788825035095 0.730566680431366 -0.00041884370148181915 -0.001134965568780899 0.0 0.0 0.0 0.0
3.974 -0.25587281584739685 0.7359963059425354 -0.0002962052822113037 -0.0009820051491260529 0.0 0.0 0.0 0.0
3.975 -0.2468184381723404 0.7412674427032471 -0.0002615833654999733 -0.0010967329144477844 0.0 0.0 0.0 0.0
3.976 -0.23815196752548218 0.7441120147705078 0.00012003537267446518 -0.0017788680270314217 0.0 0.0 0.0 0.0
3.977 -0.2230028510093689 0.7475090026855469 -0.0006705997511744499 -0.0015853848308324814 0.0 0.0 0.0 0.0
3.978 -0.2057005763053894 0.7539272904396057 -0.0005259411409497261 -0.0013764919713139534 0.0 0.0 0.0 0.0
3.979 -0.1953156590461731 0.7539700269699097 -0.00030832458287477493 -0.0010912250727415085 0.0 0.0 0.0 0.0
3.98 -0.1809527575969696 0.7605394721031189 -0.00035225972533226013 -0.001451919786632061 0.0 0.0 0.0 0.0
3.981 -0.16748706996440887 0.7646247148513794 3.7906691431999207e-05 -0.0019284803420305252 0.0 0.0 0.0 0.0
3.982 -0.15677876770496368 0.7625908851623535 -0.0004463568329811096 -0.0011127060279250145 0.0 0.0 0.0 0.0
3.983 -0.14785796403884888 0.7665265798568726 6.61974772810936e-05 -0.0010715294629335403 0.0 0.0 0.0 0.0
3.984 -0.13507018983364105 0.7670450210571289 0.00024178717285394669 -0.0012415014207363129 0.0 0.0 0.0 0.0
3.985 -0.12167230993509293 0.7726826071739197 -1.9908882677555084e-05 -0.0017513101920485497 0.0 0.0 0.0 0.0
3.986 -0.10162588953971863 0.7740747332572937 -0.0007413486018776894 -0.0013012699782848358 0.0 0.0 0.0 0.0
3.987 -0.09005168080329895 0.7754096984863281 -0.0005308100953698158 -0.0015240395441651344 0.0 0.0 0.0 0.0
3.988 -0.07523033767938614 0.7743068337440491 -0.000454876571893692 -0.0008319607004523277 0.0 0.0 0.0 0.0
3.989 -0.061811357736587524 0.7797164916992188 5.3052790462970734e-05 -0.0014722198247909546 0.0 0.0 0.0 0.0
3.99 -0.04881931096315384 0.7802080512046814 7.416121661663055e-06 -0.0013786796480417252 0.0 0.0 0.0 0.0
3.991 -0.033158622682094574 0.7814546227455139 -0.000506887212395668 -0.0012725191190838814 0.0 0.0 0.0 0.0
3.992 -0.026920216158032417 0.7802478075027466 -0.00041697826236486435 -0.001180289313197136 0.0 0.0 0.0 0.0
3.993 -0.0069224899634718895 0.7800731062889099 -0.00014041084796190262 -0.0008214423432946205 0.0 0.0 0.0 0.0
3.994 0.0015816586092114449 0.7821409702301025 -0.0005336888134479523 -0.000947081483900547 0.0 0.0 0.0 0.0
3.995 0.02063024789094925 0.7828344702720642 2.757646143436432e-05 -0.0012632226571440697 0.0 0.0 0.0 0.0
3.996 0.028278274461627007 0.7806856036186218 -5.398876965045929e-06 -0.001101466827094555 0.0 0.0 0.0 0.0
3.997 0.048249226063489914 0.7799924612045288 -0.000244140625 -0.0008701086044311523 0.0 0.0 0.0 0.0
3.998 0.06031939387321472 0.7823233008384705 -0.00037176068872213364 -0.0015752920880913734 0.0 0.0 0.0 0.0
3.999 0.07538533955812454 0.7814814448356628 -0.0003440631553530693 -0.0015971455723047256 0.0 0.0 0.0 0.0
4.0 0.09040486067533493 0.7777899503707886 -0.0005605285987257957 -0.0009417161345481873 0.0 0.0 0.0 0.0
