!Created with skrf (http://scikit-rf.org).
# GHz S RI R 50.0 
!freq ReS11 ImS11 ReS21 ImS21 ReS12 ImS12 ReS22 ImS22
0.001 1.0053435564041138 -0.0009156176820397377 -1.7277896404266357e-05 -9.065493941307068e-06 0.0 0.0 0.0 0.0
0.002 1.000158429145813 -0.0031413501128554344 4.639849066734314e-06 7.214024662971497e-06 0.0 0.0 0.0 0.0
0.003 0.9997849464416504 -0.003616802394390106 1.5604309737682343e-05 -1.86823308467865e-05 0.0 0.0 0.0 0.0
0.004 1.0005255937576294 -0.005897986702620983 -1.477077603340149e-05 -3.0668452382087708e-06 0.0 0.0 0.0 0.0
0.005 0.999822199344635 -0.006473788991570473 -5.122274160385132e-08 -6.5015628933906555e-06 0.0 0.0 0.0 0.0
0.006 0.9994212985038757 -0.007853730581700802 1.5317462384700775e-05 -4.3800100684165955e-06 0.0 0.0 0.0 0.0
0.007 0.9999374747276306 -0.009533431380987167 -1.5215016901493073e-05 -7.4589625000953674e-06 0.0 0.0 0.0 0.0
0.008 0.999478816986084 -0.010595113039016724 1.2928619980812073e-05 -6.96815550327301e-06 0.0 0.0 0.0 0.0
0.009 0.9997860789299011 -0.012430177070200443 -2.4539418518543243e-05 1.3738870620727539e-05 0.0 0.0 0.0 0.0
0.01 0.9993183612823486 -0.013879537582397461 3.3713877201080322e-06 2.6389025151729584e-05 0.0 0.0 0.0 0.0
0.011 0.9997364282608032 -0.015310248360037804 -1.1461786925792694e-05 9.996816515922546e-06 0.0 0.0 0.0 0.0
0.012 0.999199628829956 -0.01599257066845894 -1.4088116586208344e-05 5.166046321392059e-06 0.0 0.0 0.0 0.0
0.013 0.9994248747825623 -0.017627250403165817 2.4316832423210144e-05 2.785027027130127e-05 0.0 0.0 0.0 0.0
0.014 0.9993001222610474 -0.01905304379761219 1.2556090950965881e-05 7.4803829193115234e-06 0.0 0.0 0.0 0.0
0.015 0.9999551177024841 -0.01994478702545166 2.1993182599544525e-05 -1.4356337487697601e-05 0.0 0.0 0.0 0.0
0.016 0.9998651146888733 -0.022001048550009727 -2.392660826444626e-05 -1.9082799553871155e-06 0.0 0.0 0.0 0.0
0.017 0.9990044832229614 -0.0227232426404953 3.5871751606464386e-05 -3.464985638856888e-05 0.0 0.0 0.0 0.0
0.018 0.9999590516090393 -0.024166487157344818 1.3515353202819824e-05 2.8712674975395203e-06 0.0 0.0 0.0 0.0
0.019 0.9990092515945435 -0.025593534111976624 -8.195638656616211e-06 1.335982233285904e-05 0.0 0.0 0.0 0.0
0.02 0.9996306896209717 -0.026920247822999954 1.193024218082428e-06 1.0289251804351807e-05 0.0 0.0 0.0 0.0
0.021 0.9988991618156433 -0.027956794947385788 1.2103468179702759e-05 1.5323981642723083e-05 0.0 0.0 0.0 0.0
0.022 0.9992883801460266 -0.029797818511724472 1.7444603145122528e-05 1.0612420737743378e-05 0.0 0.0 0.0 0.0
0.023 0.9988755583763123 -0.031090928241610527 -1.0756775736808777e-05 -3.88268381357193e-06 0.0 0.0 0.0 0.0
0.024 0.9994891881942749 -0.03322870656847954 -1.428462564945221e-05 3.959983587265015e-06 0.0 0.0 0.0 0.0
0.025 0.9988527894020081 -0.03461673855781555 4.821456968784332e-06 1.4149583876132965e-05 0.0 0.0 0.0 0.0
0.026 0.9995181560516357 -0.03589374199509621 6.239861249923706e-06 -1.4183111488819122e-05 0.0 0.0 0.0 0.0
0.027 0.9993709921836853 -0.037145476788282394 -8.940696716308594e-07 1.3299286365509033e-06 0.0 0.0 0.0 0.0
0.028 0.9990622401237488 -0.038603801280260086 4.156492650508881e-06 8.163973689079285e-06 0.0 0.0 0.0 0.0
0.029 0.9986556172370911 -0.039928968995809555 7.374212145805359e-06 1.1863186955451965e-05 0.0 0.0 0.0 0.0
0.03 0.9981209635734558 -0.04082947224378586 2.0930543541908264e-05 -8.046627044677734e-07 0.0 0.0 0.0 0.0
0.031 0.9987863302230835 -0.042701926082372665 4.620291292667389e-06 4.656612873077393e-06 0.0 0.0 0.0 0.0
0.032 0.999057948589325 -0.043316274881362915 4.7227367758750916e-06 -5.691312253475189e-06 0.0 0.0 0.0 0.0
0.033 0.9988716840744019 -0.045539889484643936 -2.001877874135971e-05 1.0457821190357208e-05 0.0 0.0 0.0 0.0
0.034 0.9994511604309082 -0.04709793999791145 -8.930452167987823e-06 4.470348358154297e-06 0.0 0.0 0.0 0.0
0.035 0.9988855719566345 -0.04833560809493065 -1.3615936040878296e-05 -9.294599294662476e-07 0.0 0.0 0.0 0.0
0.036 0.9986136555671692 -0.04965889826416969 -5.488283932209015e-06 7.973052561283112e-06 0.0 0.0 0.0 0.0
0.037 0.9984356760978699 -0.050975263118743896 4.1211023926734924e-06 -4.209578037261963e-06 0.0 0.0 0.0 0.0
0.038 0.9983386397361755 -0.05199186131358147 -2.3859553039073944e-05 8.818693459033966e-06 0.0 0.0 0.0 0.0
0.039 0.9979622960090637 -0.05372994765639305 -3.894791007041931e-05 4.938896745443344e-05 0.0 0.0 0.0 0.0
0.04 0.9974150061607361 -0.05427799001336098 -1.3383105397224426e-06 1.6548670828342438e-05 0.0 0.0 0.0 0.0
0.041 0.9982931613922119 -0.05699620768427849 -3.481656312942505e-05 1.955777406692505e-07 0.0 0.0 0.0 0.0
0.042 0.9974462985992432 -0.05750847980380058 5.7406723499298096e-06 -5.00120222568512e-06 0.0 0.0 0.0 0.0
0.043 0.9985700845718384 -0.05919275060296059 2.7101486921310425e-07 -1.3268552720546722e-05 0.0 0.0 0.0 0.0
0.044 0.9974036812782288 -0.060048043727874756 -2.3291446268558502e-05 8.762814104557037e-06 0.0 0.0 0.0 0.0
0.045 0.9968090057373047 -0.06121327728033066 9.884126484394073e-06 -5.437992513179779e-06 0.0 0.0 0.0 0.0
0.046 0.9970290064811707 -0.06339859217405319 -6.143935024738312e-06 1.749582588672638e-05 0.0 0.0 0.0 0.0
0.047 0.9968462586402893 -0.06448506563901901 2.3404136300086975e-06 5.45848160982132e-06 0.0 0.0 0.0 0.0
0.048 0.9975890517234802 -0.06542377918958664 9.66433435678482e-06 -1.7180107533931732e-05 0.0 0.0 0.0 0.0
0.049 0.9971768260002136 -0.06721188127994537 -2.697668969631195e-05 7.335096597671509e-06 0.0 0.0 0.0 0.0
0.05 0.9978126287460327 -0.0678376778960228 -1.9923783838748932e-05 2.0099803805351257e-05 0.0 0.0 0.0 0.0
0.051 0.9965330362319946 -0.07004141062498093 7.56140798330307e-06 1.7260201275348663e-05 0.0 0.0 0.0 0.0
0.052 0.996157169342041 -0.07081026583909988 7.704831659793854e-06 5.25452196598053e-06 0.0 0.0 0.0 0.0
0.053 0.9960702061653137 -0.07250206917524338 1.898501068353653e-05 1.4637596905231476e-05 0.0 0.0 0.0 0.0
0.054 0.9963146448135376 -0.07338602095842361 -5.165114998817444e-06 1.5680678188800812e-05 0.0 0.0 0.0 0.0
0.055 0.9966826438903809 -0.07532983273267746 8.763745427131653e-07 3.2094307243824005e-05 0.0 0.0 0.0 0.0
0.056 0.9955527782440186 -0.07687613368034363 2.068839967250824e-05 2.7624890208244324e-05 0.0 0.0 0.0 0.0
0.057 0.9959076642990112 -0.07829548418521881 -7.234513759613037e-06 9.978190064430237e-06 0.0 0.0 0.0 0.0
0.058 0.9951818585395813 -0.07879352569580078 1.802109181880951e-06 1.4351680874824524e-06 0.0 0.0 0.0 0.0
0.059 0.9951793551445007 -0.08018362522125244 -9.45013016462326e-06 -2.454034984111786e-06 0.0 0.0 0.0 0.0
0.06 0.9952753186225891 -0.08127568662166595 1.434236764907837e-07 1.1397525668144226e-05 0.0 0.0 0.0 0.0
0.061 0.9954619407653809 -0.08316833525896072 4.209578037261963e-07 3.2996758818626404e-06 0.0 0.0 0.0 0.0
0.062 0.9960148334503174 -0.08480171859264374 1.7881393432617188e-06 1.535750925540924e-06 0.0 0.0 0.0 0.0
0.063 0.9952820539474487 -0.08587302267551422 -6.404705345630646e-06 -1.181289553642273e-05 0.0 0.0 0.0 0.0
0.064 0.9944528937339783 -0.08660788834095001 -2.0936131477355957e-06 -1.2771226465702057e-05 0.0 0.0 0.0 0.0
0.065 0.9951002597808838 -0.08814165741205215 2.6724301278591156e-05 -3.4226104617118835e-06 0.0 0.0 0.0 0.0
0.066 0.9943617582321167 -0.08959084749221802 1.4865770936012268e-05 1.431535929441452e-05 0.0 0.0 0.0 0.0
0.067 0.9949489235877991 -0.09121742844581604 5.669891834259033e-06 -9.98564064502716e-06 0.0 0.0 0.0 0.0
0.068 0.9939345717430115 -0.092222198843956 -9.406358003616333e-07 1.6421079635620117e-05 0.0 0.0 0.0 0.0
0.069 0.994558572769165 -0.09403440356254578 -4.547648131847382e-06 2.496875822544098e-06 0.0 0.0 0.0 0.0
0.07 0.9937707781791687 -0.09476320445537567 4.929490387439728e-06 5.695968866348267e-06 0.0 0.0 0.0 0.0
0.071 0.9935306310653687 -0.09677551686763763 -2.845190465450287e-06 2.6035122573375702e-05 0.0 0.0 0.0 0.0
0.072 0.9934123754501343 -0.09791891276836395 1.9322149455547333e-05 1.4029443264007568e-05 0.0 0.0 0.0 0.0
0.073 0.993782103061676 -0.0998186245560646 2.4847686290740967e-06 1.866742968559265e-05 0.0 0.0 0.0 0.0
0.074 0.9945777654647827 -0.10091987997293472 -2.5350600481033325e-06 3.827735781669617e-06 0.0 0.0 0.0 0.0
0.075 0.9936258792877197 -0.10278027504682541 -1.8421560525894165e-05 -4.759058356285095e-07 0.0 0.0 0.0 0.0
0.076 0.9933951497077942 -0.10342272371053696 -1.469627022743225e-06 6.385147571563721e-06 0.0 0.0 0.0 0.0
0.077 0.9932556748390198 -0.10519766807556152 -1.1511147022247314e-06 1.9120052456855774e-06 0.0 0.0 0.0 0.0
0.078 0.993708610534668 -0.10659229755401611 8.761882781982422e-06 -7.725320756435394e-06 0.0 0.0 0.0 0.0
0.079 0.993328332901001 -0.10684365034103394 2.3934990167617798e-06 -1.4534220099449158e-05 0.0 0.0 0.0 0.0
0.08 0.9932720065116882 -0.1080487072467804 -4.4330954551696777e-07 -1.708976924419403e-05 0.0 0.0 0.0 0.0
0.081 0.9932990074157715 -0.10967028886079788 -5.037523806095123e-06 -1.5572644770145416e-05 0.0 0.0 0.0 0.0
0.082 0.9918426275253296 -0.11132533848285675 4.396773874759674e-06 1.4629215002059937e-05 0.0 0.0 0.0 0.0
0.083 0.9926366806030273 -0.11192045360803604 -1.4594756066799164e-05 2.1578744053840637e-06 0.0 0.0 0.0 0.0
0.084 0.9924290776252747 -0.11466458439826965 -7.197260856628418e-06 -2.7257949113845825e-05 0.0 0.0 0.0 0.0
0.085 0.9921945929527283 -0.11541596800088882 1.0265037417411804e-05 4.034489393234253e-06 0.0 0.0 0.0 0.0
0.086 0.9921654462814331 -0.11693304777145386 -1.2721866369247437e-05 4.886649549007416e-06 0.0 0.0 0.0 0.0
0.087 0.9914700388908386 -0.1177215725183487 -5.344860255718231e-06 6.702728569507599e-06 0.0 0.0 0.0 0.0
0.088 0.9920930862426758 -0.11870715767145157 -1.7628073692321777e-05 -1.2686476111412048e-05 0.0 0.0 0.0 0.0
0.089 0.9908801913261414 -0.12019120901823044 1.17449089884758e-05 -5.166977643966675e-06 0.0 0.0 0.0 0.0
0.09 0.9906861782073975 -0.12128610163927078 1.141522079706192e-05 3.4580007195472717e-06 0.0 0.0 0.0 0.0
0.091 0.9904531240463257 -0.12407179176807404 -3.1795352697372437e-06 -1.101754605770111e-06 0.0 0.0 0.0 0.0
0.092 0.9904018640518188 -0.12505894899368286 -3.3015385270118713e-06 1.552049070596695e-05 0.0 0.0 0.0 0.0
0.093 0.990660548210144 -0.12653033435344696 -8.643604815006256e-06 8.868053555488586e-06 0.0 0.0 0.0 0.0
0.094 0.9898382425308228 -0.12749196588993073 9.313225746154785e-09 8.596107363700867e-07 0.0 0.0 0.0 0.0
0.095 0.989336371421814 -0.12854889035224915 -1.836288720369339e-05 1.5119090676307678e-05 0.0 0.0 0.0 0.0
0.096 0.989108145236969 -0.12964698672294617 1.6738660633563995e-05 2.4689361453056335e-05 0.0 0.0 0.0 0.0
0.097 0.9896078705787659 -0.1303005814552307 1.6344711184501648e-06 -1.1730007827281952e-05 0.0 0.0 0.0 0.0
0.098 0.9885677099227905 -0.1319151371717453 -5.495734512805939e-06 -3.0957162380218506e-06 0.0 0.0 0.0 0.0
0.099 0.9891331791877747 -0.13322077691555023 3.3490359783172607e-06 -1.050066202878952e-05 0.0 0.0 0.0 0.0
0.1 0.9889769554138184 -0.13494814932346344 -3.0957162380218506e-06 -2.8998591005802155e-05 0.0 0.0 0.0 0.0
0.101 0.9870729446411133 -0.14064663648605347 -4.130415618419647e-06 2.790987491607666e-05 0.0 0.0 0.0 0.0
0.102 0.986976146697998 -0.1421663463115692 1.0094605386257172e-05 -6.397254765033722e-06 0.0 0.0 0.0 0.0
0.103 0.9866310358047485 -0.14353498816490173 -1.5066005289554596e-05 7.296912372112274e-06 0.0 0.0 0.0 0.0
0.104 0.9860461950302124 -0.14487475156784058 1.1682510375976562e-05 1.964159309864044e-06 0.0 0.0 0.0 0.0
0.105 0.9858779907226562 -0.14549322426319122 8.33999365568161e-06 -2.054031938314438e-05 0.0 0.0 0.0 0.0
0.106 0.9857059121131897 -0.14787468314170837 1.7797574400901794e-06 1.2507662177085876e-06 0.0 0.0 0.0 0.0
0.107 0.9856275320053101 -0.1486620455980301 -1.654215157032013e-05 -4.8531219363212585e-06 0.0 0.0 0.0 0.0
0.108 0.9847226738929749 -0.14999555051326752 -1.2088567018508911e-06 -4.859641194343567e-06 0.0 0.0 0.0 0.0
0.109 0.984601616859436 -0.15147343277931213 -5.055218935012817e-06 1.4346092939376831e-05 0.0 0.0 0.0 0.0
0.11 0.9843900799751282 -0.15242299437522888 -5.385838449001312e-06 1.7937272787094116e-06 0.0 0.0 0.0 0.0
0.111 0.9839341640472412 -0.15394142270088196 -4.775822162628174e-06 4.688277840614319e-06 0.0 0.0 0.0 0.0
0.112 0.9843456149101257 -0.15511810779571533 -9.228475391864777e-06 7.222406566143036e-06 0.0 0.0 0.0 0.0
0.113 0.9837371110916138 -0.15660038590431213 -2.72504985332489e-06 -1.5012919902801514e-05 0.0 0.0 0.0 0.0
0.114 0.9830794930458069 -0.15817339718341827 -5.365349352359772e-06 9.431503713130951e-06 0.0 0.0 0.0 0.0
0.115 0.983110785484314 -0.15933218598365784 7.722526788711548e-06 3.8025900721549988e-06 0.0 0.0 0.0 0.0
0.116 0.9827660322189331 -0.1601802110671997 -1.710839569568634e-06 -1.1039897799491882e-05 0.0 0.0 0.0 0.0
0.117 0.9824780821800232 -0.16199009120464325 -2.0868144929409027e-05 2.2579915821552277e-05 0.0 0.0 0.0 0.0
0.118 0.9828046560287476 -0.16331906616687775 4.964880645275116e-06 -4.032626748085022e-06 0.0 0.0 0.0 0.0
0.119 0.981957733631134 -0.16458562016487122 -2.3185275495052338e-05 8.650124073028564e-06 0.0 0.0 0.0 0.0
0.12 0.9816129803657532 -0.16605503857135773 -1.1349096894264221e-05 -1.735985279083252e-06 0.0 0.0 0.0 0.0
0.121 0.9817585349082947 -0.1671592742204666 -1.8778257071971893e-05 2.2132880985736847e-05 0.0 0.0 0.0 0.0
0.122 0.9809919595718384 -0.16884878277778625 3.7653371691703796e-06 1.6742385923862457e-05 0.0 0.0 0.0 0.0
0.123 0.9808766841888428 -0.16990679502487183 1.4767050743103027e-05 1.887604594230652e-05 0.0 0.0 0.0 0.0
0.124 0.9807018637657166 -0.1714995950460434 -1.1330470442771912e-05 5.150213837623596e-07 0.0 0.0 0.0 0.0
0.125 0.9800187349319458 -0.1729251891374588 4.818663001060486e-06 1.5192665159702301e-05 0.0 0.0 0.0 0.0
0.126 0.9800398349761963 -0.17345936596393585 8.889473974704742e-06 1.346692442893982e-06 0.0 0.0 0.0 0.0
0.127 0.9794886708259583 -0.17473623156547546 6.094574928283691e-06 6.249174475669861e-07 0.0 0.0 0.0 0.0
0.128 0.9791791439056396 -0.17521698772907257 1.0865740478038788e-05 -7.952563464641571e-06 0.0 0.0 0.0 0.0
0.129 0.9793565273284912 -0.17794457077980042 -5.723908543586731e-06 1.4062970876693726e-07 0.0 0.0 0.0 0.0
0.13 0.9786972403526306 -0.17906230688095093 1.3140961527824402e-05 -1.8207356333732605e-06 0.0 0.0 0.0 0.0
0.131 0.9785707592964172 -0.1798497885465622 -6.861984729766846e-06 7.072463631629944e-06 0.0 0.0 0.0 0.0
0.132 0.9780275225639343 -0.18178316950798035 -6.9374218583106995e-06 2.5709159672260284e-05 0.0 0.0 0.0 0.0
0.133 0.9773167967796326 -0.1824713498353958 -3.593042492866516e-06 1.1460855603218079e-05 0.0 0.0 0.0 0.0
0.134 0.9776188135147095 -0.18441039323806763 -1.110229641199112e-05 1.429673284292221e-05 0.0 0.0 0.0 0.0
0.135 0.97719806432724 -0.18583600223064423 -1.0594725608825684e-05 7.661059498786926e-06 0.0 0.0 0.0 0.0
0.136 0.976942777633667 -0.18652276694774628 1.436285674571991e-05 -1.753494143486023e-05 0.0 0.0 0.0 0.0
0.137 0.97648686170578 -0.188188374042511 2.376735210418701e-06 1.2133270502090454e-05 0.0 0.0 0.0 0.0
0.138 0.9763689041137695 -0.18935857713222504 1.934356987476349e-06 5.033798515796661e-06 0.0 0.0 0.0 0.0
0.139 0.9756747484207153 -0.1907510906457901 -3.376975655555725e-06 5.655921995639801e-06 0.0 0.0 0.0 0.0
0.14 0.9756174683570862 -0.19126668572425842 4.523433744907379e-06 8.142553269863129e-06 0.0 0.0 0.0 0.0
0.141 0.9755455255508423 -0.19307342171669006 -3.1525269150733948e-06 -2.2117979824543e-05 0.0 0.0 0.0 0.0
0.142 0.974845290184021 -0.19453544914722443 -2.4400651454925537e-06 4.580244421958923e-06 0.0 0.0 0.0 0.0
0.143 0.9749412536621094 -0.1958535611629486 -2.8889626264572144e-06 8.110888302326202e-06 0.0 0.0 0.0 0.0
0.144 0.9740847945213318 -0.19732257723808289 -1.3163313269615173e-05 2.9243528842926025e-06 0.0 0.0 0.0 0.0
0.145 0.9737288951873779 -0.19765028357505798 2.5253742933273315e-05 -6.5481290221214294e-06 0.0 0.0 0.0 0.0
0.146 0.9738627076148987 -0.19965967535972595 -1.7549842596054077e-05 -6.051734089851379e-06 0.0 0.0 0.0 0.0
0.147 0.9730605483055115 -0.2004505693912506 7.028691470623016e-06 -1.335982233285904e-05 0.0 0.0 0.0 0.0
0.148 0.97314453125 -0.2019631713628769 6.644055247306824e-06 -4.585832357406616e-06 0.0 0.0 0.0 0.0
0.149 0.9726854562759399 -0.20322971045970917 2.1085143089294434e-06 -4.993751645088196e-06 0.0 0.0 0.0 0.0
0.15 0.9721621870994568 -0.20455120503902435 -9.609386324882507e-06 7.783062756061554e-06 0.0 0.0 0.0 0.0
0.151 0.9725446105003357 -0.2054024189710617 -5.392357707023621e-06 -9.174458682537079e-06 0.0 0.0 0.0 0.0
0.152 0.9718288779258728 -0.20626519620418549 -3.1152740120887756e-06 -6.398186087608337e-06 0.0 0.0 0.0 0.0
0.153 0.9714159965515137 -0.20819948613643646 1.0405667126178741e-05 -8.99285078048706e-06 0.0 0.0 0.0 0.0
0.154 0.9708678126335144 -0.20923170447349548 8.866190910339355e-07 5.445443093776703e-06 0.0 0.0 0.0 0.0
0.155 0.9703748822212219 -0.21051689982414246 -1.4961697161197662e-05 3.1311064958572388e-06 0.0 0.0 0.0 0.0
0.156 0.9700706601142883 -0.21153393387794495 1.4254823327064514e-05 -6.202608346939087e-07 0.0 0.0 0.0 0.0
0.157 0.9702304005622864 -0.21316997706890106 -6.813555955886841e-06 2.4508684873580933e-05 0.0 0.0 0.0 0.0
0.158 0.9694580435752869 -0.21418191492557526 -5.638226866722107e-06 -4.303641617298126e-06 0.0 0.0 0.0 0.0
0.159 0.9690586924552917 -0.2159186452627182 4.821456968784332e-06 1.4677643775939941e-05 0.0 0.0 0.0 0.0
0.16 0.9688109755516052 -0.21665658056735992 9.274110198020935e-06 1.3520009815692902e-05 0.0 0.0 0.0 0.0
0.161 0.9683768153190613 -0.21816952526569366 8.973293006420135e-06 7.222406566143036e-06 0.0 0.0 0.0 0.0
0.162 0.9682114124298096 -0.21923483908176422 2.3460015654563904e-06 1.3295561075210571e-05 0.0 0.0 0.0 0.0
0.163 0.9677447080612183 -0.22067540884017944 -4.374422132968903e-06 -5.326233804225922e-06 0.0 0.0 0.0 0.0
0.164 0.9670959115028381 -0.22228705883026123 -6.874091923236847e-06 1.752842217683792e-05 0.0 0.0 0.0 0.0
0.165 0.9671111106872559 -0.2233828902244568 -2.8127804398536682e-05 4.516914486885071e-07 0.0 0.0 0.0 0.0
0.166 0.9667859673500061 -0.22472481429576874 5.798414349555969e-06 -2.4596229195594788e-06 0.0 0.0 0.0 0.0
0.167 0.9664422869682312 -0.22534555196762085 -3.0677765607833862e-06 -1.1999160051345825e-05 0.0 0.0 0.0 0.0
0.168 0.9660645723342896 -0.2268727570772171 -3.8463622331619263e-07 -1.616310328245163e-05 0.0 0.0 0.0 0.0
0.169 0.9657130241394043 -0.22807607054710388 -1.7655082046985626e-05 1.6119331121444702e-05 0.0 0.0 0.0 0.0
0.17 0.9654978513717651 -0.22922658920288086 -2.4561770260334015e-05 -1.582317054271698e-06 0.0 0.0 0.0 0.0
0.171 0.965345561504364 -0.23052558302879333 -2.9336661100387573e-07 -3.926455974578857e-06 0.0 0.0 0.0 0.0
0.172 0.9649774432182312 -0.23144613206386566 7.434748113155365e-06 -2.3115426301956177e-06 0.0 0.0 0.0 0.0
0.173 0.9640227556228638 -0.23303894698619843 -8.188188076019287e-06 1.5468336641788483e-05 0.0 0.0 0.0 0.0
0.174 0.9643063545227051 -0.2343091517686844 -7.404014468193054e-06 2.3631379008293152e-05 0.0 0.0 0.0 0.0
0.175 0.9635862112045288 -0.2350214719772339 -7.224269211292267e-06 -1.3182871043682098e-05 0.0 0.0 0.0 0.0
0.176 0.9635857939720154 -0.2365599423646927 1.1906027793884277e-05 1.0827556252479553e-05 0.0 0.0 0.0 0.0
0.177 0.9629157781600952 -0.2376684546470642 -1.907162368297577e-05 -3.7616118788719177e-06 0.0 0.0 0.0 0.0
0.178 0.9622114300727844 -0.23888947069644928 -9.30391252040863e-07 -4.783272743225098e-06 0.0 0.0 0.0 0.0
0.179 0.9621856212615967 -0.24064317345619202 -1.4272518455982208e-05 -4.500150680541992e-06 0.0 0.0 0.0 0.0
0.18 0.961840033531189 -0.24146831035614014 4.502944648265839e-06 3.322027623653412e-06 0.0 0.0 0.0 0.0
0.181 0.9612583518028259 -0.24212953448295593 1.7197802662849426e-05 9.071081876754761e-07 0.0 0.0 0.0 0.0
0.182 0.9611731767654419 -0.2444879561662674 -1.091044396162033e-05 -5.456618964672089e-06 0.0 0.0 0.0 0.0
0.183 0.9606654047966003 -0.24516519904136658 -1.4962628483772278e-05 -5.302019417285919e-06 0.0 0.0 0.0 0.0
0.184 0.959788978099823 -0.24650055170059204 2.2020190954208374e-05 1.2210570275783539e-05 0.0 0.0 0.0 0.0
0.185 0.9602271318435669 -0.24764151871204376 7.3015689849853516e-06 1.784972846508026e-05 0.0 0.0 0.0 0.0
0.186 0.9589886665344238 -0.2484363168478012 4.287809133529663e-06 1.5920959413051605e-05 0.0 0.0 0.0 0.0
0.187 0.958965003490448 -0.2498977780342102 1.1894851922988892e-05 1.2869946658611298e-05 0.0 0.0 0.0 0.0
0.188 0.9588489532470703 -0.2515770494937897 1.3597309589385986e-07 2.0505860447883606e-05 0.0 0.0 0.0 0.0
0.189 0.958298921585083 -0.25216618180274963 -3.3266842365264893e-06 1.814030110836029e-05 0.0 0.0 0.0 0.0
0.19 0.9581856727600098 -0.25381067395210266 -1.912936568260193e-06 5.662441253662109e-06 0.0 0.0 0.0 0.0
0.191 0.9577181935310364 -0.2549501359462738 -8.999370038509369e-06 1.7966143786907196e-05 0.0 0.0 0.0 0.0
0.192 0.9576762914657593 -0.25571417808532715 -2.0019710063934326e-05 1.1613592505455017e-06 0.0 0.0 0.0 0.0
0.193 0.9565384984016418 -0.25718405842781067 -1.1330470442771912e-05 6.385147571563721e-06 0.0 0.0 0.0 0.0
0.194 0.9562852382659912 -0.25866976380348206 1.922808587551117e-05 2.1886080503463745e-06 0.0 0.0 0.0 0.0
0.195 0.9557328820228577 -0.2591532766819 1.5311874449253082e-05 -4.752539098262787e-06 0.0 0.0 0.0 0.0
0.196 0.9551180005073547 -0.2608984708786011 1.7791055142879486e-05 1.7501413822174072e-05 0.0 0.0 0.0 0.0
0.197 0.9555391669273376 -0.26217329502105713 -7.0873647928237915e-06 1.035444438457489e-05 0.0 0.0 0.0 0.0
0.198 0.9552461504936218 -0.2625492513179779 3.0081719160079956e-07 -3.110617399215698e-07 0.0 0.0 0.0 0.0
0.199 0.9549423456192017 -0.2646198868751526 -1.6221776604652405e-05 9.150244295597076e-06 0.0 0.0 0.0 0.0
0.2 0.9546347260475159 -0.26608338952064514 -9.697861969470978e-06 1.0055489838123322e-05 0.0 0.0 0.0 0.0
0.201 0.953776478767395 -0.2665267884731293 1.871120184659958e-05 -7.2838738560676575e-06 0.0 0.0 0.0 0.0
0.202 0.9538508057594299 -0.26780664920806885 -5.469657480716705e-06 5.792826414108276e-06 0.0 0.0 0.0 0.0
0.203 0.9532536864280701 -0.26881131529808044 1.0759569704532623e-05 4.285946488380432e-06 0.0 0.0 0.0 0.0
0.204 0.9528002738952637 -0.2704838514328003 3.3229589462280273e-06 2.319924533367157e-06 0.0 0.0 0.0 0.0
0.205 0.9527726769447327 -0.27145397663116455 1.4641322195529938e-05 -2.3301690816879272e-06 0.0 0.0 0.0 0.0
0.206 0.9524350166320801 -0.2721148431301117 -2.6337802410125732e-06 -7.566995918750763e-06 0.0 0.0 0.0 0.0
0.207 0.9516823887825012 -0.27402856945991516 -3.095995634794235e-05 -1.4089979231357574e-05 0.0 0.0 0.0 0.0
0.208 0.9515673518180847 -0.274929940700531 3.6656856536865234e-06 -1.3710930943489075e-05 0.0 0.0 0.0 0.0
0.209 0.9509264826774597 -0.27553659677505493 3.0742958188056946e-06 -1.3541430234909058e-06 0.0 0.0 0.0 0.0
0.21 0.9504125714302063 -0.277611643075943 2.633035182952881e-05 -9.172596037387848e-06 0.0 0.0 0.0 0.0
0.211 0.9500628113746643 -0.2789488732814789 1.3943761587142944e-05 6.148591637611389e-06 0.0 0.0 0.0 0.0
0.212 0.950068473815918 -0.27946680784225464 -1.534353941679001e-05 -2.7492642402648926e-06 0.0 0.0 0.0 0.0
0.213 0.9491461515426636 -0.28077808022499084 -1.2042932212352753e-05 5.250796675682068e-06 0.0 0.0 0.0 0.0
0.214 0.9494602084159851 -0.28182533383369446 -1.3289973139762878e-06 -1.674611121416092e-05 0.0 0.0 0.0 0.0
0.215 0.9484667778015137 -0.28323766589164734 1.6371719539165497e-05 6.289221346378326e-06 0.0 0.0 0.0 0.0
0.216 0.9486005306243896 -0.28381073474884033 -1.5033408999443054e-05 -3.719702363014221e-06 0.0 0.0 0.0 0.0
0.217 0.9476915001869202 -0.28579142689704895 1.0913237929344177e-05 -1.077260822057724e-05 0.0 0.0 0.0 0.0
0.218 0.9474316835403442 -0.2858942151069641 -1.8710270524024963e-06 -3.0919909477233887e-06 0.0 0.0 0.0 0.0
0.219 0.9467642307281494 -0.28772851824760437 1.4795921742916107e-05 8.04942101240158e-06 0.0 0.0 0.0 0.0
0.22 0.9465026259422302 -0.28863325715065 5.385838449001312e-06 1.3141892850399017e-05 0.0 0.0 0.0 0.0
0.221 0.9462106227874756 -0.28990405797958374 -1.4803372323513031e-05 1.1222437024116516e-05 0.0 0.0 0.0 0.0
0.222 0.946165919303894 -0.2913895547389984 3.22144478559494e-06 -8.18353146314621e-06 0.0 0.0 0.0 0.0
0.223 0.9456000328063965 -0.2927170395851135 -3.444962203502655e-06 1.1224299669265747e-05 0.0 0.0 0.0 0.0
0.224 0.9449501633644104 -0.29340654611587524 -6.81169331073761e-06 2.3365020751953125e-05 0.0 0.0 0.0 0.0
0.225 0.9442229866981506 -0.29517993330955505 1.1106953024864197e-05 -7.96932727098465e-06 0.0 0.0 0.0 0.0
0.226 0.9443831443786621 -0.29580092430114746 2.874992787837982e-06 -5.126930773258209e-06 0.0 0.0 0.0 0.0
0.227 0.9440966844558716 -0.296305388212204 3.6777928471565247e-06 2.4763867259025574e-06 0.0 0.0 0.0 0.0
0.228 0.9437639117240906 -0.29832923412323 -9.520910680294037e-06 3.333576023578644e-05 0.0 0.0 0.0 0.0
0.229 0.9432703852653503 -0.2991218864917755 -6.05359673500061e-08 1.0952353477478027e-05 0.0 0.0 0.0 0.0
0.23 0.9421898126602173 -0.3012089133262634 -1.1051073670387268e-05 -2.386420965194702e-05 0.0 0.0 0.0 0.0
0.231 0.9417650103569031 -0.3014184832572937 2.760905772447586e-05 5.644746124744415e-06 0.0 0.0 0.0 0.0
0.232 0.942119836807251 -0.3028397262096405 -1.3292767107486725e-05 -8.163973689079285e-06 0.0 0.0 0.0 0.0
0.233 0.9416746497154236 -0.30451804399490356 -6.679445505142212e-06 -8.11740756034851e-06 0.0 0.0 0.0 0.0
0.234 0.9411259293556213 -0.3045726716518402 -1.1469237506389618e-05 -1.4603137969970703e-05 0.0 0.0 0.0 0.0
0.235 0.9405183792114258 -0.3060334324836731 -2.209097146987915e-06 9.279698133468628e-06 0.0 0.0 0.0 0.0
0.236 0.9400798082351685 -0.30754342675209045 1.634843647480011e-05 1.2936070561408997e-05 0.0 0.0 0.0 0.0
0.237 0.939586877822876 -0.30871710181236267 5.774199962615967e-07 -5.122274160385132e-07 0.0 0.0 0.0 0.0
0.238 0.9392975568771362 -0.3096855878829956 3.5176053643226624e-06 1.0817311704158783e-05 0.0 0.0 0.0 0.0
0.239 0.93935626745224 -0.31064504384994507 1.6149133443832397e-06 9.05897468328476e-06 0.0 0.0 0.0 0.0
0.24 0.9389169812202454 -0.31200188398361206 2.0850449800491333e-05 -2.5387853384017944e-06 0.0 0.0 0.0 0.0
0.241 0.9380898475646973 -0.3137434422969818 -6.239861249923706e-08 1.2702308595180511e-05 0.0 0.0 0.0 0.0
0.242 0.9386487603187561 -0.31380414962768555 -2.2817403078079224e-05 1.153256744146347e-05 0.0 0.0 0.0 0.0
0.243 0.936975359916687 -0.31514841318130493 -1.3795681297779083e-05 -7.89109617471695e-06 0.0 0.0 0.0 0.0
0.244 0.9375678300857544 -0.3167039453983307 6.278976798057556e-06 6.332993507385254e-06 0.0 0.0 0.0 0.0
0.245 0.9368635416030884 -0.31797853112220764 -7.779337465763092e-06 5.534850060939789e-06 0.0 0.0 0.0 0.0
0.246 0.9361516237258911 -0.3189210295677185 -1.0001473128795624e-05 9.163282811641693e-06 0.0 0.0 0.0 0.0
0.247 0.9358693361282349 -0.3203065097332001 7.98795372247696e-06 1.9848346710205078e-05 0.0 0.0 0.0 0.0
0.248 0.9357051849365234 -0.3209531307220459 1.9461847841739655e-05 -1.1264346539974213e-05 0.0 0.0 0.0 0.0
0.249 0.9350833296775818 -0.3216854929924011 2.0469538867473602e-05 -1.538451761007309e-05 0.0 0.0 0.0 0.0
0.25 0.9348132610321045 -0.32321834564208984 -2.8545036911964417e-06 2.3506581783294678e-06 0.0 0.0 0.0 0.0
0.251 0.9344437122344971 -0.32419267296791077 4.546716809272766e-06 -1.6996636986732483e-05 0.0 0.0 0.0 0.0
0.252 0.9338780045509338 -0.32581669092178345 -1.3392418622970581e-05 -6.575137376785278e-07 0.0 0.0 0.0 0.0
0.253 0.9334784746170044 -0.32633745670318604 4.034489393234253e-06 8.828938007354736e-06 0.0 0.0 0.0 0.0
0.254 0.9329830408096313 -0.32771462202072144 1.7209909856319427e-05 1.391395926475525e-06 0.0 0.0 0.0 0.0
0.255 0.9323824644088745 -0.32927823066711426 -5.788169801235199e-06 1.6046687960624695e-06 0.0 0.0 0.0 0.0
0.256 0.932316780090332 -0.33012324571609497 1.4465302228927612e-05 1.3416633009910583e-05 0.0 0.0 0.0 0.0
0.257 0.9317105412483215 -0.3307202458381653 1.2116506695747375e-06 2.1356157958507538e-05 0.0 0.0 0.0 0.0
0.258 0.9314620494842529 -0.33205389976501465 7.78399407863617e-06 2.0557083189487457e-05 0.0 0.0 0.0 0.0
0.259 0.9311158061027527 -0.33377552032470703 1.306924968957901e-05 1.207645982503891e-05 0.0 0.0 0.0 0.0
0.26 0.9302253723144531 -0.3345226049423218 1.1148862540721893e-05 2.5441870093345642e-05 0.0 0.0 0.0 0.0
0.261 0.9305744171142578 -0.33557602763175964 -4.263594746589661e-06 -9.974464774131775e-07 0.0 0.0 0.0 0.0
0.262 0.9298748970031738 -0.3366556763648987 -2.9588118195533752e-06 2.041645348072052e-05 0.0 0.0 0.0 0.0
0.263 0.929405927658081 -0.3371315002441406 1.1448748409748077e-05 -2.7492642402648926e-06 0.0 0.0 0.0 0.0
0.264 0.9291465282440186 -0.3395097553730011 -7.609836757183075e-06 1.0631047189235687e-05 0.0 0.0 0.0 0.0
0.265 0.9286624193191528 -0.33947989344596863 1.4923512935638428e-05 1.0448507964611053e-05 0.0 0.0 0.0 0.0
0.266 0.9279755353927612 -0.34100794792175293 7.295981049537659e-06 1.9958242774009705e-05 0.0 0.0 0.0 0.0
0.267 0.9279935359954834 -0.3421863317489624 3.995373845100403e-06 -2.0493753254413605e-05 0.0 0.0 0.0 0.0
0.268 0.9277542233467102 -0.3430868685245514 -1.4570541679859161e-05 5.5301934480667114e-06 0.0 0.0 0.0 0.0
0.269 0.9268419742584229 -0.34450477361679077 3.1972303986549377e-06 1.199822872877121e-05 0.0 0.0 0.0 0.0
0.27 0.9267066121101379 -0.34620368480682373 3.8929283618927e-07 8.130446076393127e-07 0.0 0.0 0.0 0.0
0.271 0.9259863495826721 -0.34625065326690674 -5.540437996387482e-06 -1.4722347259521484e-05 0.0 0.0 0.0 0.0
0.272 0.9261830449104309 -0.3476160764694214 1.1939555406570435e-06 1.1348165571689606e-05 0.0 0.0 0.0 0.0
0.273 0.9252774715423584 -0.34935852885246277 -1.867394894361496e-05 1.5478581190109253e-05 0.0 0.0 0.0 0.0
0.274 0.9250950217247009 -0.34988129138946533 -1.1232681572437286e-05 -1.1414289474487305e-05 0.0 0.0 0.0 0.0
0.275 0.9240904450416565 -0.35179567337036133 -2.064742147922516e-06 4.614703357219696e-06 0.0 0.0 0.0 0.0
0.276 0.9240397810935974 -0.35208866000175476 -1.954752951860428e-05 1.8134713172912598e-05 0.0 0.0 0.0 0.0
0.277 0.9235488176345825 -0.3531469404697418 1.7546117305755615e-06 4.219822585582733e-06 0.0 0.0 0.0 0.0
0.278 0.9233240485191345 -0.35453522205352783 -9.229406714439392e-07 6.35441392660141e-06 0.0 0.0 0.0 0.0
0.279 0.9231143593788147 -0.3552115857601166 -6.404705345630646e-06 6.360933184623718e-06 0.0 0.0 0.0 0.0
0.28 0.922278642654419 -0.3567679822444916 -1.4116987586021423e-05 1.7173588275909424e-06 0.0 0.0 0.0 0.0
0.281 0.9220407009124756 -0.35767626762390137 -1.7197802662849426e-05 1.2101605534553528e-05 0.0 0.0 0.0 0.0
0.282 0.9215285181999207 -0.3592627942562103 -1.0843388736248016e-05 6.438232958316803e-06 0.0 0.0 0.0 0.0
0.283 0.920769453048706 -0.3593984544277191 2.01445072889328e-06 9.670853614807129e-06 0.0 0.0 0.0 0.0
0.284 0.9202178716659546 -0.3612632155418396 5.114823579788208e-06 7.866881787776947e-06 0.0 0.0 0.0 0.0
0.285 0.9201992750167847 -0.36229097843170166 -2.2229738533496857e-05 1.2257136404514313e-05 0.0 0.0 0.0 0.0
0.286 0.9188660383224487 -0.36286452412605286 1.028645783662796e-05 9.23406332731247e-06 0.0 0.0 0.0 0.0
0.287 0.9193239212036133 -0.364322304725647 -1.80685892701149e-05 9.6932053565979e-06 0.0 0.0 0.0 0.0
0.288 0.9188647866249084 -0.3645729124546051 1.2200325727462769e-07 -1.0457821190357208e-05 0.0 0.0 0.0 0.0
0.289 0.9186698198318481 -0.3656570315361023 -1.5897676348686218e-06 -8.605420589447021e-06 0.0 0.0 0.0 0.0
0.29 0.9186059236526489 -0.3670405447483063 1.6129575669765472e-05 -1.3820827007293701e-05 0.0 0.0 0.0 0.0
0.291 0.9182209372520447 -0.3682047426700592 5.920417606830597e-06 -2.0169652998447418e-05 0.0 0.0 0.0 0.0
0.292 0.9174140691757202 -0.36917704343795776 -5.250796675682068e-06 2.1578744053840637e-06 0.0 0.0 0.0 0.0
0.293 0.9170708060264587 -0.37056124210357666 6.688758730888367e-06 1.0005198419094086e-05 0.0 0.0 0.0 0.0
0.294 0.9167836308479309 -0.3714369833469391 -4.5821070671081543e-07 -1.5017576515674591e-05 0.0 0.0 0.0 0.0
0.295 0.9168874025344849 -0.37275266647338867 -1.5404075384140015e-05 -5.454756319522858e-06 0.0 0.0 0.0 0.0
0.296 0.9162018299102783 -0.37349605560302734 -1.0100193321704865e-05 -6.9998204708099365e-06 0.0 0.0 0.0 0.0
0.297 0.915777862071991 -0.37480688095092773 -1.444295048713684e-05 -7.772818207740784e-06 0.0 0.0 0.0 0.0
0.298 0.9155322313308716 -0.37604954838752747 -5.418434739112854e-06 -1.0849907994270325e-05 0.0 0.0 0.0 0.0
0.299 0.914880633354187 -0.3763377368450165 5.309469997882843e-06 -8.395873010158539e-06 0.0 0.0 0.0 0.0
0.3 0.9140868782997131 -0.3780553638935089 -9.127892553806305e-06 -1.6828998923301697e-06 0.0 0.0 0.0 0.0
0.301 0.9141069650650024 -0.3796606957912445 1.9242987036705017e-05 7.358379662036896e-06 0.0 0.0 0.0 0.0
0.302 0.9134491086006165 -0.38008254766464233 1.542363315820694e-05 6.6785141825675964e-06 0.0 0.0 0.0 0.0
0.303 0.9130719304084778 -0.38172584772109985 -8.612871170043945e-06 1.743994653224945e-05 0.0 0.0 0.0 0.0
0.304 0.9131640195846558 -0.3826216161251068 -5.734153091907501e-06 1.2705102562904358e-05 0.0 0.0 0.0 0.0
0.305 0.9120213985443115 -0.3834476172924042 9.39052551984787e-06 -6.1122700572013855e-06 0.0 0.0 0.0 0.0
0.306 0.9121975302696228 -0.38469722867012024 -1.9567087292671204e-06 1.7933547496795654e-05 0.0 0.0 0.0 0.0
0.307 0.911674976348877 -0.38523584604263306 -1.3618730008602142e-05 -3.852881491184235e-06 0.0 0.0 0.0 0.0
0.308 0.9109779000282288 -0.38680776953697205 -8.548609912395477e-06 1.226179301738739e-05 0.0 0.0 0.0 0.0
0.309 0.9107781052589417 -0.3880101144313812 -3.725290298461914e-06 9.778887033462524e-08 0.0 0.0 0.0 0.0
0.31 0.9101218581199646 -0.3884923756122589 1.2746080756187439e-05 5.177222192287445e-06 0.0 0.0 0.0 0.0
0.311 0.909945547580719 -0.39020010828971863 -1.0553747415542603e-05 2.500973641872406e-05 0.0 0.0 0.0 0.0
0.312 0.9095411896705627 -0.39090120792388916 -1.0112300515174866e-05 2.9291026294231415e-05 0.0 0.0 0.0 0.0
0.313 0.9087788462638855 -0.39256778359413147 -1.3848766684532166e-06 1.328345388174057e-05 0.0 0.0 0.0 0.0
0.314 0.9087026119232178 -0.3934163749217987 1.0105781257152557e-05 1.083221286535263e-05 0.0 0.0 0.0 0.0
0.315 0.9082037210464478 -0.39469996094703674 -3.5883858799934387e-06 3.5101547837257385e-06 0.0 0.0 0.0 0.0
0.316 0.9077643156051636 -0.3957552909851074 -1.1821277439594269e-05 -9.687617421150208e-06 0.0 0.0 0.0 0.0
0.317 0.9074389338493347 -0.3967844843864441 3.084726631641388e-05 -1.8151476979255676e-06 0.0 0.0 0.0 0.0
0.318 0.9072055816650391 -0.39730650186538696 -2.4354085326194763e-06 -9.164214134216309e-06 0.0 0.0 0.0 0.0
0.319 0.9066162705421448 -0.39876890182495117 -7.70576298236847e-06 3.53250652551651e-06 0.0 0.0 0.0 0.0
0.32 0.9063896536827087 -0.3997204005718231 1.241639256477356e-05 -1.7443671822547913e-06 0.0 0.0 0.0 0.0
0.321 0.9058055281639099 -0.4004758894443512 -6.787478923797607e-06 -2.0883046090602875e-05 0.0 0.0 0.0 0.0
0.322 0.9054757356643677 -0.4023309051990509 -3.096647560596466e-06 1.6462989151477814e-05 0.0 0.0 0.0 0.0
0.323 0.9051303267478943 -0.40278488397598267 4.90434467792511e-06 -5.490146577358246e-06 0.0 0.0 0.0 0.0
0.324 0.9049002528190613 -0.40386372804641724 -2.020224928855896e-05 2.3043714463710785e-05 0.0 0.0 0.0 0.0
0.325 0.9041995406150818 -0.4056568741798401 -1.8613412976264954e-05 -1.1863186955451965e-05 0.0 0.0 0.0 0.0
0.326 0.9034358859062195 -0.4061565399169922 4.342757165431976e-06 8.092261850833893e-06 0.0 0.0 0.0 0.0
0.327 0.9031950235366821 -0.4072040915489197 1.6349367797374725e-05 1.8990598618984222e-05 0.0 0.0 0.0 0.0
0.328 0.9029291272163391 -0.4082413613796234 1.9203871488571167e-06 1.84597447514534e-05 0.0 0.0 0.0 0.0
0.329 0.9019376635551453 -0.4097042977809906 -1.0188668966293335e-06 2.703629434108734e-06 0.0 0.0 0.0 0.0
0.33 0.9021275639533997 -0.4109281003475189 -9.676441550254822e-07 5.68293035030365e-06 0.0 0.0 0.0 0.0
0.331 0.9015657305717468 -0.41187822818756104 -1.842435449361801e-05 2.7791596949100494e-05 0.0 0.0 0.0 0.0
0.332 0.9009033441543579 -0.4128788709640503 1.7371028661727905e-05 1.9622966647148132e-05 0.0 0.0 0.0 0.0
0.333 0.9005436301231384 -0.4135701060295105 -6.677582859992981e-07 1.062639057636261e-05 0.0 0.0 0.0 0.0
0.334 0.9008308053016663 -0.41457056999206543 -9.07108187675476e-06 -9.207986295223236e-06 0.0 0.0 0.0 0.0
0.335 0.8998369574546814 -0.4162425696849823 -3.7495046854019165e-06 6.93928450345993e-06 0.0 0.0 0.0 0.0
0.336 0.8999365568161011 -0.41609352827072144 -1.986417919397354e-05 -2.4493783712387085e-06 0.0 0.0 0.0 0.0
0.337 0.8992043733596802 -0.41776472330093384 8.340924978256226e-06 8.760951459407806e-06 0.0 0.0 0.0 0.0
0.338 0.8981940746307373 -0.4192907214164734 -1.6050413250923157e-05 -1.7725862562656403e-05 0.0 0.0 0.0 0.0
0.339 0.8983389735221863 -0.4204042851924896 -6.125308573246002e-06 -6.363727152347565e-06 0.0 0.0 0.0 0.0
0.34 0.8979961276054382 -0.4203229248523712 -1.3025477528572083e-05 2.1420419216156006e-06 0.0 0.0 0.0 0.0
0.341 0.8970709443092346 -0.4223705530166626 1.824740320444107e-05 1.7939135432243347e-05 0.0 0.0 0.0 0.0
0.342 0.8971083760261536 -0.42337921261787415 -2.4215318262577057e-05 2.277083694934845e-06 0.0 0.0 0.0 0.0
0.343 0.8970667123794556 -0.4232974350452423 1.8812716007232666e-07 -1.0671094059944153e-05 0.0 0.0 0.0 0.0
0.344 0.896009087562561 -0.42516613006591797 -4.6836212277412415e-06 -1.8104910850524902e-05 0.0 0.0 0.0 0.0
0.345 0.8955849409103394 -0.42647185921669006 1.3068318367004395e-05 5.29363751411438e-06 0.0 0.0 0.0 0.0
0.346 0.8954287171363831 -0.4278201162815094 5.776993930339813e-06 1.2860633432865143e-05 0.0 0.0 0.0 0.0
0.347 0.8955042362213135 -0.4280761480331421 -8.780509233474731e-06 5.066394805908203e-06 0.0 0.0 0.0 0.0
0.348 0.8941174149513245 -0.4293519854545593 -9.256415069103241e-06 1.212581992149353e-06 0.0 0.0 0.0 0.0
0.349 0.8938146233558655 -0.4311494827270508 -3.6079436540603638e-06 7.98981636762619e-06 0.0 0.0 0.0 0.0
0.35 0.8941126465797424 -0.43106868863105774 1.5257857739925385e-05 1.3734214007854462e-05 0.0 0.0 0.0 0.0
0.351 0.8932369947433472 -0.4324433505535126 5.602836608886719e-06 -6.720423698425293e-06 0.0 0.0 0.0 0.0
0.352 0.8924381136894226 -0.4337281286716461 -5.7443976402282715e-06 9.4585120677948e-06 0.0 0.0 0.0 0.0
0.353 0.8921695947647095 -0.4351269602775574 -3.4151598811149597e-06 1.941714435815811e-05 0.0 0.0 0.0 0.0
0.354 0.8923099637031555 -0.4358856678009033 -8.126720786094666e-06 -1.689419150352478e-06 0.0 0.0 0.0 0.0
0.355 0.891849935054779 -0.4362087547779083 2.6170164346694946e-07 1.756753772497177e-05 0.0 0.0 0.0 0.0
0.356 0.8917904496192932 -0.4373514950275421 2.1047890186309814e-07 1.5502795577049255e-05 0.0 0.0 0.0 0.0
0.357 0.8905727863311768 -0.4391787052154541 -6.250105798244476e-06 -1.2906268239021301e-05 0.0 0.0 0.0 0.0
0.358 0.8901112079620361 -0.44022050499916077 1.339241862297058e-06 1.3438984751701355e-05 0.0 0.0 0.0 0.0
0.359 0.8902653455734253 -0.44140374660491943 -3.255624324083328e-05 5.508773028850555e-06 0.0 0.0 0.0 0.0
0.36 0.8900099396705627 -0.44221895933151245 -7.61914998292923e-06 1.022685319185257e-05 0.0 0.0 0.0 0.0
0.361 0.8892179131507874 -0.4424414336681366 1.4404766261577606e-05 -8.149072527885437e-07 0.0 0.0 0.0 0.0
0.362 0.8892369270324707 -0.44412511587142944 -1.208670437335968e-05 -6.293877959251404e-06 0.0 0.0 0.0 0.0
0.363 0.8886692523956299 -0.44528844952583313 -2.0219944417476654e-05 1.0676681995391846e-05 0.0 0.0 0.0 0.0
0.364 0.8878466486930847 -0.44649043679237366 1.6471371054649353e-05 1.281779259443283e-05 0.0 0.0 0.0 0.0
0.365 0.8874891996383667 -0.44768065214157104 3.958120942115784e-05 1.1472031474113464e-05 0.0 0.0 0.0 0.0
0.366 0.8873051404953003 -0.44715070724487305 3.020279109477997e-06 -1.1399388313293457e-05 0.0 0.0 0.0 0.0
0.367 0.8866602778434753 -0.4495956301689148 1.8673017621040344e-05 2.7866102755069733e-05 0.0 0.0 0.0 0.0
0.368 0.8865823149681091 -0.4503808617591858 8.063390851020813e-06 2.661626785993576e-05 0.0 0.0 0.0 0.0
0.369 0.8857665657997131 -0.4515349566936493 1.2083910405635834e-05 -1.756753772497177e-05 0.0 0.0 0.0 0.0
0.37 0.8857133388519287 -0.4529411196708679 -1.4753080904483795e-05 -2.3254193365573883e-05 0.0 0.0 0.0 0.0
0.371 0.8849214315414429 -0.45311665534973145 -5.5246055126190186e-06 -8.48621129989624e-06 0.0 0.0 0.0 0.0
0.372 0.8848477602005005 -0.45534396171569824 -1.7384998500347137e-05 -3.719702363014221e-06 0.0 0.0 0.0 0.0
0.373 0.8839277029037476 -0.4563332498073578 2.510659396648407e-05 9.951181709766388e-06 0.0 0.0 0.0 0.0
0.374 0.8839278817176819 -0.4564511775970459 -2.199225127696991e-05 2.4442560970783234e-05 0.0 0.0 0.0 0.0
0.375 0.8832828998565674 -0.4583573639392853 -6.426125764846802e-07 2.7057714760303497e-05 0.0 0.0 0.0 0.0
0.376 0.8829172849655151 -0.4589152932167053 1.2275762856006622e-05 2.40374356508255e-06 0.0 0.0 0.0 0.0
0.377 0.8824913501739502 -0.46012476086616516 -1.626834273338318e-05 4.020519554615021e-06 0.0 0.0 0.0 0.0
0.378 0.8828930854797363 -0.46037834882736206 -1.0249204933643341e-05 -9.927898645401001e-06 0.0 0.0 0.0 0.0
0.379 0.8814462423324585 -0.46200162172317505 -3.1422823667526245e-06 2.987496554851532e-05 0.0 0.0 0.0 0.0
0.38 0.8813192844390869 -0.4630495607852936 -7.943250238895416e-06 -1.641828566789627e-05 0.0 0.0 0.0 0.0
0.381 0.8807553052902222 -0.4635043442249298 1.2250617146492004e-05 1.779012382030487e-05 0.0 0.0 0.0 0.0
0.382 0.8804687261581421 -0.46526798605918884 -2.498924732208252e-05 -1.0538846254348755e-05 0.0 0.0 0.0 0.0
0.383 0.8805937170982361 -0.466249018907547 -6.420537829399109e-06 1.292489469051361e-05 0.0 0.0 0.0 0.0
0.384 0.8807381987571716 -0.46671971678733826 9.072944521903992e-06 -2.405792474746704e-05 0.0 0.0 0.0 0.0
0.385 0.8793826699256897 -0.4683143198490143 -6.243586540222168e-06 7.599592208862305e-07 0.0 0.0 0.0 0.0
0.386 0.878656268119812 -0.4692612886428833 5.278736352920532e-06 2.2249296307563782e-05 0.0 0.0 0.0 0.0
0.387 0.8788241744041443 -0.4704297184944153 4.936009645462036e-08 -1.9364990293979645e-05 0.0 0.0 0.0 0.0
0.388 0.8779551386833191 -0.47210273146629333 -7.720664143562317e-07 -7.204711437225342e-06 0.0 0.0 0.0 0.0
0.389 0.8770639300346375 -0.4725801944732666 -4.042871296405792e-06 1.2665987014770508e-07 0.0 0.0 0.0 0.0
0.39 0.8774109482765198 -0.47340989112854004 5.606561899185181e-07 -2.0711682736873627e-05 0.0 0.0 0.0 0.0
0.391 0.8767303228378296 -0.47465237975120544 1.1799857020378113e-05 2.2288411855697632e-05 0.0 0.0 0.0 0.0
0.392 0.8766040802001953 -0.4754481315612793 2.0116567611694336e-07 -1.4526769518852234e-05 0.0 0.0 0.0 0.0
0.393 0.875223696231842 -0.47639310359954834 1.3927929103374481e-05 -3.4151598811149597e-06 0.0 0.0 0.0 0.0
0.394 0.8757054805755615 -0.47801631689071655 -1.3010576367378235e-05 1.1594966053962708e-06 0.0 0.0 0.0 0.0
0.395 0.8749244213104248 -0.47890716791152954 3.475695848464966e-06 1.9033439457416534e-05 0.0 0.0 0.0 0.0
0.396 0.8747533559799194 -0.4793637692928314 9.354203939437866e-06 1.309998333454132e-05 0.0 0.0 0.0 0.0
0.397 0.8744268417358398 -0.48056453466415405 4.284083843231201e-07 -3.837980329990387e-06 0.0 0.0 0.0 0.0
0.398 0.8736964464187622 -0.48166438937187195 -4.762783646583557e-06 -3.4691765904426575e-06 0.0 0.0 0.0 0.0
0.399 0.8735188841819763 -0.48316994309425354 4.199333488941193e-06 2.498924732208252e-05 0.0 0.0 0.0 0.0
0.4 0.8727067708969116 -0.48383617401123047 3.121793270111084e-06 1.1743977665901184e-06 0.0 0.0 0.0 0.0
0.401 0.8722745180130005 -0.48529109358787537 2.5248154997825623e-05 1.2553296983242035e-05 0.0 0.0 0.0 0.0
0.402 0.8725101351737976 -0.48634251952171326 -2.399459481239319e-05 2.45068222284317e-05 0.0 0.0 0.0 0.0
0.403 0.8715352416038513 -0.4873441755771637 -5.544163286685944e-06 -8.01030546426773e-06 0.0 0.0 0.0 0.0
0.404 0.8705416321754456 -0.48900607228279114 -3.959983587265015e-06 -1.7618760466575623e-05 0.0 0.0 0.0 0.0
0.405 0.8710442185401917 -0.48930835723876953 1.231953501701355e-05 -3.086403012275696e-06 0.0 0.0 0.0 0.0
0.406 0.8700581789016724 -0.4905617833137512 -2.685561776161194e-05 3.320910036563873e-05 0.0 0.0 0.0 0.0
0.407 0.8696000576019287 -0.49181100726127625 -9.054318070411682e-06 5.275942385196686e-06 0.0 0.0 0.0 0.0
0.408 0.8691183924674988 -0.4924085736274719 8.420087397098541e-06 -2.741347998380661e-05 0.0 0.0 0.0 0.0
0.409 0.8688367009162903 -0.49367061257362366 -2.3262575268745422e-05 1.0492280125617981e-05 0.0 0.0 0.0 0.0
0.41 0.8685013055801392 -0.4950892925262451 1.0046176612377167e-05 3.5455450415611267e-06 0.0 0.0 0.0 0.0
0.411 0.8684446215629578 -0.4958324730396271 3.6228448152542114e-06 1.6449950635433197e-05 0.0 0.0 0.0 0.0
0.412 0.8678482174873352 -0.496480256319046 -2.7492642402648926e-06 -1.0337680578231812e-05 0.0 0.0 0.0 0.0
0.413 0.8675028085708618 -0.497750848531723 1.863297075033188e-05 1.293141394853592e-05 0.0 0.0 0.0 0.0
0.414 0.8665627837181091 -0.4986969828605652 2.9997900128364563e-06 6.128102540969849e-06 0.0 0.0 0.0 0.0
0.415 0.8663904070854187 -0.499893456697464 -6.66547566652298e-06 2.299342304468155e-05 0.0 0.0 0.0 0.0
0.416 0.8656438589096069 -0.5014089345932007 -1.9175931811332703e-06 1.1150725185871124e-05 0.0 0.0 0.0 0.0
0.417 0.8657496571540833 -0.5013068914413452 -5.19677996635437e-07 4.1350722312927246e-07 0.0 0.0 0.0 0.0
0.418 0.8651033639907837 -0.5031726956367493 1.6456469893455505e-05 -1.796521246433258e-06 0.0 0.0 0.0 0.0
0.419 0.864474356174469 -0.5045095086097717 6.602145731449127e-06 2.3740343749523163e-05 0.0 0.0 0.0 0.0
0.42 0.864238977432251 -0.5054294466972351 -4.264526069164276e-06 1.3671815395355225e-06 0.0 0.0 0.0 0.0
0.421 0.863854169845581 -0.5064236521720886 1.0515563189983368e-05 -3.6265701055526733e-06 0.0 0.0 0.0 0.0
0.422 0.8630975484848022 -0.5071913599967957 -1.9014813005924225e-05 2.5723129510879517e-06 0.0 0.0 0.0 0.0
0.423 0.8626061081886292 -0.5076877474784851 -3.569759428501129e-06 7.370486855506897e-06 0.0 0.0 0.0 0.0
0.424 0.8622280359268188 -0.5093075633049011 -1.7344951629638672e-05 3.041699528694153e-06 0.0 0.0 0.0 0.0
0.425 0.8621684908866882 -0.50995272397995 6.146728992462158e-06 2.02888622879982e-05 0.0 0.0 0.0 0.0
0.426 0.8613784313201904 -0.5112905502319336 1.5064142644405365e-05 -1.2703239917755127e-06 0.0 0.0 0.0 0.0
0.427 0.8612922430038452 -0.5127484202384949 4.889443516731262e-06 -3.3285468816757202e-06 0.0 0.0 0.0 0.0
0.428 0.8613497614860535 -0.5130420923233032 5.077570676803589e-06 -9.099021553993225e-06 0.0 0.0 0.0 0.0
0.429 0.8603680729866028 -0.5141370892524719 -1.148320734500885e-06 -1.827441155910492e-05 0.0 0.0 0.0 0.0
0.43 0.8599069714546204 -0.5154312252998352 3.2437965273857117e-06 2.344418317079544e-05 0.0 0.0 0.0 0.0
0.431 0.8596883416175842 -0.5161618590354919 -1.0225921869277954e-06 -1.1683441698551178e-05 0.0 0.0 0.0 0.0
0.432 0.8601934909820557 -0.5180513858795166 1.7345882952213287e-05 1.4363788068294525e-05 0.0 0.0 0.0 0.0
0.433 0.8592779636383057 -0.5187314748764038 -1.0225921869277954e-05 -2.6249326765537262e-05 0.0 0.0 0.0 0.0
0.434 0.8582569360733032 -0.5188716053962708 -1.4249235391616821e-06 -1.6716308891773224e-05 0.0 0.0 0.0 0.0
0.435 0.857853889465332 -0.5206066966056824 2.514757215976715e-05 1.8736347556114197e-05 0.0 0.0 0.0 0.0
0.436 0.857067883014679 -0.521355926990509 1.6228295862674713e-05 1.908373087644577e-05 0.0 0.0 0.0 0.0
0.437 0.8565849661827087 -0.5230391621589661 -3.4011900424957275e-06 -4.4656917452812195e-06 0.0 0.0 0.0 0.0
0.438 0.8557263612747192 -0.5238933563232422 -7.98795372247696e-06 1.582130789756775e-05 0.0 0.0 0.0 0.0
0.439 0.8568786382675171 -0.5252655744552612 1.6391277313232422e-06 6.658025085926056e-06 0.0 0.0 0.0 0.0
0.44 0.8557237982749939 -0.5248631238937378 3.1259842216968536e-05 4.590488970279694e-06 0.0 0.0 0.0 0.0
0.441 0.8548567891120911 -0.5278505086898804 -5.289912223815918e-06 -1.1349096894264221e-05 0.0 0.0 0.0 0.0
0.442 0.8552146553993225 -0.5279572606086731 -1.5404075384140015e-06 -1.7461366951465607e-05 0.0 0.0 0.0 0.0
0.443 0.8543082475662231 -0.5286666750907898 -5.465000867843628e-06 -7.875263690948486e-06 0.0 0.0 0.0 0.0
0.444 0.8535943031311035 -0.5300752520561218 -2.448447048664093e-06 -6.332993507385254e-07 0.0 0.0 0.0 0.0
0.445 0.8529120087623596 -0.531781792640686 1.0030344128608704e-05 1.1976808309555054e-05 0.0 0.0 0.0 0.0
0.446 0.8539444804191589 -0.531463086605072 1.3539567589759827e-05 -2.8461217880249023e-06 0.0 0.0 0.0 0.0
0.447 0.8529464602470398 -0.5334659814834595 -2.2872351109981537e-05 6.5695494413375854e-06 0.0 0.0 0.0 0.0
0.448 0.8523536324501038 -0.5341775417327881 -4.773959517478943e-06 8.275732398033142e-06 0.0 0.0 0.0 0.0
0.449 0.8515482544898987 -0.5356845259666443 -8.903443813323975e-07 -2.7669593691825867e-06 0.0 0.0 0.0 0.0
0.45 0.8507283926010132 -0.5364698171615601 6.007961928844452e-06 -1.03069469332695e-05 0.0 0.0 0.0 0.0
0.451 0.8506138324737549 -0.5369656682014465 1.2378208339214325e-05 3.0994415283203125e-06 0.0 0.0 0.0 0.0
0.452 0.8507229685783386 -0.5376815795898438 2.2174790501594543e-06 4.338100552558899e-06 0.0 0.0 0.0 0.0
0.453 0.8494765162467957 -0.5393033623695374 -1.046992838382721e-05 9.43988561630249e-06 0.0 0.0 0.0 0.0
0.454 0.849554717540741 -0.5395192503929138 1.4190562069416046e-05 6.853602826595306e-06 0.0 0.0 0.0 0.0
0.455 0.8487268090248108 -0.5414688587188721 1.4242716133594513e-05 1.236703246831894e-05 0.0 0.0 0.0 0.0
0.456 0.8491676449775696 -0.5421077609062195 2.1394342184066772e-05 2.15042382478714e-06 0.0 0.0 0.0 0.0
0.457 0.847918689250946 -0.5431802868843079 -6.224028766155243e-06 3.142841160297394e-05 0.0 0.0 0.0 0.0
0.458 0.8480046391487122 -0.5442816615104675 1.3872981071472168e-05 1.5152618288993835e-06 0.0 0.0 0.0 0.0
0.459 0.8471300005912781 -0.5455141067504883 1.1846423149108887e-05 3.2763928174972534e-06 0.0 0.0 0.0 0.0
0.46 0.8467110991477966 -0.5456803441047668 -5.606561899185181e-07 -1.596938818693161e-05 0.0 0.0 0.0 0.0
0.461 0.8457899689674377 -0.5479928255081177 2.7175992727279663e-06 1.4981254935264587e-05 0.0 0.0 0.0 0.0
0.462 0.846760094165802 -0.5482459664344788 4.7283247113227844e-06 4.55416738986969e-07 0.0 0.0 0.0 0.0
0.463 0.8448651432991028 -0.5490521788597107 -1.6005709767341614e-05 -8.306466042995453e-06 0.0 0.0 0.0 0.0
0.464 0.8452050089836121 -0.5509098768234253 6.109476089477539e-07 1.127738505601883e-05 0.0 0.0 0.0 0.0
0.465 0.8450912237167358 -0.5514419078826904 -1.621246337890625e-05 -2.603977918624878e-06 0.0 0.0 0.0 0.0
0.466 0.8439981341362 -0.5529272556304932 3.1329691410064697e-06 2.6120804250240326e-05 0.0 0.0 0.0 0.0
0.467 0.8438026309013367 -0.5537617206573486 -1.4895573258399963e-05 1.4076940715312958e-05 0.0 0.0 0.0 0.0
0.468 0.843769371509552 -0.554419755935669 -5.805864930152893e-06 -9.13720577955246e-06 0.0 0.0 0.0 0.0
0.469 0.8427540063858032 -0.5558174848556519 -2.5265850126743317e-05 -9.068287909030914e-06 0.0 0.0 0.0 0.0
0.47 0.841898500919342 -0.5572351813316345 1.7136335372924805e-06 -4.0978193283081055e-06 0.0 0.0 0.0 0.0
0.471 0.8415789008140564 -0.5577174425125122 1.214444637298584e-06 -2.881605178117752e-05 0.0 0.0 0.0 0.0
0.472 0.8414648175239563 -0.5592590570449829 -2.2999010980129242e-05 2.017151564359665e-05 0.0 0.0 0.0 0.0
0.473 0.8398922085762024 -0.560911238193512 -5.988404154777527e-07 2.719741314649582e-05 0.0 0.0 0.0 0.0
0.474 0.8413538336753845 -0.5599890947341919 9.299255907535553e-06 -2.9830262064933777e-06 0.0 0.0 0.0 0.0
0.475 0.8394118547439575 -0.5614308714866638 6.152316927909851e-06 2.6664696633815765e-05 0.0 0.0 0.0 0.0
0.476 0.8386498093605042 -0.5628830194473267 -2.1226704120635986e-05 1.1387281119823456e-05 0.0 0.0 0.0 0.0
0.477 0.8382578492164612 -0.5633212327957153 6.984919309616089e-06 1.897849142551422e-05 0.0 0.0 0.0 0.0
0.478 0.8384160995483398 -0.5632117390632629 -1.310836523771286e-05 -1.217518001794815e-05 0.0 0.0 0.0 0.0
0.479 0.8372595906257629 -0.5649479627609253 1.505482941865921e-05 9.336508810520172e-06 0.0 0.0 0.0 0.0
0.48 0.836985170841217 -0.5662783980369568 1.1439435184001923e-05 -9.313225746154785e-10 0.0 0.0 0.0 0.0
0.481 0.837479293346405 -0.5664634108543396 -1.1895783245563507e-05 2.6483088731765747e-05 0.0 0.0 0.0 0.0
0.482 0.836830735206604 -0.5679816603660583 2.5266781449317932e-06 3.016553819179535e-06 0.0 0.0 0.0 0.0
0.483 0.8373811841011047 -0.5688442587852478 -2.390984445810318e-05 1.2560747563838959e-05 0.0 0.0 0.0 0.0
0.484 0.8367345929145813 -0.569239616394043 -6.075017154216766e-06 -2.4437904357910156e-06 0.0 0.0 0.0 0.0
0.485 0.8357506394386292 -0.5713838338851929 1.2742355465888977e-05 1.9000843167304993e-05 0.0 0.0 0.0 0.0
0.486 0.8354393243789673 -0.5725528001785278 -1.1768192052841187e-05 1.1175870895385742e-05 0.0 0.0 0.0 0.0
0.487 0.8352910876274109 -0.5725901126861572 2.662278711795807e-05 8.950941264629364e-06 0.0 0.0 0.0 0.0
0.488 0.834549069404602 -0.5748999714851379 -6.075948476791382e-06 -6.1569735407829285e-06 0.0 0.0 0.0 0.0
0.489 0.8346200585365295 -0.5756272673606873 -1.5757977962493896e-06 3.6973506212234497e-06 0.0 0.0 0.0 0.0
0.49 0.8344435095787048 -0.5764346122741699 -6.270594894886017e-06 3.3015385270118713e-06 0.0 0.0 0.0 0.0
0.491 0.8336684107780457 -0.5776525735855103 4.860572516918182e-06 -1.6568228602409363e-05 0.0 0.0 0.0 0.0
0.492 0.8331571817398071 -0.578269362449646 2.4762004613876343e-05 -2.551823854446411e-06 0.0 0.0 0.0 0.0
0.493 0.8325281143188477 -0.5790760517120361 3.097672015428543e-05 -5.457550287246704e-07 0.0 0.0 0.0 0.0
0.494 0.8321873545646667 -0.5814520120620728 2.9336661100387573e-07 1.0357238352298737e-05 0.0 0.0 0.0 0.0
0.495 0.8317248225212097 -0.5822715759277344 -1.1163763701915741e-05 7.598660886287689e-06 0.0 0.0 0.0 0.0
0.496 0.8310646414756775 -0.583202064037323 7.93207436800003e-06 -1.3984739780426025e-05 0.0 0.0 0.0 0.0
0.497 0.8314223885536194 -0.5837026238441467 1.2334436178207397e-05 -1.3103708624839783e-05 0.0 0.0 0.0 0.0
0.498 0.8301586508750916 -0.5842256546020508 1.1888332664966583e-05 1.8707476556301117e-05 0.0 0.0 0.0 0.0
0.499 0.8296785354614258 -0.5860058069229126 -3.818422555923462e-06 1.988280564546585e-05 0.0 0.0 0.0 0.0
0.5 0.8295723795890808 -0.5874091386795044 3.4514814615249634e-06 -8.399598300457e-06 0.0 0.0 0.0 0.0
0.501 0.8291580677032471 -0.5877028107643127 -3.4105032682418823e-06 -6.021931767463684e-06 0.0 0.0 0.0 0.0
0.502 0.828978419303894 -0.5892612338066101 -1.7630867660045624e-05 3.5408884286880493e-06 0.0 0.0 0.0 0.0
0.503 0.8281667828559875 -0.5901710391044617 -4.9658119678497314e-06 -5.1390379667282104e-06 0.0 0.0 0.0 0.0
0.504 0.8269612789154053 -0.591425895690918 1.1881813406944275e-05 1.3206154108047485e-06 0.0 0.0 0.0 0.0
0.505 0.826606273651123 -0.5927736759185791 1.3764016330242157e-05 -2.739951014518738e-06 0.0 0.0 0.0 0.0
0.506 0.827042281627655 -0.5933612585067749 -5.652196705341339e-06 2.7504749596118927e-05 0.0 0.0 0.0 0.0
0.507 0.8262673020362854 -0.5945205092430115 -2.8028152883052826e-05 4.815869033336639e-06 0.0 0.0 0.0 0.0
0.508 0.825519859790802 -0.5956586599349976 5.40073961019516e-06 -6.726011633872986e-06 0.0 0.0 0.0 0.0
0.509 0.8257796764373779 -0.5965782403945923 -6.668269634246826e-06 3.0100345611572266e-06 0.0 0.0 0.0 0.0
0.51 0.8244572281837463 -0.5980578064918518 -1.2274831533432007e-06 1.6298145055770874e-07 0.0 0.0 0.0 0.0
0.511 0.8239256143569946 -0.5995660424232483 -3.119930624961853e-06 1.4892779290676117e-05 0.0 0.0 0.0 0.0
0.512 0.8239060044288635 -0.5996202826499939 3.6051496863365173e-06 8.344650268554688e-07 0.0 0.0 0.0 0.0
0.513 0.8228830695152283 -0.6008586287498474 6.2640756368637085e-06 1.5087425708770752e-07 0.0 0.0 0.0 0.0
0.514 0.8224307298660278 -0.6022751331329346 -2.8070062398910522e-06 -1.562759280204773e-05 0.0 0.0 0.0 0.0
0.515 0.8228302597999573 -0.6025020480155945 -8.187256753444672e-06 2.217572182416916e-05 0.0 0.0 0.0 0.0
0.516 0.8212845921516418 -0.6044424772262573 -1.300964504480362e-05 1.3776123523712158e-05 0.0 0.0 0.0 0.0
0.517 0.8213375806808472 -0.605134904384613 1.2958422303199768e-05 1.8222257494926453e-05 0.0 0.0 0.0 0.0
0.518 0.820257842540741 -0.6063178181648254 1.548510044813156e-05 1.4482066035270691e-05 0.0 0.0 0.0 0.0
0.519 0.8201873302459717 -0.6072503328323364 7.832422852516174e-06 -5.550682544708252e-07 0.0 0.0 0.0 0.0
0.52 0.8202846050262451 -0.6081827282905579 -1.2517906725406647e-05 2.4930573999881744e-05 0.0 0.0 0.0 0.0
0.521 0.8192561268806458 -0.6090545058250427 1.2014992535114288e-05 -1.3104639947414398e-05 0.0 0.0 0.0 0.0
0.522 0.818812906742096 -0.6103174686431885 1.222267746925354e-05 -1.3873912394046783e-05 0.0 0.0 0.0 0.0
0.523 0.8179336190223694 -0.6114380955696106 1.0526739060878754e-05 -8.497387170791626e-06 0.0 0.0 0.0 0.0
0.524 0.817824125289917 -0.612967848777771 -1.9213184714317322e-05 -8.822418749332428e-06 0.0 0.0 0.0 0.0
0.525 0.8178697228431702 -0.6139515042304993 -2.450495958328247e-05 -1.942552626132965e-05 0.0 0.0 0.0 0.0
0.526 0.8170067071914673 -0.6141160726547241 9.093433618545532e-06 -2.9709190130233765e-07 0.0 0.0 0.0 0.0
0.527 0.8157391548156738 -0.6159000992774963 8.732080459594727e-06 -6.1355531215667725e-06 0.0 0.0 0.0 0.0
0.528 0.8160040974617004 -0.6163942217826843 2.0761042833328247e-05 1.6851350665092468e-05 0.0 0.0 0.0 0.0
0.529 0.815753161907196 -0.6175045371055603 -2.607889473438263e-05 7.180497050285339e-06 0.0 0.0 0.0 0.0
0.53 0.8147466778755188 -0.6186400055885315 -2.7474015951156616e-07 -1.85379758477211e-05 0.0 0.0 0.0 0.0
0.531 0.8140538930892944 -0.6202811002731323 1.7297454178333282e-05 3.1101517379283905e-05 0.0 0.0 0.0 0.0
0.532 0.814569890499115 -0.6203306913375854 1.757405698299408e-06 6.780028343200684e-06 0.0 0.0 0.0 0.0
0.533 0.8136482238769531 -0.6223152875900269 1.561082899570465e-05 1.8440186977386475e-07 0.0 0.0 0.0 0.0
0.534 0.8131211996078491 -0.6223801970481873 -8.083879947662354e-06 1.8856488168239594e-05 0.0 0.0 0.0 0.0
0.535 0.8123382925987244 -0.6241602897644043 -1.754891127347946e-05 1.885928213596344e-05 0.0 0.0 0.0 0.0
0.536 0.8122345805168152 -0.6256276369094849 1.6520731151103973e-05 -4.5066699385643005e-06 0.0 0.0 0.0 0.0
0.537 0.8121241331100464 -0.6261293888092041 -1.3416633009910583e-05 2.7939677238464355e-07 0.0 0.0 0.0 0.0
0.538 0.8102760314941406 -0.6268895864486694 -2.662651240825653e-06 3.865920007228851e-06 0.0 0.0 0.0 0.0
0.539 0.811076283454895 -0.6281089186668396 3.00602987408638e-05 4.595145583152771e-06 0.0 0.0 0.0 0.0
0.54 0.8100751638412476 -0.6297126412391663 -2.1008774638175964e-05 2.751871943473816e-05 0.0 0.0 0.0 0.0
0.541 0.8091889023780823 -0.6308390498161316 -6.600283086299896e-06 1.4979392290115356e-05 0.0 0.0 0.0 0.0
0.542 0.8090299367904663 -0.6318027973175049 1.7146579921245575e-05 -2.1405518054962158e-05 0.0 0.0 0.0 0.0
0.543 0.8091062307357788 -0.6333552002906799 -5.904585123062134e-07 -1.545250415802002e-05 0.0 0.0 0.0 0.0
0.544 0.8073742389678955 -0.6343173384666443 -2.3630447685718536e-05 -5.150213837623596e-07 0.0 0.0 0.0 0.0
0.545 0.8075534105300903 -0.6339672207832336 -4.663132131099701e-06 7.431954145431519e-07 0.0 0.0 0.0 0.0
0.546 0.8069381713867188 -0.6357238292694092 -1.7619691789150238e-05 1.0322779417037964e-05 0.0 0.0 0.0 0.0
0.547 0.8069155812263489 -0.6370437145233154 1.2699514627456665e-05 -1.4776363968849182e-05 0.0 0.0 0.0 0.0
0.548 0.8066263198852539 -0.6376822590827942 3.0075199902057648e-05 1.1945143342018127e-05 0.0 0.0 0.0 0.0
0.549 0.8052710294723511 -0.6393923163414001 -1.6973353922367096e-05 3.730878233909607e-06 0.0 0.0 0.0 0.0
0.55 0.8050920963287354 -0.6405928730964661 -9.233132004737854e-06 1.3592652976512909e-05 0.0 0.0 0.0 0.0
0.551 0.8053609132766724 -0.6399261951446533 8.332543075084686e-06 -1.3447366654872894e-05 0.0 0.0 0.0 0.0
0.552 0.8038742542266846 -0.6421762704849243 -4.280358552932739e-06 -7.918104529380798e-06 0.0 0.0 0.0 0.0
0.553 0.8035734295845032 -0.6430867910385132 -7.888302206993103e-07 9.89530235528946e-06 0.0 0.0 0.0 0.0
0.554 0.8024647235870361 -0.6441947817802429 2.57221981883049e-05 2.6821158826351166e-05 0.0 0.0 0.0 0.0
0.555 0.801808774471283 -0.6457172632217407 2.49398872256279e-05 2.3758038878440857e-06 0.0 0.0 0.0 0.0
0.556 0.8027499318122864 -0.6456867456436157 -2.1083280444145203e-05 3.6284327507019043e-06 0.0 0.0 0.0 0.0
0.557 0.8010619282722473 -0.6483962535858154 -1.0017305612564087e-05 -2.4126842617988586e-05 0.0 0.0 0.0 0.0
0.558 0.8015775084495544 -0.6488001346588135 -5.6978315114974976e-06 -1.128949224948883e-05 0.0 0.0 0.0 0.0
0.559 0.8003019094467163 -0.6498523950576782 -5.555339157581329e-06 5.029141902923584e-06 0.0 0.0 0.0 0.0
0.56 0.7992475032806396 -0.6512446403503418 8.723698556423187e-06 8.944422006607056e-06 0.0 0.0 0.0 0.0
0.561 0.7997269034385681 -0.6524427533149719 -1.4400109648704529e-05 1.411978155374527e-05 0.0 0.0 0.0 0.0
0.562 0.7984089851379395 -0.6538872122764587 -1.6033649444580078e-05 2.3905187845230103e-05 0.0 0.0 0.0 0.0
0.563 0.7981408834457397 -0.6539749503135681 2.0693987607955933e-06 1.1461786925792694e-05 0.0 0.0 0.0 0.0
0.564 0.7986301779747009 -0.6543428897857666 -1.0499730706214905e-05 -1.0815449059009552e-05 0.0 0.0 0.0 0.0
0.565 0.7977882027626038 -0.6556777954101562 6.163492798805237e-06 -5.302019417285919e-06 0.0 0.0 0.0 0.0
0.566 0.7965075969696045 -0.657194972038269 2.0587816834449768e-05 1.739058643579483e-05 0.0 0.0 0.0 0.0
0.567 0.7967033982276917 -0.6574464440345764 1.3460405170917511e-05 -8.500181138515472e-06 0.0 0.0 0.0 0.0
0.568 0.7946000695228577 -0.6599142551422119 -4.550442099571228e-06 2.7640722692012787e-05 0.0 0.0 0.0 0.0
0.569 0.7951977849006653 -0.6603677272796631 4.0046870708465576e-07 2.0723789930343628e-05 0.0 0.0 0.0 0.0
0.57 0.7952362298965454 -0.6616354584693909 -1.7760321497917175e-05 -1.621432602405548e-06 0.0 0.0 0.0 0.0
0.571 0.7945661544799805 -0.6627428531646729 -1.922622323036194e-05 -3.846362233161926e-06 0.0 0.0 0.0 0.0
0.572 0.7939921617507935 -0.6635926961898804 2.4780631065368652e-05 1.720339059829712e-05 0.0 0.0 0.0 0.0
0.573 0.7932965755462646 -0.6640956401824951 1.7208978533744812e-05 -1.8011778593063354e-05 0.0 0.0 0.0 0.0
0.574 0.7914415001869202 -0.6667619347572327 4.79724258184433e-06 -2.7744099497795105e-06 0.0 0.0 0.0 0.0
0.575 0.7920268177986145 -0.66730135679245 1.679733395576477e-05 -3.5818666219711304e-06 0.0 0.0 0.0 0.0
0.576 0.7921572923660278 -0.6689562797546387 -3.333110362291336e-05 3.725290298461914e-09 0.0 0.0 0.0 0.0
0.577 0.7911964058876038 -0.6685409545898438 8.289702236652374e-06 2.8545036911964417e-05 0.0 0.0 0.0 0.0
0.578 0.790534496307373 -0.669567346572876 1.2239441275596619e-05 8.895061910152435e-06 0.0 0.0 0.0 0.0
0.579 0.789223849773407 -0.6711021065711975 3.206264227628708e-05 1.8747523427009583e-06 0.0 0.0 0.0 0.0
0.58 0.7898150682449341 -0.6723269820213318 -2.5539658963680267e-05 1.4697201550006866e-05 0.0 0.0 0.0 0.0
0.581 0.7893928289413452 -0.6723284125328064 6.726011633872986e-06 -1.5437602996826172e-05 0.0 0.0 0.0 0.0
0.582 0.7881044745445251 -0.6742261052131653 -1.2114644050598145e-05 -9.778887033462524e-08 0.0 0.0 0.0 0.0
0.583 0.7877741456031799 -0.6756727695465088 -1.9418075680732727e-06 1.5174970030784607e-05 0.0 0.0 0.0 0.0
0.584 0.7873713374137878 -0.6762099266052246 -1.9888393580913544e-05 3.1638890504837036e-05 0.0 0.0 0.0 0.0
0.585 0.7865048050880432 -0.6773084402084351 -2.2854655981063843e-05 -5.2032992243766785e-06 0.0 0.0 0.0 0.0
0.586 0.7858241200447083 -0.6783402562141418 -9.202398359775543e-06 -2.0234845578670502e-05 0.0 0.0 0.0 0.0
0.587 0.7858469486236572 -0.6794858574867249 -1.955311745405197e-05 -1.0724179446697235e-05 0.0 0.0 0.0 0.0
0.588 0.7848597764968872 -0.6812376976013184 -1.931842416524887e-05 2.2780150175094604e-05 0.0 0.0 0.0 0.0
0.589 0.7842106819152832 -0.6826088428497314 3.166031092405319e-05 2.3692846298217773e-06 0.0 0.0 0.0 0.0
0.59 0.783358097076416 -0.6824185252189636 1.882854849100113e-05 1.035444438457489e-05 0.0 0.0 0.0 0.0
0.591 0.7830023169517517 -0.6839352250099182 1.1171214282512665e-05 2.1933577954769135e-05 0.0 0.0 0.0 0.0
0.592 0.7829851508140564 -0.6848456263542175 6.298534572124481e-06 2.4017877876758575e-05 0.0 0.0 0.0 0.0
0.593 0.7822684645652771 -0.6860052347183228 2.8234906494617462e-05 3.3052638173103333e-06 0.0 0.0 0.0 0.0
0.594 0.7813201546669006 -0.6877667903900146 -7.077120244503021e-06 -5.642883479595184e-06 0.0 0.0 0.0 0.0
0.595 0.7816295623779297 -0.687508225440979 6.791204214096069e-06 -8.540228009223938e-06 0.0 0.0 0.0 0.0
0.596 0.7804234623908997 -0.6896940469741821 -2.5880523025989532e-05 -2.718716859817505e-05 0.0 0.0 0.0 0.0
0.597 0.7802504897117615 -0.6902415752410889 -9.441748261451721e-06 3.1981617212295532e-06 0.0 0.0 0.0 0.0
0.598 0.7798364162445068 -0.6911224126815796 -1.4265067875385284e-05 -4.8745423555374146e-06 0.0 0.0 0.0 0.0
0.599 0.7791866064071655 -0.6919317245483398 -1.494772732257843e-06 -4.9015507102012634e-06 0.0 0.0 0.0 0.0
0.6 0.7789748907089233 -0.6922671794891357 -1.0186806321144104e-05 1.5599653124809265e-06 0.0 0.0 0.0 0.0
0.601 0.7786160707473755 -0.6944687366485596 -1.6577541828155518e-07 4.461035132408142e-06 0.0 0.0 0.0 0.0
0.602 0.7775012254714966 -0.695460855960846 1.4569610357284546e-05 -9.967945516109467e-06 0.0 0.0 0.0 0.0
0.603 0.7766630053520203 -0.6976271867752075 2.491287887096405e-06 1.2315809726715088e-05 0.0 0.0 0.0 0.0
0.604 0.7762870192527771 -0.6979747414588928 -1.4897435903549194e-05 -7.366761565208435e-07 0.0 0.0 0.0 0.0
0.605 0.7764801383018494 -0.6985012888908386 -2.2036023437976837e-05 -5.350448191165924e-06 0.0 0.0 0.0 0.0
0.606 0.7749315500259399 -0.6998516917228699 6.406567990779877e-06 7.228925824165344e-06 0.0 0.0 0.0 0.0
0.607 0.7749625444412231 -0.7006593346595764 1.1344440281391144e-05 4.995614290237427e-06 0.0 0.0 0.0 0.0
0.608 0.7743942737579346 -0.7023206949234009 -2.868473529815674e-07 2.7740374207496643e-05 0.0 0.0 0.0 0.0
0.609 0.7728408575057983 -0.7032292485237122 1.434236764907837e-06 2.0108185708522797e-05 0.0 0.0 0.0 0.0
0.61 0.7723941802978516 -0.7038918137550354 2.5220215320587158e-05 1.4917925000190735e-05 0.0 0.0 0.0 0.0
0.611 0.7720757126808167 -0.7054278254508972 8.476898074150085e-06 2.47173011302948e-06 0.0 0.0 0.0 0.0
0.612 0.7722508311271667 -0.7059510946273804 2.50060111284256e-06 7.800757884979248e-06 0.0 0.0 0.0 0.0
0.613 0.7702279090881348 -0.7077383995056152 -1.6456469893455505e-06 1.3743527233600616e-05 0.0 0.0 0.0 0.0
0.614 0.7706863880157471 -0.708820104598999 3.332458436489105e-05 -1.914147287607193e-05 0.0 0.0 0.0 0.0
0.615 0.7699970006942749 -0.7095721960067749 -1.1878088116645813e-05 2.049468457698822e-05 0.0 0.0 0.0 0.0
0.616 0.768829882144928 -0.7107782363891602 -1.4552846550941467e-05 -1.2275762856006622e-05 0.0 0.0 0.0 0.0
0.617 0.7680946588516235 -0.7125535011291504 1.789908856153488e-05 2.752058207988739e-06 0.0 0.0 0.0 0.0
0.618 0.7682289481163025 -0.7130500078201294 -6.265006959438324e-06 -2.0517036318778992e-05 0.0 0.0 0.0 0.0
0.619 0.7667961120605469 -0.7153102159500122 1.9731000065803528e-05 -1.5502795577049255e-05 0.0 0.0 0.0 0.0
0.62 0.7679013609886169 -0.7139121890068054 1.3991259038448334e-05 -1.801084727048874e-05 0.0 0.0 0.0 0.0
0.621 0.766739547252655 -0.7163754105567932 1.1460855603218079e-05 -2.6924535632133484e-06 0.0 0.0 0.0 0.0
0.622 0.7657263278961182 -0.7175624370574951 -1.1282041668891907e-05 1.1449679732322693e-05 0.0 0.0 0.0 0.0
0.623 0.7654416561126709 -0.7188273668289185 3.639142960309982e-05 -5.165114998817444e-06 0.0 0.0 0.0 0.0
0.624 0.7665504217147827 -0.7176187634468079 3.951601684093475e-06 5.003064870834351e-06 0.0 0.0 0.0 0.0
0.625 0.7642473578453064 -0.7208646535873413 1.6143545508384705e-05 -2.072751522064209e-05 0.0 0.0 0.0 0.0
0.626 0.7645829916000366 -0.7208103537559509 1.5696510672569275e-05 3.5371631383895874e-06 0.0 0.0 0.0 0.0
0.627 0.7629899382591248 -0.7218840718269348 1.6856938600540161e-06 1.6606412827968597e-05 0.0 0.0 0.0 0.0
0.628 0.7621616721153259 -0.7244181036949158 -3.3527612686157227e-07 4.735775291919708e-06 0.0 0.0 0.0 0.0
0.629 0.761888861656189 -0.7255863547325134 6.202608346939087e-06 2.3908913135528564e-05 0.0 0.0 0.0 0.0
0.63 0.7603264451026917 -0.7261896729469299 -4.675239324569702e-06 1.0962598025798798e-05 0.0 0.0 0.0 0.0
0.631 0.7613182663917542 -0.7269327640533447 -2.426188439130783e-05 -2.411194145679474e-06 0.0 0.0 0.0 0.0
0.632 0.760154664516449 -0.7281699776649475 -1.5091150999069214e-05 -6.387941539287567e-06 0.0 0.0 0.0 0.0
0.633 0.7587589621543884 -0.7293781638145447 -1.1740252375602722e-05 8.91275703907013e-06 0.0 0.0 0.0 0.0
0.634 0.760059118270874 -0.730195939540863 -1.414027065038681e-05 -1.5385448932647705e-06 0.0 0.0 0.0 0.0
0.635 0.7579199075698853 -0.7319093942642212 -1.9701197743415833e-05 2.148933708667755e-05 0.0 0.0 0.0 0.0
0.636 0.7586771845817566 -0.733008861541748 -7.98981636762619e-06 -1.4081597328186035e-05 0.0 0.0 0.0 0.0
0.637 0.7573233246803284 -0.7333252429962158 1.1651776731014252e-05 4.455447196960449e-06 0.0 0.0 0.0 0.0
0.638 0.756008505821228 -0.7351062297821045 1.2395903468132019e-05 -1.8719583749771118e-05 0.0 0.0 0.0 0.0
0.639 0.7566263675689697 -0.7353148460388184 2.7766451239585876e-05 -1.0534189641475677e-05 0.0 0.0 0.0 0.0
0.64 0.75605309009552 -0.7363070845603943 -5.316920578479767e-06 2.4857930839061737e-05 0.0 0.0 0.0 0.0
0.641 0.7545567750930786 -0.7386550307273865 -1.0827556252479553e-05 1.9379891455173492e-05 0.0 0.0 0.0 0.0
0.642 0.754065990447998 -0.7393890619277954 2.0815059542655945e-06 4.073604941368103e-06 0.0 0.0 0.0 0.0
0.643 0.7540748119354248 -0.7393440008163452 7.0156529545784e-06 -1.754891127347946e-05 0.0 0.0 0.0 0.0
0.644 0.7518159747123718 -0.7424094080924988 4.936009645462036e-08 -9.480863809585571e-07 0.0 0.0 0.0 0.0
0.645 0.7518423795700073 -0.7427297830581665 -1.8114224076271057e-05 6.260350346565247e-06 0.0 0.0 0.0 0.0
0.646 0.7520086765289307 -0.7428911924362183 -9.685754776000977e-07 -2.800021320581436e-05 0.0 0.0 0.0 0.0
0.647 0.7511386871337891 -0.7444537878036499 -4.016794264316559e-06 1.4619901776313782e-05 0.0 0.0 0.0 0.0
0.648 0.75288987159729 -0.7459442615509033 1.0114163160324097e-06 7.068738341331482e-06 0.0 0.0 0.0 0.0
0.649 0.7497816681861877 -0.7467558979988098 -1.1747702956199646e-05 -1.0030344128608704e-05 0.0 0.0 0.0 0.0
0.65 0.7488517761230469 -0.7484621405601501 -2.0499341189861298e-05 1.3649463653564453e-05 0.0 0.0 0.0 0.0
0.651 0.7483144402503967 -0.7490198612213135 -2.244766801595688e-05 -7.614493370056152e-06 0.0 0.0 0.0 0.0
0.652 0.7476435303688049 -0.7500384449958801 -2.7135014533996582e-05 3.919936716556549e-06 0.0 0.0 0.0 0.0
0.653 0.7479754090309143 -0.7501024007797241 4.386529326438904e-06 7.935799658298492e-06 0.0 0.0 0.0 0.0
0.654 0.7458606958389282 -0.7522712349891663 -1.6448087990283966e-05 1.169554889202118e-05 0.0 0.0 0.0 0.0
0.655 0.7454516291618347 -0.7530039548873901 -1.3629905879497528e-05 4.2729079723358154e-06 0.0 0.0 0.0 0.0
0.656 0.7457535266876221 -0.7540820837020874 -1.8295831978321075e-05 1.7706304788589478e-05 0.0 0.0 0.0 0.0
0.657 0.7440562844276428 -0.7549015879631042 -1.731235533952713e-05 -1.4460645616054535e-05 0.0 0.0 0.0 0.0
0.658 0.7441649436950684 -0.7566333413124084 -5.340203642845154e-06 -9.872019290924072e-07 0.0 0.0 0.0 0.0
0.659 0.7436760663986206 -0.756891667842865 6.321817636489868e-06 -6.04335218667984e-06 0.0 0.0 0.0 0.0
0.66 0.7426482439041138 -0.7580177187919617 -2.4706125259399414e-05 5.103647708892822e-06 0.0 0.0 0.0 0.0
0.661 0.7412197589874268 -0.7602840065956116 -3.17869707942009e-05 1.0369345545768738e-05 0.0 0.0 0.0 0.0
0.662 0.741450846195221 -0.7596654891967773 -1.776963472366333e-06 -1.744646579027176e-05 0.0 0.0 0.0 0.0
0.663 0.7401260137557983 -0.762154221534729 -5.387701094150543e-06 9.08970832824707e-07 0.0 0.0 0.0 0.0
0.664 0.7381577491760254 -0.7637211680412292 1.0139308869838715e-05 2.3538246750831604e-05 0.0 0.0 0.0 0.0
0.665 0.7386724948883057 -0.7631127238273621 -1.3303011655807495e-05 2.2727996110916138e-05 0.0 0.0 0.0 0.0
0.666 0.7377287745475769 -0.764409065246582 -5.854293704032898e-06 9.071081876754761e-07 0.0 0.0 0.0 0.0
0.667 0.7376829385757446 -0.7652753591537476 -5.677342414855957e-06 -9.17632132768631e-06 0.0 0.0 0.0 0.0
0.668 0.7363491654396057 -0.7654680013656616 3.961846232414246e-06 3.634020686149597e-06 0.0 0.0 0.0 0.0
0.669 0.7339488863945007 -0.767974853515625 -1.0481104254722595e-05 4.346482455730438e-06 0.0 0.0 0.0 0.0
0.67 0.7347543239593506 -0.7671173214912415 1.2833625078201294e-06 4.167668521404266e-06 0.0 0.0 0.0 0.0
0.671 0.7335015535354614 -0.7683267593383789 3.2522715628147125e-05 1.9298866391181946e-05 0.0 0.0 0.0 0.0
0.672 0.7338979840278625 -0.765889048576355 -9.013339877128601e-06 2.4500302970409393e-05 0.0 0.0 0.0 0.0
0.673 0.7343500852584839 -0.7697116732597351 8.819624781608582e-07 3.6330893635749817e-06 0.0 0.0 0.0 0.0
0.674 0.7337804436683655 -0.7716201543807983 3.9208680391311646e-07 7.553026080131531e-07 0.0 0.0 0.0 0.0
0.675 0.7333698868751526 -0.7721788883209229 6.545335054397583e-06 2.713967114686966e-05 0.0 0.0 0.0 0.0
0.676 0.7323207855224609 -0.7731924653053284 1.6123056411743164e-05 1.420639455318451e-05 0.0 0.0 0.0 0.0
0.677 0.732807993888855 -0.7752522826194763 5.951151251792908e-07 7.82497227191925e-06 0.0 0.0 0.0 0.0
0.678 0.7324602007865906 -0.7755457162857056 -7.85384327173233e-06 -3.034248948097229e-06 0.0 0.0 0.0 0.0
0.679 0.7302735447883606 -0.777539074420929 6.309710443019867e-06 1.3203360140323639e-05 0.0 0.0 0.0 0.0
0.68 0.7315441966056824 -0.7781941890716553 5.677342414855957e-06 -5.532056093215942e-06 0.0 0.0 0.0 0.0
0.681 0.7292171716690063 -0.7799340486526489 -3.360584378242493e-05 3.6845915019512177e-05 0.0 0.0 0.0 0.0
0.682 0.729805588722229 -0.7802615761756897 1.080147922039032e-05 2.989545464515686e-06 0.0 0.0 0.0 0.0
0.683 0.7281060814857483 -0.7824909090995789 2.8526410460472107e-06 1.2724660336971283e-05 0.0 0.0 0.0 0.0
0.684 0.7291385531425476 -0.7821313738822937 -7.661059498786926e-06 8.179806172847748e-06 0.0 0.0 0.0 0.0
0.685 0.7273421883583069 -0.7841281294822693 8.411705493927002e-06 -9.052455425262451e-06 0.0 0.0 0.0 0.0
0.686 0.7254914045333862 -0.7867276072502136 -2.1404586732387543e-05 1.0173767805099487e-05 0.0 0.0 0.0 0.0
0.687 0.7274649143218994 -0.7858331203460693 -1.1038966476917267e-05 -1.488812267780304e-05 0.0 0.0 0.0 0.0
0.688 0.7249882221221924 -0.7869197726249695 -1.2796372175216675e-06 1.5764497220516205e-05 0.0 0.0 0.0 0.0
0.689 0.7248310446739197 -0.78901606798172 -1.5851110219955444e-06 9.588897228240967e-06 0.0 0.0 0.0 0.0
0.69 0.7235472798347473 -0.7904470562934875 8.641742169857025e-06 4.286877810955048e-06 0.0 0.0 0.0 0.0
0.691 0.7238925099372864 -0.7900916337966919 -5.908310413360596e-06 -1.2526288628578186e-06 0.0 0.0 0.0 0.0
0.692 0.7212516665458679 -0.7937967777252197 1.1706724762916565e-05 1.112278550863266e-05 0.0 0.0 0.0 0.0
0.693 0.7229270339012146 -0.7918084263801575 1.1094845831394196e-05 -5.709007382392883e-06 0.0 0.0 0.0 0.0
0.694 0.7210861444473267 -0.7942398190498352 -4.084780812263489e-06 1.5448778867721558e-05 0.0 0.0 0.0 0.0
0.695 0.7206345200538635 -0.7959513068199158 6.8051740527153015e-06 2.380460500717163e-06 0.0 0.0 0.0 0.0
0.696 0.7231317162513733 -0.797013521194458 -2.2919848561286926e-06 -1.630932092666626e-05 0.0 0.0 0.0 0.0
0.697 0.7179841995239258 -0.7981567978858948 -2.6185065507888794e-05 1.2276694178581238e-05 0.0 0.0 0.0 0.0
0.698 0.7179775238037109 -0.7998890280723572 -1.651328057050705e-05 -6.300397217273712e-06 0.0 0.0 0.0 0.0
0.699 0.7200133800506592 -0.7983399033546448 -1.8369406461715698e-05 -3.82494181394577e-06 0.0 0.0 0.0 0.0
0.7 0.717040479183197 -0.801301121711731 2.4568289518356323e-06 2.0390376448631287e-05 0.0 0.0 0.0 0.0
0.701 0.7165966033935547 -0.8014886379241943 1.300126314163208e-05 7.6051801443099976e-06 0.0 0.0 0.0 0.0
0.702 0.7161028981208801 -0.8029056191444397 3.902241587638855e-07 1.0505318641662598e-06 0.0 0.0 0.0 0.0
0.703 0.7155442237854004 -0.804025411605835 -3.5855919122695923e-06 -1.5019439160823822e-05 0.0 0.0 0.0 0.0
0.704 0.713299036026001 -0.8064690232276917 8.783303201198578e-06 1.1681579053401947e-05 0.0 0.0 0.0 0.0
0.705 0.714331328868866 -0.8052781224250793 3.5408884286880493e-06 -6.215646862983704e-06 0.0 0.0 0.0 0.0
0.706 0.7131431698799133 -0.8073962926864624 3.2223761081695557e-06 -1.563969999551773e-05 0.0 0.0 0.0 0.0
0.707 0.7123491168022156 -0.8088218569755554 1.1261552572250366e-05 1.2812204658985138e-05 0.0 0.0 0.0 0.0
0.708 0.7129141688346863 -0.8095309734344482 -9.227544069290161e-06 1.796334981918335e-05 0.0 0.0 0.0 0.0
0.709 0.7109969854354858 -0.8105248808860779 5.270354449748993e-06 -2.3152679204940796e-06 0.0 0.0 0.0 0.0
0.71 0.7107223868370056 -0.8114417791366577 -3.1990930438041687e-06 -1.470465213060379e-05 0.0 0.0 0.0 0.0
0.711 0.7097479701042175 -0.8122945427894592 2.6831403374671936e-06 2.5979243218898773e-05 0.0 0.0 0.0 0.0
0.712 0.7083118557929993 -0.8145313262939453 7.139518857002258e-06 -3.316439688205719e-06 0.0 0.0 0.0 0.0
0.713 0.7089242339134216 -0.8144869804382324 -6.387010216712952e-06 -1.166015863418579e-06 0.0 0.0 0.0 0.0
0.714 0.707653284072876 -0.8149017691612244 -2.427026629447937e-05 -1.9912607967853546e-05 0.0 0.0 0.0 0.0
0.715 0.7071484923362732 -0.8165624737739563 -5.436129868030548e-06 2.316199243068695e-05 0.0 0.0 0.0 0.0
0.716 0.706054151058197 -0.8174378275871277 1.6257166862487793e-05 7.105991244316101e-07 0.0 0.0 0.0 0.0
0.717 0.7051819562911987 -0.8195436000823975 -1.216307282447815e-06 -5.003996193408966e-06 0.0 0.0 0.0 0.0
0.718 0.7046331763267517 -0.8202781677246094 8.85501503944397e-06 2.4965964257717133e-05 0.0 0.0 0.0 0.0
0.719 0.7037858366966248 -0.8212884664535522 -7.727183401584625e-06 -2.4722889065742493e-05 0.0 0.0 0.0 0.0
0.72 0.7032685279846191 -0.8236532211303711 -2.6542693376541138e-06 -1.867767423391342e-05 0.0 0.0 0.0 0.0
0.721 0.7013243436813354 -0.824359655380249 -1.2536533176898956e-05 -3.4188851714134216e-06 0.0 0.0 0.0 0.0
0.722 0.7012669444084167 -0.8242285251617432 2.203322947025299e-05 6.671994924545288e-06 0.0 0.0 0.0 0.0
0.723 0.7009196877479553 -0.8257790207862854 1.1712312698364258e-05 2.3283064365386963e-07 0.0 0.0 0.0 0.0
0.724 0.7007894515991211 -0.8259933590888977 1.9146129488945007e-05 -2.7026981115341187e-06 0.0 0.0 0.0 0.0
0.725 0.6994253993034363 -0.8280510902404785 9.434297680854797e-07 -1.6376376152038574e-05 0.0 0.0 0.0 0.0
0.726 0.6994171738624573 -0.8289592862129211 4.864297807216644e-06 -1.9744038581848145e-07 0.0 0.0 0.0 0.0
0.727 0.6983160376548767 -0.8292574882507324 -4.860572516918182e-06 -1.1832453310489655e-05 0.0 0.0 0.0 0.0
0.728 0.6969501376152039 -0.8317961692810059 -1.2056902050971985e-05 -2.0625069737434387e-05 0.0 0.0 0.0 0.0
0.729 0.6967234015464783 -0.8319448828697205 -3.252178430557251e-06 2.3990869522094727e-05 0.0 0.0 0.0 0.0
0.73 0.6952117085456848 -0.8337759375572205 1.1945143342018127e-05 -5.824491381645203e-06 0.0 0.0 0.0 0.0
0.731 0.6955934762954712 -0.8335974216461182 6.941147148609161e-06 1.4062970876693726e-06 0.0 0.0 0.0 0.0
0.732 0.694358766078949 -0.8355120420455933 -2.6161782443523407e-05 1.466553658246994e-05 0.0 0.0 0.0 0.0
0.733 0.6939061284065247 -0.8362175226211548 8.177012205123901e-06 1.7364509403705597e-05 0.0 0.0 0.0 0.0
0.734 0.6930898427963257 -0.8374184966087341 6.5658241510391235e-06 7.745809853076935e-06 0.0 0.0 0.0 0.0
0.735 0.6921710968017578 -0.8385888934135437 8.479692041873932e-06 -1.8518418073654175e-05 0.0 0.0 0.0 0.0
0.736 0.6905872225761414 -0.8404457569122314 -1.403316855430603e-05 3.1851232051849365e-06 0.0 0.0 0.0 0.0
0.737 0.6906343698501587 -0.8412724733352661 2.1997839212417603e-06 2.2648833692073822e-05 0.0 0.0 0.0 0.0
0.738 0.6895455718040466 -0.8413247466087341 4.509463906288147e-06 -1.569557934999466e-05 0.0 0.0 0.0 0.0
0.739 0.6884570717811584 -0.8427838087081909 2.800021320581436e-05 7.212162017822266e-06 0.0 0.0 0.0 0.0
0.74 0.6881891489028931 -0.8445717096328735 8.633360266685486e-07 -1.9543804228305817e-05 0.0 0.0 0.0 0.0
0.741 0.6875430941581726 -0.8444525599479675 1.6763806343078613e-07 -1.8448568880558014e-05 0.0 0.0 0.0 0.0
0.742 0.6863561272621155 -0.846479058265686 -1.4436431229114532e-05 -6.109476089477539e-06 0.0 0.0 0.0 0.0
0.743 0.6859124302864075 -0.8478997349739075 -3.15643846988678e-05 -8.191913366317749e-06 0.0 0.0 0.0 0.0
0.744 0.684734582901001 -0.8465635776519775 1.2063421308994293e-05 -7.711350917816162e-06 0.0 0.0 0.0 0.0
0.745 0.6845325231552124 -0.8489811420440674 -1.692119985818863e-05 -1.1732801795005798e-05 0.0 0.0 0.0 0.0
0.746 0.6829637885093689 -0.8514799475669861 1.9614584743976593e-05 -1.2020580470561981e-05 0.0 0.0 0.0 0.0
0.747 0.683386504650116 -0.8510239720344543 7.693655788898468e-06 2.5797635316848755e-06 0.0 0.0 0.0 0.0
0.748 0.6828987002372742 -0.8521602749824524 -2.5340355932712555e-05 7.487833499908447e-07 0.0 0.0 0.0 0.0
0.749 0.6813027262687683 -0.8538415431976318 5.282461643218994e-06 7.788650691509247e-06 0.0 0.0 0.0 0.0
0.75 0.681224524974823 -0.8542730808258057 -5.207955837249756e-06 -1.1831521987915039e-05 0.0 0.0 0.0 0.0
0.751 0.6790984272956848 -0.8561659455299377 1.2648291885852814e-05 2.2603198885917664e-06 0.0 0.0 0.0 0.0
0.752 0.679270327091217 -0.8567168116569519 2.4400651454925537e-07 -2.1503306925296783e-05 0.0 0.0 0.0 0.0
0.753 0.6773759722709656 -0.858262836933136 -6.159767508506775e-06 9.141862392425537e-06 0.0 0.0 0.0 0.0
0.754 0.6775826215744019 -0.8591374158859253 1.798383891582489e-06 -7.186084985733032e-06 0.0 0.0 0.0 0.0
0.755 0.6757243871688843 -0.85984867811203 1.7127953469753265e-05 1.5146099030971527e-05 0.0 0.0 0.0 0.0
0.756 0.673992395401001 -0.8630098700523376 5.365349352359772e-06 6.413087248802185e-06 0.0 0.0 0.0 0.0
0.757 0.6752950549125671 -0.8624811172485352 -1.5781261026859283e-05 3.118067979812622e-06 0.0 0.0 0.0 0.0
0.758 0.6745401620864868 -0.863895833492279 -2.1498650312423706e-05 1.6201287508010864e-05 0.0 0.0 0.0 0.0
0.759 0.6723394393920898 -0.8645962476730347 -8.902512490749359e-06 1.2625940144062042e-05 0.0 0.0 0.0 0.0
0.76 0.6728236079216003 -0.8649764060974121 -2.208724617958069e-05 1.044105738401413e-05 0.0 0.0 0.0 0.0
0.761 0.6718258857727051 -0.8654049038887024 -1.950841397047043e-05 -1.6130506992340088e-05 0.0 0.0 0.0 0.0
0.762 0.6693541407585144 -0.8677514791488647 -1.0997988283634186e-05 6.27618283033371e-06 0.0 0.0 0.0 0.0
0.763 0.6689065098762512 -0.8689258098602295 -4.127621650695801e-06 1.36643648147583e-05 0.0 0.0 0.0 0.0
0.764 0.6687854528427124 -0.8697370290756226 -7.232651114463806e-06 -5.04031777381897e-06 0.0 0.0 0.0 0.0
0.765 0.667056143283844 -0.8705633282661438 -2.7427449822425842e-06 -2.5863759219646454e-05 0.0 0.0 0.0 0.0
0.766 0.668274462223053 -0.871056854724884 8.711591362953186e-06 -3.17208468914032e-06 0.0 0.0 0.0 0.0
0.767 0.6666238307952881 -0.8725199103355408 4.656612873077393e-06 -3.6600977182388306e-06 0.0 0.0 0.0 0.0
0.768 0.6667656898498535 -0.8767440915107727 9.519048035144806e-06 -3.131851553916931e-05 0.0 0.0 0.0 0.0
0.769 0.6646069288253784 -0.8752408623695374 9.267590939998627e-06 -1.1296942830085754e-06 0.0 0.0 0.0 0.0
0.77 0.6633966565132141 -0.8764058947563171 -1.905485987663269e-06 -6.823800504207611e-06 0.0 0.0 0.0 0.0
0.771 0.6630903482437134 -0.8772161602973938 3.2316893339157104e-07 -8.462928235530853e-06 0.0 0.0 0.0 0.0
0.772 0.663279116153717 -0.8780120015144348 -2.2522173821926117e-05 -5.90737909078598e-06 0.0 0.0 0.0 0.0
0.773 0.6611657738685608 -0.8796128034591675 2.2685155272483826e-05 3.0145980417728424e-05 0.0 0.0 0.0 0.0
0.774 0.6606196761131287 -0.8806041479110718 1.4161691069602966e-05 6.419606506824493e-06 0.0 0.0 0.0 0.0
0.775 0.6601962447166443 -0.8809064626693726 -1.1352822184562683e-05 -2.2901222109794617e-06 0.0 0.0 0.0 0.0
0.776 0.6584489941596985 -0.8831442594528198 -3.213062882423401e-07 1.3387762010097504e-05 0.0 0.0 0.0 0.0
0.777 0.6580229997634888 -0.8836416006088257 1.362338662147522e-05 -1.2529082596302032e-05 0.0 0.0 0.0 0.0
0.778 0.6574575901031494 -0.884070873260498 -7.806345820426941e-06 1.8885359168052673e-05 0.0 0.0 0.0 0.0
0.779 0.6544932723045349 -0.8873319029808044 -1.7352402210235596e-05 -1.9859522581100464e-05 0.0 0.0 0.0 0.0
0.78 0.6576290726661682 -0.8868426084518433 -1.8088147044181824e-05 -5.798414349555969e-06 0.0 0.0 0.0 0.0
0.781 0.65428227186203 -0.8877758383750916 -5.684792995452881e-06 1.2936070561408997e-06 0.0 0.0 0.0 0.0
0.782 0.6550827026367188 -0.8888533115386963 3.082863986492157e-05 4.930421710014343e-06 0.0 0.0 0.0 0.0
0.783 0.6533651351928711 -0.8897508382797241 -3.4001655876636505e-05 1.097843050956726e-05 0.0 0.0 0.0 0.0
0.784 0.651290774345398 -0.8909839987754822 9.928829967975616e-06 -3.9208680391311646e-06 0.0 0.0 0.0 0.0
0.785 0.6519572734832764 -0.8912137150764465 -1.8784776329994202e-06 4.08664345741272e-06 0.0 0.0 0.0 0.0
0.786 0.6506408452987671 -0.8929567933082581 1.34296715259552e-06 -1.1792406439781189e-05 0.0 0.0 0.0 0.0
0.787 0.6500290632247925 -0.8948163986206055 -7.1302056312561035e-06 -7.510185241699219e-06 0.0 0.0 0.0 0.0
0.788 0.6486331820487976 -0.8945371508598328 5.912967026233673e-06 -7.48317688703537e-06 0.0 0.0 0.0 0.0
0.789 0.6474992036819458 -0.8968746066093445 -5.582347512245178e-06 -2.2003427147865295e-05 0.0 0.0 0.0 0.0
0.79 0.6479349732398987 -0.8969409465789795 1.35079026222229e-05 3.5855919122695923e-07 0.0 0.0 0.0 0.0
0.791 0.646993100643158 -0.8970818519592285 1.7792917788028717e-05 7.278285920619965e-06 0.0 0.0 0.0 0.0
0.792 0.6464778184890747 -0.8988661766052246 2.8019770979881287e-05 2.0012259483337402e-05 0.0 0.0 0.0 0.0
0.793 0.6445363163948059 -0.9003415703773499 -1.8565915524959564e-05 1.5622936189174652e-05 0.0 0.0 0.0 0.0
0.794 0.6439270973205566 -0.9006853103637695 -5.166977643966675e-06 -9.387731552124023e-07 0.0 0.0 0.0 0.0
0.795 0.6415876746177673 -0.9019951224327087 6.172806024551392e-06 2.7585774660110474e-06 0.0 0.0 0.0 0.0
0.796 0.6416083574295044 -0.9039594531059265 6.373971700668335e-06 6.794929504394531e-06 0.0 0.0 0.0 0.0
0.797 0.641155481338501 -0.9036329388618469 -3.887340426445007e-06 -2.630334347486496e-05 0.0 0.0 0.0 0.0
0.798 0.6401833891868591 -0.9077903628349304 -1.3932585716247559e-05 1.3714656233787537e-05 0.0 0.0 0.0 0.0
0.799 0.6391522288322449 -0.9068275094032288 6.94766640663147e-06 1.1771917343139648e-05 0.0 0.0 0.0 0.0
0.8 0.6383438110351562 -0.9074748754501343 9.38214361667633e-06 2.692919224500656e-05 0.0 0.0 0.0 0.0
0.801 0.6359107494354248 -0.9098920226097107 2.639368176460266e-06 3.780238330364227e-05 0.0 0.0 0.0 0.0
0.802 0.6369510293006897 -0.9094929695129395 1.1593103408813477e-05 -5.956739187240601e-06 0.0 0.0 0.0 0.0
0.803 0.6355821490287781 -0.9110093712806702 1.592189073562622e-05 5.642883479595184e-06 0.0 0.0 0.0 0.0
0.804 0.6364744901657104 -0.9125012755393982 1.0786578059196472e-05 2.603977918624878e-06 0.0 0.0 0.0 0.0
0.805 0.6348296403884888 -0.9125679731369019 -1.1256895959377289e-05 3.9674341678619385e-06 0.0 0.0 0.0 0.0
0.806 0.6325347423553467 -0.9139060974121094 -1.866370439529419e-06 5.684792995452881e-06 0.0 0.0 0.0 0.0
0.807 0.6321555376052856 -0.9152028560638428 -1.2149102985858917e-05 2.0097941160202026e-06 0.0 0.0 0.0 0.0
0.808 0.630646288394928 -0.9156035780906677 1.264084130525589e-05 7.1730464696884155e-06 0.0 0.0 0.0 0.0
0.809 0.6300961971282959 -0.9176058769226074 4.258006811141968e-06 2.4761073291301727e-05 0.0 0.0 0.0 0.0
0.81 0.6293432116508484 -0.9169153571128845 2.8060749173164368e-06 1.1220574378967285e-05 0.0 0.0 0.0 0.0
0.811 0.6267101764678955 -0.9193152189254761 -7.105991244316101e-07 2.3881904780864716e-05 0.0 0.0 0.0 0.0
0.812 0.626615047454834 -0.9203046560287476 4.1369348764419556e-06 -8.51508229970932e-06 0.0 0.0 0.0 0.0
0.813 0.62651127576828 -0.9216803312301636 -1.1107884347438812e-05 -4.7124922275543213e-07 0.0 0.0 0.0 0.0
0.814 0.623749315738678 -0.9227653741836548 -7.292255759239197e-06 -3.998167812824249e-06 0.0 0.0 0.0 0.0
0.815 0.6247478127479553 -0.9228742122650146 3.179814666509628e-05 9.338371455669403e-06 0.0 0.0 0.0 0.0
0.816 0.6224204897880554 -0.9231308698654175 -1.2192875146865845e-05 1.699104905128479e-05 0.0 0.0 0.0 0.0
0.817 0.623142659664154 -0.9252560138702393 -1.0903924703598022e-05 1.7529353499412537e-05 0.0 0.0 0.0 0.0
0.818 0.6204865574836731 -0.9265986084938049 -1.3802200555801392e-05 1.041218638420105e-06 0.0 0.0 0.0 0.0
0.819 0.61933434009552 -0.9270442724227905 -1.7221085727214813e-05 1.87847763299942e-05 0.0 0.0 0.0 0.0
0.82 0.6186562776565552 -0.9293485283851624 3.352481871843338e-05 -7.078051567077637e-07 0.0 0.0 0.0 0.0
0.821 0.6187942624092102 -0.9291865229606628 5.153939127922058e-06 1.625996083021164e-05 0.0 0.0 0.0 0.0
0.822 0.617393970489502 -0.9304816722869873 1.5255063772201538e-06 2.625212073326111e-05 0.0 0.0 0.0 0.0
0.823 0.6158846616744995 -0.9323052763938904 -4.103407263755798e-06 -5.702488124370575e-06 0.0 0.0 0.0 0.0
0.824 0.614768922328949 -0.9322114586830139 1.6281381249427795e-05 -9.367242455482483e-06 0.0 0.0 0.0 0.0
0.825 0.6137463450431824 -0.9333111047744751 -1.2534670531749725e-05 -2.2269785404205322e-05 0.0 0.0 0.0 0.0
0.826 0.6119562983512878 -0.9353480339050293 2.503208816051483e-05 1.611374318599701e-05 0.0 0.0 0.0 0.0
0.827 0.6127133369445801 -0.9352344870567322 -2.7797184884548187e-05 1.2502074241638184e-05 0.0 0.0 0.0 0.0
0.828 0.6085536479949951 -0.9365726709365845 5.083158612251282e-06 2.699717879295349e-05 0.0 0.0 0.0 0.0
0.829 0.6106605529785156 -0.937898576259613 -8.541159331798553e-06 9.13906842470169e-06 0.0 0.0 0.0 0.0
0.83 0.6095455884933472 -0.9385954141616821 1.4242716133594513e-05 -7.013790309429169e-06 0.0 0.0 0.0 0.0
0.831 0.6068986058235168 -0.9401127696037292 -7.264316082000732e-07 -1.089833676815033e-05 0.0 0.0 0.0 0.0
0.832 0.6057060360908508 -0.9423983097076416 7.543712854385376e-08 4.298053681850433e-06 0.0 0.0 0.0 0.0
0.833 0.6071435213088989 -0.9406254291534424 1.5129335224628448e-05 9.423121809959412e-06 0.0 0.0 0.0 0.0
0.834 0.6050899028778076 -0.9420338869094849 6.1765313148498535e-06 3.958120942115784e-06 0.0 0.0 0.0 0.0
0.835 0.6047919988632202 -0.94361412525177 1.0175630450248718e-05 -2.180878072977066e-05 0.0 0.0 0.0 0.0
0.836 0.6036673784255981 -0.9448176622390747 -2.9886141419410706e-06 -5.124136805534363e-06 0.0 0.0 0.0 0.0
0.837 0.6009147763252258 -0.9457744359970093 -2.0712614059448242e-05 3.5138800740242004e-06 0.0 0.0 0.0 0.0
0.838 0.6010791063308716 -0.9476324915885925 2.8479844331741333e-06 -1.927092671394348e-05 0.0 0.0 0.0 0.0
0.839 0.5986471176147461 -0.9485834240913391 4.620291292667389e-06 1.36522576212883e-05 0.0 0.0 0.0 0.0
0.84 0.597796618938446 -0.9490403532981873 -1.1796131730079651e-05 -3.420840948820114e-05 0.0 0.0 0.0 0.0
0.841 0.5978167653083801 -0.9497206211090088 -6.279908120632172e-06 -1.1669471859931946e-06 0.0 0.0 0.0 0.0
0.842 0.5964187979698181 -0.9515162110328674 -1.873541623353958e-05 4.0978193283081055e-08 0.0 0.0 0.0 0.0
0.843 0.5950007438659668 -0.9538305997848511 1.0151416063308716e-05 5.705282092094421e-06 0.0 0.0 0.0 0.0
0.844 0.5950085520744324 -0.953269362449646 1.9995495676994324e-06 1.5292316675186157e-06 0.0 0.0 0.0 0.0
0.845 0.5919302701950073 -0.9549916386604309 -4.320405423641205e-06 1.3523735105991364e-05 0.0 0.0 0.0 0.0
0.846 0.5921629071235657 -0.954224705696106 1.4044344425201416e-06 -6.863847374916077e-07 0.0 0.0 0.0 0.0
0.847 0.5910438895225525 -0.9561841487884521 3.2652169466018677e-06 -2.707168459892273e-05 0.0 0.0 0.0 0.0
0.848 0.5900980830192566 -0.9573059678077698 1.571420580148697e-05 -1.0154210031032562e-05 0.0 0.0 0.0 0.0
0.849 0.590746283531189 -0.9574888944625854 1.2733973562717438e-05 3.18111851811409e-05 0.0 0.0 0.0 0.0
0.85 0.5873227715492249 -0.9600324630737305 2.109445631504059e-06 1.2305565178394318e-05 0.0 0.0 0.0 0.0
0.851 0.5877394080162048 -0.9598195552825928 -9.38214361667633e-06 5.3122639656066895e-06 0.0 0.0 0.0 0.0
0.852 0.5856960415840149 -0.9606198668479919 -1.420825719833374e-05 2.0393170416355133e-05 0.0 0.0 0.0 0.0
0.853 0.5843679904937744 -0.96232008934021 1.932494342327118e-05 -4.254281520843506e-06 0.0 0.0 0.0 0.0
0.854 0.5826593041419983 -0.9633968472480774 -8.372589945793152e-07 -1.3428740203380585e-05 0.0 0.0 0.0 0.0
0.855 0.5824578404426575 -0.9633374214172363 -1.8384307622909546e-06 -4.274770617485046e-06 0.0 0.0 0.0 0.0
0.856 0.5806581974029541 -0.9635149836540222 9.698793292045593e-06 -5.097128450870514e-06 0.0 0.0 0.0 0.0
0.857 0.5791664123535156 -0.9657846689224243 4.169531166553497e-06 1.5068799257278442e-06 0.0 0.0 0.0 0.0
0.858 0.5771636366844177 -0.9664135575294495 -1.94646418094635e-07 -1.6650184988975525e-05 0.0 0.0 0.0 0.0
0.859 0.5768939256668091 -0.9663165211677551 1.5594065189361572e-05 5.5944547057151794e-06 0.0 0.0 0.0 0.0
0.86 0.5759929418563843 -0.9672843813896179 3.123655915260315e-06 -8.391216397285461e-07 0.0 0.0 0.0 0.0
0.861 0.5741348266601562 -0.9664760231971741 1.6521662473678589e-06 2.1452084183692932e-05 0.0 0.0 0.0 0.0
0.862 0.5726031064987183 -0.9686863422393799 -1.1278316378593445e-06 8.165836334228516e-06 0.0 0.0 0.0 0.0
0.863 0.573331892490387 -0.9680212736129761 -2.950429916381836e-06 1.0700896382331848e-06 0.0 0.0 0.0 0.0
0.864 0.5719223618507385 -0.969545841217041 8.89413058757782e-07 7.1981921792030334e-06 0.0 0.0 0.0 0.0
0.865 0.5727303624153137 -0.9685397744178772 -9.52649861574173e-06 -2.3202970623970032e-05 0.0 0.0 0.0 0.0
0.866 0.5717273950576782 -0.9703507423400879 5.058944225311279e-06 -1.1106953024864197e-05 0.0 0.0 0.0 0.0
0.867 0.5704957246780396 -0.972623884677887 -1.9041821360588074e-05 -7.838010787963867e-06 0.0 0.0 0.0 0.0
0.868 0.570076048374176 -0.9733409285545349 -1.571793109178543e-05 4.968605935573578e-06 0.0 0.0 0.0 0.0
0.869 0.5694128274917603 -0.9738577604293823 1.5369616448879242e-05 -8.16304236650467e-06 0.0 0.0 0.0 0.0
0.87 0.5666096806526184 -0.9757795333862305 -3.818422555923462e-08 6.301328539848328e-06 0.0 0.0 0.0 0.0
0.871 0.5683276653289795 -0.9768422245979309 1.3454817235469818e-05 -8.960254490375519e-06 0.0 0.0 0.0 0.0
0.872 0.5662503838539124 -0.9774771332740784 3.966502845287323e-06 -1.6475096344947815e-06 0.0 0.0 0.0 0.0
0.873 0.5650545954704285 -0.9807515144348145 1.1092983186244965e-05 8.102506399154663e-07 0.0 0.0 0.0 0.0
0.874 0.5641469359397888 -0.9804922938346863 -1.0878778994083405e-05 -4.0543265640735626e-05 0.0 0.0 0.0 0.0
0.875 0.5635825395584106 -0.9803155064582825 -7.180497050285339e-07 1.416727900505066e-05 0.0 0.0 0.0 0.0
0.876 0.5631257891654968 -0.9826382994651794 -6.203539669513702e-06 9.592622518539429e-07 0.0 0.0 0.0 0.0
0.877 0.5601506233215332 -0.9831840395927429 8.271075785160065e-06 6.192363798618317e-06 0.0 0.0 0.0 0.0
0.878 0.5604197382926941 -0.9845031499862671 -1.4889054000377655e-05 3.21660190820694e-05 0.0 0.0 0.0 0.0
0.879 0.5585897564888 -0.9851933121681213 1.8863007426261902e-05 -1.816917210817337e-05 0.0 0.0 0.0 0.0
0.88 0.5578384399414062 -0.987007200717926 -4.732981324195862e-06 -7.440336048603058e-06 0.0 0.0 0.0 0.0
0.881 0.5573417544364929 -0.9871955513954163 2.750009298324585e-05 -1.3875775039196014e-05 0.0 0.0 0.0 0.0
0.882 0.5537132024765015 -0.9884593486785889 4.330649971961975e-06 1.3140961527824402e-05 0.0 0.0 0.0 0.0
0.883 0.5543948411941528 -0.9893643260002136 -2.4566426873207092e-05 1.0576099157333374e-05 0.0 0.0 0.0 0.0
0.884 0.551517128944397 -0.9906803369522095 1.4240853488445282e-05 1.2069009244441986e-05 0.0 0.0 0.0 0.0
0.885 0.5508410334587097 -0.9901788234710693 1.698080450296402e-05 -8.352100849151611e-06 0.0 0.0 0.0 0.0
0.886 0.5503355860710144 -0.9918639659881592 -4.5532360672950745e-06 -1.1187978088855743e-05 0.0 0.0 0.0 0.0
0.887 0.5472990274429321 -0.9936342239379883 7.354654371738434e-06 -1.4835037291049957e-05 0.0 0.0 0.0 0.0
0.888 0.5482789874076843 -0.9933892488479614 6.5909698605537415e-06 -8.536502718925476e-06 0.0 0.0 0.0 0.0
0.889 0.5458481907844543 -0.9952957034111023 -3.171432763338089e-05 -1.7091631889343262e-05 0.0 0.0 0.0 0.0
0.89 0.5461592078208923 -0.9957545399665833 3.3056363463401794e-05 -2.1384097635746002e-05 0.0 0.0 0.0 0.0
0.891 0.5440002679824829 -0.9978207945823669 2.9634684324264526e-06 4.019588232040405e-06 0.0 0.0 0.0 0.0
0.892 0.5433650612831116 -0.9970840215682983 -2.870708703994751e-05 9.34116542339325e-07 0.0 0.0 0.0 0.0
0.893 0.5410754084587097 -0.9987236857414246 8.680857717990875e-06 -4.064291715621948e-06 0.0 0.0 0.0 0.0
0.894 0.5412818789482117 -0.9995887875556946 4.646368324756622e-06 -1.4677643775939941e-06 0.0 0.0 0.0 0.0
0.895 0.5397135019302368 -1.0002976655960083 3.236345946788788e-06 3.291293978691101e-06 0.0 0.0 0.0 0.0
0.896 0.5379209518432617 -1.0010371208190918 2.445746213197708e-05 3.451108932495117e-05 0.0 0.0 0.0 0.0
0.897 0.5376195907592773 -1.0024365186691284 1.146271824836731e-05 -5.99399209022522e-06 0.0 0.0 0.0 0.0
0.898 0.5357071161270142 -1.0018373727798462 1.8848106265068054e-05 -1.1633150279521942e-05 0.0 0.0 0.0 0.0
0.899 0.5340144634246826 -1.0046379566192627 1.6825273633003235e-05 -1.8757767975330353e-05 0.0 0.0 0.0 0.0
0.9 0.5307683944702148 -1.0057543516159058 -7.535330951213837e-06 2.0452775061130524e-05 0.0 0.0 0.0 0.0
0.901 0.5320278406143188 -1.006675362586975 -2.2108666598796844e-05 -1.0979361832141876e-05 0.0 0.0 0.0 0.0
0.902 0.5306767821311951 -1.0069119930267334 -5.824491381645203e-06 1.18231400847435e-05 0.0 0.0 0.0 0.0
0.903 0.5295907258987427 -1.007631778717041 1.516006886959076e-05 -2.1058134734630585e-05 0.0 0.0 0.0 0.0
0.904 0.5277346968650818 -1.0083792209625244 -1.7192214727401733e-05 3.758817911148071e-05 0.0 0.0 0.0 0.0
0.905 0.5268872976303101 -1.0100449323654175 3.685150295495987e-05 -3.0387192964553833e-05 0.0 0.0 0.0 0.0
0.906 0.5263705253601074 -1.0110927820205688 -1.0526739060878754e-05 1.1162832379341125e-05 0.0 0.0 0.0 0.0
0.907 0.5236074924468994 -1.0112566947937012 -3.3704563975334167e-06 -1.1943280696868896e-05 0.0 0.0 0.0 0.0
0.908 0.5227600336074829 -1.0135549306869507 4.872679710388184e-06 2.7026981115341187e-05 0.0 0.0 0.0 0.0
0.909 0.5224035978317261 -1.0124579668045044 -1.9652768969535828e-05 -5.587935447692871e-06 0.0 0.0 0.0 0.0
0.91 0.5199154615402222 -1.014181137084961 1.807045191526413e-05 3.073364496231079e-06 0.0 0.0 0.0 0.0
0.911 0.5190978646278381 -1.0156702995300293 -2.6674941182136536e-05 -3.9655715227127075e-06 0.0 0.0 0.0 0.0
0.912 0.5172929763793945 -1.0177435874938965 2.689007669687271e-05 -1.0911375284194946e-05 0.0 0.0 0.0 0.0
0.913 0.5144609808921814 -1.0172474384307861 6.146728992462158e-08 3.746058791875839e-05 0.0 0.0 0.0 0.0
0.914 0.5162579417228699 -1.0181028842926025 1.5698373317718506e-05 2.7602538466453552e-05 0.0 0.0 0.0 0.0
0.915 0.5149049162864685 -1.017572283744812 1.482013612985611e-05 -2.1103769540786743e-06 0.0 0.0 0.0 0.0
0.916 0.512664794921875 -1.0192689895629883 1.8508173525333405e-05 1.4851801097393036e-05 0.0 0.0 0.0 0.0
0.917 0.5117042064666748 -1.0207946300506592 -2.834852784872055e-05 6.64684921503067e-06 0.0 0.0 0.0 0.0
0.918 0.5110740661621094 -1.0208158493041992 -2.66367569565773e-05 -1.1444091796875e-05 0.0 0.0 0.0 0.0
0.919 0.5086238980293274 -1.0219364166259766 -1.5450641512870789e-06 1.5500932931900024e-05 0.0 0.0 0.0 0.0
0.92 0.5074716806411743 -1.0235551595687866 1.4541670680046082e-05 3.5921111702919006e-06 0.0 0.0 0.0 0.0
0.921 0.506818950176239 -1.0218639373779297 -1.0011717677116394e-06 -6.426125764846802e-08 0.0 0.0 0.0 0.0
0.922 0.5055118799209595 -1.024057388305664 -3.3155083656311035e-06 -1.5420839190483093e-05 0.0 0.0 0.0 0.0
0.923 0.5013524293899536 -1.0264121294021606 2.120714634656906e-05 -1.4916062355041504e-05 0.0 0.0 0.0 0.0
0.924 0.5039821267127991 -1.026222586631775 -9.76957380771637e-06 1.4307908713817596e-05 0.0 0.0 0.0 0.0
0.925 0.5011357665061951 -1.0272010564804077 1.0320916771888733e-05 5.2014365792274475e-06 0.0 0.0 0.0 0.0
0.926 0.5010000467300415 -1.0283859968185425 2.911314368247986e-06 -3.964267671108246e-05 0.0 0.0 0.0 0.0
0.927 0.49978771805763245 -1.0287683010101318 8.112750947475433e-06 1.93621963262558e-05 0.0 0.0 0.0 0.0
0.928 0.49670493602752686 -1.0303055047988892 2.1249987185001373e-05 -1.4440156519412994e-05 0.0 0.0 0.0 0.0
0.929 0.49528056383132935 -1.0312527418136597 2.6152469217777252e-05 -1.2811273336410522e-05 0.0 0.0 0.0 0.0
0.93 0.4936943054199219 -1.0313348770141602 1.5089288353919983e-05 2.8423964977264404e-06 0.0 0.0 0.0 0.0
0.931 0.49377506971359253 -1.0329948663711548 1.749955117702484e-05 -9.234994649887085e-06 0.0 0.0 0.0 0.0
0.932 0.4916040003299713 -1.032654881477356 -6.588175892829895e-06 1.00722536444664e-05 0.0 0.0 0.0 0.0
0.933 0.4891264736652374 -1.0350432395935059 4.519615322351456e-05 1.1120922863483429e-05 0.0 0.0 0.0 0.0
0.934 0.48919323086738586 -1.0357586145401 3.4691765904426575e-06 -7.692724466323853e-06 0.0 0.0 0.0 0.0
0.935 0.48794591426849365 -1.0350778102874756 2.4742446839809418e-05 9.764917194843292e-06 0.0 0.0 0.0 0.0
0.936 0.48756498098373413 -1.0378080606460571 4.024431109428406e-05 2.390984445810318e-05 0.0 0.0 0.0 0.0
0.937 0.4854556918144226 -1.0377418994903564 -4.328787326812744e-06 2.864096313714981e-05 0.0 0.0 0.0 0.0
0.938 0.4842815697193146 -1.0383297204971313 -3.3155083656311035e-06 2.8928741812705994e-05 0.0 0.0 0.0 0.0
0.939 0.482239305973053 -1.039313793182373 -9.131617844104767e-06 -8.722767233848572e-06 0.0 0.0 0.0 0.0
0.94 0.4822015166282654 -1.03877592086792 1.68774276971817e-05 -2.2561289370059967e-05 0.0 0.0 0.0 0.0
0.941 0.4799429476261139 -1.0400333404541016 -2.3747794330120087e-05 -1.436285674571991e-05 0.0 0.0 0.0 0.0
0.942 0.47825682163238525 -1.0417567491531372 -3.760121762752533e-05 -2.335570752620697e-05 0.0 0.0 0.0 0.0
0.943 0.47737929224967957 -1.0416843891143799 1.9045546650886536e-05 -7.973052561283112e-06 0.0 0.0 0.0 0.0
0.944 0.4744846224784851 -1.0435757637023926 8.957460522651672e-06 1.5721656382083893e-05 0.0 0.0 0.0 0.0
0.945 0.4724085330963135 -1.0428813695907593 -2.2985972464084625e-05 -2.068839967250824e-05 0.0 0.0 0.0 0.0
0.946 0.47306686639785767 -1.0437685251235962 -4.1035935282707214e-05 4.867091774940491e-06 0.0 0.0 0.0 0.0
0.947 0.4721367657184601 -1.0454038381576538 -1.8553808331489563e-05 -1.4703720808029175e-05 0.0 0.0 0.0 0.0
0.948 0.47085222601890564 -1.0457913875579834 1.7945654690265656e-05 9.930692613124847e-06 0.0 0.0 0.0 0.0
0.949 0.46945691108703613 -1.046566128730774 7.86222517490387e-06 3.308802843093872e-05 0.0 0.0 0.0 0.0
0.95 0.466299831867218 -1.0482474565505981 -2.6862137019634247e-05 -8.733943104743958e-06 0.0 0.0 0.0 0.0
0.951 0.4666096270084381 -1.0478744506835938 1.1317431926727295e-05 1.5165656805038452e-05 0.0 0.0 0.0 0.0
0.952 0.46466153860092163 -1.0480291843414307 2.3029744625091553e-05 2.3963861167430878e-05 0.0 0.0 0.0 0.0
0.953 0.46306219696998596 -1.050252914428711 -1.867208629846573e-05 -1.3665296137332916e-05 0.0 0.0 0.0 0.0
0.954 0.46307194232940674 -1.0496220588684082 -4.752539098262787e-06 2.5292858481407166e-05 0.0 0.0 0.0 0.0
0.955 0.46116355061531067 -1.0502617359161377 1.7813406884670258e-05 -2.9583461582660675e-05 0.0 0.0 0.0 0.0
0.956 0.45955681800842285 -1.0513819456100464 2.1774321794509888e-05 1.102592796087265e-05 0.0 0.0 0.0 0.0
0.957 0.4577862620353699 -1.0512001514434814 7.920898497104645e-06 1.4301389455795288e-05 0.0 0.0 0.0 0.0
0.958 0.45476001501083374 -1.0531316995620728 -1.3129785656929016e-05 -1.7873011529445648e-05 0.0 0.0 0.0 0.0
0.959 0.4564441740512848 -1.0541573762893677 -1.105479896068573e-05 7.793307304382324e-06 0.0 0.0 0.0 0.0
0.96 0.45541146397590637 -1.0549132823944092 -2.1024607121944427e-05 6.990507245063782e-06 0.0 0.0 0.0 0.0
0.961 0.45043471455574036 -1.0561414957046509 2.4098902940750122e-05 7.429160177707672e-06 0.0 0.0 0.0 0.0
0.962 0.45146602392196655 -1.0561683177947998 -1.4171004295349121e-05 9.774230420589447e-06 0.0 0.0 0.0 0.0
0.963 0.44941452145576477 -1.0554194450378418 1.3629905879497528e-05 -8.289702236652374e-06 0.0 0.0 0.0 0.0
0.964 0.4478221535682678 -1.0582562685012817 -1.1995434761047363e-05 -1.0472722351551056e-05 0.0 0.0 0.0 0.0
0.965 0.4465502202510834 -1.0583233833312988 2.9661692678928375e-05 1.567695289850235e-05 0.0 0.0 0.0 0.0
0.966 0.44581782817840576 -1.0577480792999268 1.1119991540908813e-05 -5.923211574554443e-07 0.0 0.0 0.0 0.0
0.967 0.44365474581718445 -1.0594379901885986 2.168118953704834e-06 -2.0655803382396698e-05 0.0 0.0 0.0 0.0
0.968 0.4442666172981262 -1.0601197481155396 -2.8712674975395203e-06 -2.8917565941810608e-05 0.0 0.0 0.0 0.0
0.969 0.4399556815624237 -1.0606387853622437 2.392008900642395e-05 3.123655915260315e-06 0.0 0.0 0.0 0.0
0.97 0.43816080689430237 -1.0620349645614624 -2.7144327759742737e-05 -1.3491138815879822e-05 0.0 0.0 0.0 0.0
0.971 0.4381450116634369 -1.0621391534805298 2.6728957891464233e-07 2.5779008865356445e-05 0.0 0.0 0.0 0.0
0.972 0.4378097951412201 -1.0615887641906738 1.8654391169548035e-06 1.8093734979629517e-05 0.0 0.0 0.0 0.0
0.973 0.43469175696372986 -1.0636438131332397 1.504458487033844e-05 -4.3048523366451263e-05 0.0 0.0 0.0 0.0
0.974 0.43484723567962646 -1.063058614730835 -2.3945234715938568e-05 1.1051073670387268e-05 0.0 0.0 0.0 0.0
0.975 0.4324324429035187 -1.0646700859069824 4.63118776679039e-05 -1.787859946489334e-05 0.0 0.0 0.0 0.0
0.976 0.4305344223976135 -1.0660244226455688 -3.076530992984772e-05 -1.3492070138454437e-05 0.0 0.0 0.0 0.0
0.977 0.42962586879730225 -1.0652846097946167 2.1259300410747528e-05 -1.0661780834197998e-05 0.0 0.0 0.0 0.0
0.978 0.42679840326309204 -1.066772699356079 4.277564585208893e-06 2.683699131011963e-05 0.0 0.0 0.0 0.0
0.979 0.42633870244026184 -1.066699743270874 1.6528181731700897e-05 -7.599592208862305e-07 0.0 0.0 0.0 0.0
0.98 0.42545199394226074 -1.067569375038147 1.927558332681656e-05 -7.788650691509247e-06 0.0 0.0 0.0 0.0
0.981 0.4237116575241089 -1.0694406032562256 1.2302771210670471e-05 -4.021450877189636e-05 0.0 0.0 0.0 0.0
0.982 0.4219130575656891 -1.0687319040298462 -2.316199243068695e-06 2.870894968509674e-05 0.0 0.0 0.0 0.0
0.983 0.4208349585533142 -1.0691111087799072 -6.905756890773773e-06 -2.8507784008979797e-06 0.0 0.0 0.0 0.0
0.984 0.4177539050579071 -1.069226861000061 -4.936009645462036e-08 -1.7123296856880188e-05 0.0 0.0 0.0 0.0
0.985 0.4174758493900299 -1.0712916851043701 1.620221883058548e-05 -5.323439836502075e-06 0.0 0.0 0.0 0.0
0.986 0.4156675934791565 -1.0719131231307983 3.546476364135742e-06 1.0434538125991821e-05 0.0 0.0 0.0 0.0
0.987 0.41432008147239685 -1.0723135471343994 1.423712819814682e-05 -1.435261219739914e-05 0.0 0.0 0.0 0.0
0.988 0.41257333755493164 -1.0733661651611328 -1.3018026947975159e-05 7.645227015018463e-06 0.0 0.0 0.0 0.0
0.989 0.4100026786327362 -1.0731340646743774 6.235204637050629e-06 7.738359272480011e-06 0.0 0.0 0.0 0.0
0.99 0.4103100299835205 -1.074925184249878 1.1621974408626556e-05 -2.5268644094467163e-05 0.0 0.0 0.0 0.0
0.991 0.40824970602989197 -1.0742933750152588 -3.441516309976578e-05 -4.935078322887421e-06 0.0 0.0 0.0 0.0
0.992 0.4074747860431671 -1.0747897624969482 8.10530036687851e-06 -1.545436680316925e-05 0.0 0.0 0.0 0.0
0.993 0.40596461296081543 -1.0758283138275146 1.979246735572815e-05 1.799594610929489e-05 0.0 0.0 0.0 0.0
0.994 0.40438488125801086 -1.0762169361114502 1.3457611203193665e-06 9.29366797208786e-06 0.0 0.0 0.0 0.0
0.995 0.40245717763900757 -1.076706886291504 2.002902328968048e-05 -6.4605847001075745e-06 0.0 0.0 0.0 0.0
0.996 0.40019848942756653 -1.078382134437561 -2.1375715732574463e-05 -1.1183321475982666e-05 0.0 0.0 0.0 0.0
0.997 0.40007448196411133 -1.0775561332702637 1.1961907148361206e-05 -1.1473894119262695e-06 0.0 0.0 0.0 0.0
0.998 0.39834025502204895 -1.0783072710037231 4.63239848613739e-06 -2.5214627385139465e-05 0.0 0.0 0.0 0.0
0.999 0.39601945877075195 -1.0789713859558105 2.4707987904548645e-06 5.104579031467438e-06 0.0 0.0 0.0 0.0
1.0 0.39690613746643066 -1.0792771577835083 -2.0141713321208954e-05 -7.768161594867706e-06 0.0 0.0 0.0 0.0
1.001 0.39418116211891174 -1.080163836479187 -3.1006522476673126e-05 2.72504985332489e-06 0.0 0.0 0.0 0.0
1.002 0.39223432540893555 -1.080513596534729 -5.694106221199036e-06 1.4618970453739166e-05 0.0 0.0 0.0 0.0
1.003 0.3920235335826874 -1.0811128616333008 8.712522685527802e-06 5.92600554227829e-06 0.0 0.0 0.0 0.0
1.004 0.3891298472881317 -1.081572413444519 -1.126062124967575e-05 -4.08664345741272e-06 0.0 0.0 0.0 0.0
1.005 0.38768574595451355 -1.0825319290161133 -6.279908120632172e-06 -1.767277717590332e-05 0.0 0.0 0.0 0.0
1.006 0.38683390617370605 -1.0823309421539307 1.0707415640354156e-05 -7.663853466510773e-06 0.0 0.0 0.0 0.0
1.007 0.38404351472854614 -1.082708477973938 -4.9658119678497314e-06 -9.715557098388672e-06 0.0 0.0 0.0 0.0
1.008 0.3818758726119995 -1.0854988098144531 -1.1438503861427307e-05 -1.0123476386070251e-06 0.0 0.0 0.0 0.0
1.009 0.3817385733127594 -1.0838733911514282 -1.287367194890976e-05 -3.468245267868042e-06 0.0 0.0 0.0 0.0
1.01 0.37911343574523926 -1.084916114807129 3.46451997756958e-07 3.98075208067894e-05 0.0 0.0 0.0 0.0
1.011 0.37804147601127625 -1.0867793560028076 -1.6839243471622467e-05 -9.344890713691711e-06 0.0 0.0 0.0 0.0
1.012 0.3774625062942505 -1.084999918937683 4.221685230731964e-06 -4.675239324569702e-07 0.0 0.0 0.0 0.0
1.013 0.3754442632198334 -1.0863704681396484 -6.271526217460632e-06 8.20215791463852e-06 0.0 0.0 0.0 0.0
1.014 0.37191715836524963 -1.0872509479522705 2.6673078536987305e-06 7.3695555329322815e-06 0.0 0.0 0.0 0.0
1.015 0.3748016953468323 -1.0857501029968262 -7.024034857749939e-06 1.8557533621788025e-05 0.0 0.0 0.0 0.0
1.016 0.36683031916618347 -1.089172601699829 2.4091452360153198e-05 -1.346692442893982e-05 0.0 0.0 0.0 0.0
1.017 0.3704107999801636 -1.0888370275497437 -1.2621283531188965e-05 8.260831236839294e-06 0.0 0.0 0.0 0.0
1.018 0.3675132393836975 -1.0881928205490112 -8.897855877876282e-06 8.439645171165466e-06 0.0 0.0 0.0 0.0
1.019 0.366741806268692 -1.088876485824585 -2.5210902094841003e-06 6.748363375663757e-06 0.0 0.0 0.0 0.0
1.02 0.363328754901886 -1.089155673980713 9.991228580474854e-06 -2.466980367898941e-05 0.0 0.0 0.0 0.0
1.021 0.36271536350250244 -1.0897458791732788 -1.3784505426883698e-05 -1.5718862414360046e-05 0.0 0.0 0.0 0.0
1.022 0.3601214587688446 -1.090110182762146 -7.241964340209961e-06 -2.1969899535179138e-05 0.0 0.0 0.0 0.0
1.023 0.3591393530368805 -1.0910770893096924 -2.973247319459915e-05 2.4197623133659363e-05 0.0 0.0 0.0 0.0
1.024 0.35737013816833496 -1.0909168720245361 -8.609145879745483e-06 -9.953975677490234e-06 0.0 0.0 0.0 0.0
1.025 0.353687047958374 -1.0930697917938232 -1.8363818526268005e-05 1.2069940567016602e-05 0.0 0.0 0.0 0.0
1.026 0.3558681011199951 -1.092231273651123 3.3061951398849487e-06 -2.5831162929534912e-05 0.0 0.0 0.0 0.0
1.027 0.35277584195137024 -1.091843843460083 -7.134862244129181e-06 -4.561617970466614e-06 0.0 0.0 0.0 0.0
1.028 0.351645827293396 -1.092167615890503 -1.0110437870025635e-05 2.522394061088562e-05 0.0 0.0 0.0 0.0
1.029 0.34863096475601196 -1.0942944288253784 1.0293908417224884e-05 2.4734996259212494e-05 0.0 0.0 0.0 0.0
1.03 0.3476690649986267 -1.092921495437622 1.2965872883796692e-05 1.1538155376911163e-05 0.0 0.0 0.0 0.0
1.031 0.34636351466178894 -1.0941797494888306 -5.162321031093597e-06 -6.9122761487960815e-06 0.0 0.0 0.0 0.0
1.032 0.3444517254829407 -1.0944037437438965 -2.023298293352127e-05 -1.3570301234722137e-05 0.0 0.0 0.0 0.0
1.033 0.3439781069755554 -1.0935287475585938 -2.958439290523529e-05 1.866370439529419e-06 0.0 0.0 0.0 0.0
1.034 0.34145084023475647 -1.0953023433685303 2.0332634449005127e-05 -3.0677765607833862e-06 0.0 0.0 0.0 0.0
1.035 0.34023916721343994 -1.0960667133331299 1.230090856552124e-05 -1.284480094909668e-05 0.0 0.0 0.0 0.0
1.036 0.33856406807899475 -1.0953348875045776 -1.562945544719696e-05 5.5301934480667114e-06 0.0 0.0 0.0 0.0
1.037 0.33521726727485657 -1.0959951877593994 1.0685063898563385e-05 2.7181580662727356e-05 0.0 0.0 0.0 0.0
1.038 0.3350333869457245 -1.096137523651123 -2.9224902391433716e-06 -9.831972420215607e-06 0.0 0.0 0.0 0.0
1.039 0.33336398005485535 -1.0963791608810425 -1.03730708360672e-05 8.565373718738556e-06 0.0 0.0 0.0 0.0
1.04 0.3304736614227295 -1.0971364974975586 -7.4747949838638306e-06 7.156282663345337e-06 0.0 0.0 0.0 0.0
1.041 0.3308165371417999 -1.0982102155685425 -2.0666979253292084e-05 -1.983530819416046e-05 0.0 0.0 0.0 0.0
1.042 0.32866954803466797 -1.0961296558380127 1.914985477924347e-05 1.7974525690078735e-07 0.0 0.0 0.0 0.0
1.043 0.3268550634384155 -1.0976282358169556 -7.644295692443848e-06 -3.1478703022003174e-07 0.0 0.0 0.0 0.0
1.044 0.32414019107818604 -1.097794532775879 -2.0274892449378967e-06 -3.5297125577926636e-07 0.0 0.0 0.0 0.0
1.045 0.3216169476509094 -1.0985093116760254 2.156756818294525e-05 6.312504410743713e-06 0.0 0.0 0.0 0.0
1.046 0.3208903670310974 -1.0975044965744019 1.0133720934391022e-05 1.2714415788650513e-05 0.0 0.0 0.0 0.0
1.047 0.31923148036003113 -1.0983643531799316 -1.2285076081752777e-05 1.7463229596614838e-05 0.0 0.0 0.0 0.0
1.048 0.3173137307167053 -1.097894310951233 1.43442302942276e-05 -1.0299496352672577e-05 0.0 0.0 0.0 0.0
1.049 0.3139934539794922 -1.0981990098953247 2.20397487282753e-05 9.59634780883789e-06 0.0 0.0 0.0 0.0
1.05 0.3138408064842224 -1.0978459119796753 -2.836901694536209e-05 -1.4040619134902954e-05 0.0 0.0 0.0 0.0
1.051 0.3139150142669678 -1.097947359085083 -1.3752840459346771e-05 -9.639188647270203e-06 0.0 0.0 0.0 0.0
1.052 0.3092499375343323 -1.0985668897628784 2.4740584194660187e-05 -1.590326428413391e-05 0.0 0.0 0.0 0.0
1.053 0.3096280097961426 -1.0980112552642822 1.3522803783416748e-06 -3.355555236339569e-06 0.0 0.0 0.0 0.0
1.054 0.3062955141067505 -1.097109317779541 1.4697201550006866e-05 7.698312401771545e-06 0.0 0.0 0.0 0.0
1.055 0.3054644465446472 -1.097610354423523 1.5339814126491547e-05 -8.06618481874466e-06 0.0 0.0 0.0 0.0
1.056 0.3040277063846588 -1.0963518619537354 6.3534826040267944e-06 1.4084391295909882e-05 0.0 0.0 0.0 0.0
1.057 0.3034084439277649 -1.0957285165786743 4.973262548446655e-07 -2.7208589017391205e-05 0.0 0.0 0.0 0.0
1.058 0.3039698302745819 -1.0964163541793823 -4.32971864938736e-06 -7.834285497665405e-06 0.0 0.0 0.0 0.0
1.059 0.30368494987487793 -1.096386432647705 2.592429518699646e-05 -1.772399991750717e-05 0.0 0.0 0.0 0.0
1.06 0.3004297614097595 -1.0975710153579712 -4.273839294910431e-06 8.597970008850098e-06 0.0 0.0 0.0 0.0
1.061 0.3005981743335724 -1.0980942249298096 -7.320195436477661e-06 -1.6773119568824768e-05 0.0 0.0 0.0 0.0
1.062 0.29937687516212463 -1.097477912902832 1.4414079487323761e-05 -2.1073035895824432e-05 0.0 0.0 0.0 0.0
1.063 0.29758644104003906 -1.0985578298568726 -5.559064447879791e-06 1.0083429515361786e-05 0.0 0.0 0.0 0.0
1.064 0.29631489515304565 -1.1006306409835815 6.683170795440674e-06 -2.2341497242450714e-05 0.0 0.0 0.0 0.0
1.065 0.2952785789966583 -1.0995417833328247 -1.6540288925170898e-06 -6.541609764099121e-06 0.0 0.0 0.0 0.0
1.066 0.2931097447872162 -1.1010416746139526 -7.319264113903046e-06 -2.5606714189052582e-05 0.0 0.0 0.0 0.0
1.067 0.29257887601852417 -1.1013962030410767 1.451931893825531e-06 -8.87550413608551e-06 0.0 0.0 0.0 0.0
1.068 0.2915683388710022 -1.1008378267288208 5.2675604820251465e-06 2.7264468371868134e-05 0.0 0.0 0.0 0.0
1.069 0.2880122661590576 -1.1015797853469849 -2.1576881408691406e-05 5.948357284069061e-06 0.0 0.0 0.0 0.0
1.07 0.2879064083099365 -1.1023513078689575 -3.07941809296608e-05 -1.3470649719238281e-05 0.0 0.0 0.0 0.0
1.071 0.2845843732357025 -1.10149347782135 -1.7150305211544037e-05 -1.3135373592376709e-05 0.0 0.0 0.0 0.0
1.072 0.2835005521774292 -1.1019892692565918 -3.241002559661865e-07 5.1781535148620605e-06 0.0 0.0 0.0 0.0
1.073 0.28464990854263306 -1.1021599769592285 7.985159754753113e-06 -8.912757039070129e-07 0.0 0.0 0.0 0.0
1.074 0.28027045726776123 -1.102362036705017 1.4172866940498352e-05 1.2718141078948975e-05 0.0 0.0 0.0 0.0
1.075 0.2788894474506378 -1.1044842004776 2.4938024580478668e-05 -1.0089017450809479e-05 0.0 0.0 0.0 0.0
1.076 0.2769676446914673 -1.1035723686218262 1.491047441959381e-06 9.387731552124023e-07 0.0 0.0 0.0 0.0
1.077 0.2735658288002014 -1.1042126417160034 -1.1817552149295807e-05 -1.1957250535488129e-05 0.0 0.0 0.0 0.0
1.078 0.2755299508571625 -1.1031363010406494 7.997266948223114e-06 1.540500670671463e-05 0.0 0.0 0.0 0.0
1.079 0.2710326910018921 -1.1035592555999756 -7.385388016700745e-06 1.3967975974082947e-05 0.0 0.0 0.0 0.0
1.08 0.2706056535243988 -1.1050831079483032 -2.3952685296535492e-05 1.9676052033901215e-05 0.0 0.0 0.0 0.0
1.081 0.26863402128219604 -1.1040003299713135 2.0470470190048218e-06 -4.1583552956581116e-06 0.0 0.0 0.0 0.0
1.082 0.26823723316192627 -1.1037538051605225 5.782581865787506e-06 -1.0868534445762634e-06 0.0 0.0 0.0 0.0
1.083 0.264760822057724 -1.106125831604004 -4.3713487684726715e-05 5.833804607391357e-06 0.0 0.0 0.0 0.0
1.084 0.26543188095092773 -1.1048616170883179 -7.972121238708496e-07 1.5838071703910828e-05 0.0 0.0 0.0 0.0
1.085 0.262592077255249 -1.1047236919403076 7.171183824539185e-07 -7.397495210170746e-06 0.0 0.0 0.0 0.0
1.086 0.26136505603790283 -1.1046435832977295 8.698552846908569e-07 4.0065497159957886e-06 0.0 0.0 0.0 0.0
1.087 0.25999072194099426 -1.103621482849121 -1.4040619134902954e-05 2.2819265723228455e-05 0.0 0.0 0.0 0.0
1.088 0.25743019580841064 -1.1049531698226929 7.614493370056152e-06 -3.938563168048859e-06 0.0 0.0 0.0 0.0
1.089 0.2556461691856384 -1.1043117046356201 2.3283064365386963e-06 1.16666778922081e-05 0.0 0.0 0.0 0.0
1.09 0.25562870502471924 -1.1037789583206177 8.042901754379272e-06 -1.3139098882675171e-05 0.0 0.0 0.0 0.0
1.091 0.25301501154899597 -1.104862928390503 8.381903171539307e-07 1.8483959138393402e-05 0.0 0.0 0.0 0.0
1.092 0.25057101249694824 -1.1052824258804321 -1.4756806194782257e-05 1.40313059091568e-05 0.0 0.0 0.0 0.0
1.093 0.25032761693000793 -1.1047343015670776 4.291534423828125e-06 2.3954547941684723e-05 0.0 0.0 0.0 0.0
1.094 0.24823763966560364 -1.1054022312164307 2.0965002477169037e-05 1.5106052160263062e-06 0.0 0.0 0.0 0.0
1.095 0.24683226644992828 -1.1054481267929077 7.83335417509079e-06 4.98257577419281e-07 0.0 0.0 0.0 0.0
1.096 0.24448446929454803 -1.104906678199768 1.7103739082813263e-05 1.2786127626895905e-05 0.0 0.0 0.0 0.0
1.097 0.24174702167510986 -1.1059824228286743 -4.0084123611450195e-06 -1.4798715710639954e-06 0.0 0.0 0.0 0.0
1.098 0.2405787706375122 -1.1049224138259888 1.1578202247619629e-05 -1.1470168828964233e-05 0.0 0.0 0.0 0.0
1.099 0.23801450431346893 -1.104753017425537 -5.82914799451828e-06 1.3603828847408295e-05 0.0 0.0 0.0 0.0
1.1 0.2387167364358902 -1.1055587530136108 1.2721866369247437e-05 -2.917833626270294e-06 0.0 0.0 0.0 0.0
1.101 0.23837973177433014 -1.1046485900878906 1.555308699607849e-07 -2.1875835955142975e-05 0.0 0.0 0.0 0.0
1.102 0.23365823924541473 -1.1061172485351562 -2.1315179765224457e-05 -1.146458089351654e-05 0.0 0.0 0.0 0.0
1.103 0.2337327003479004 -1.1058084964752197 -2.7846544981002808e-06 -4.844740033149719e-06 0.0 0.0 0.0 0.0
1.104 0.23328126966953278 -1.1045184135437012 9.616836905479431e-06 -6.884336471557617e-06 0.0 0.0 0.0 0.0
1.105 0.22904807329177856 -1.1052724123001099 -1.603085547685623e-05 1.0387971997261047e-05 0.0 0.0 0.0 0.0
1.106 0.22907477617263794 -1.105287790298462 -5.7406723499298096e-06 -1.1100433766841888e-05 0.0 0.0 0.0 0.0
1.107 0.22599317133426666 -1.1049734354019165 6.881542503833771e-06 7.776543498039246e-06 0.0 0.0 0.0 0.0
1.108 0.2250959575176239 -1.1044368743896484 -1.0057352483272552e-05 -1.3204291462898254e-05 0.0 0.0 0.0 0.0
1.109 0.2242235690355301 -1.1051241159439087 -2.766866236925125e-05 -1.0627321898937225e-05 0.0 0.0 0.0 0.0
1.11 0.223285973072052 -1.1034855842590332 -2.5700777769088745e-05 7.144175469875336e-06 0.0 0.0 0.0 0.0
1.111 0.22106210887432098 -1.1052109003067017 1.8320046365261078e-05 1.9322149455547333e-05 0.0 0.0 0.0 0.0
1.112 0.2191273421049118 -1.1047792434692383 1.5875324606895447e-05 6.235204637050629e-06 0.0 0.0 0.0 0.0
1.113 0.21982021629810333 -1.1040103435516357 1.2714415788650513e-05 -9.248033165931702e-07 0.0 0.0 0.0 0.0
1.114 0.21495531499385834 -1.1046799421310425 1.8589198589324951e-06 -3.4188851714134216e-06 0.0 0.0 0.0 0.0
1.115 0.21164551377296448 -1.1056873798370361 9.151175618171692e-06 1.3401731848716736e-06 0.0 0.0 0.0 0.0
1.116 0.2148408442735672 -1.105087161064148 -9.90740954875946e-06 -5.5264681577682495e-06 0.0 0.0 0.0 0.0
1.117 0.21259017288684845 -1.1041224002838135 2.2699125111103058e-05 1.145247370004654e-05 0.0 0.0 0.0 0.0
1.118 0.21026310324668884 -1.1037437915802002 -9.857118129730225e-06 2.8507784008979797e-06 0.0 0.0 0.0 0.0
1.119 0.20675425231456757 -1.1041934490203857 -2.744607627391815e-06 1.4972873032093048e-05 0.0 0.0 0.0 0.0
1.12 0.20722711086273193 -1.103800892829895 1.8887221813201904e-06 1.3447366654872894e-05 0.0 0.0 0.0 0.0
1.121 0.20620214939117432 -1.10299813747406 -2.86102294921875e-06 6.230548024177551e-06 0.0 0.0 0.0 0.0
1.122 0.20413897931575775 -1.1025276184082031 3.77558171749115e-05 -2.3944303393363953e-06 0.0 0.0 0.0 0.0
1.123 0.20240576565265656 -1.1033273935317993 1.4890916645526886e-05 1.55474990606308e-05 0.0 0.0 0.0 0.0
1.124 0.20069436728954315 -1.103230357170105 -2.090074121952057e-05 1.4318153262138367e-05 0.0 0.0 0.0 0.0
1.125 0.19642844796180725 -1.104561686515808 1.3319775462150574e-05 -7.579103112220764e-06 0.0 0.0 0.0 0.0
1.126 0.19877217710018158 -1.1024118661880493 -6.119720637798309e-06 -8.936971426010132e-06 0.0 0.0 0.0 0.0
1.127 0.19544504582881927 -1.1024703979492188 2.952292561531067e-06 2.6467256247997284e-05 0.0 0.0 0.0 0.0
1.128 0.194583922624588 -1.101254940032959 -1.1278316378593445e-06 1.471303403377533e-05 0.0 0.0 0.0 0.0
1.129 0.19312021136283875 -1.1019182205200195 -6.165355443954468e-07 -6.073154509067535e-06 0.0 0.0 0.0 0.0
1.13 0.19215796887874603 -1.1011377573013306 3.149639815092087e-05 -1.4948658645153046e-05 0.0 0.0 0.0 0.0
1.131 0.1890898495912552 -1.1013768911361694 -1.6237609088420868e-05 -6.5034255385398865e-06 0.0 0.0 0.0 0.0
1.132 0.18731671571731567 -1.1017645597457886 -1.299101859331131e-05 9.56561416387558e-06 0.0 0.0 0.0 0.0
1.133 0.18651145696640015 -1.1017402410507202 -1.0893680155277252e-05 -1.2242235243320465e-05 0.0 0.0 0.0 0.0
1.134 0.18324190378189087 -1.1020615100860596 2.3888424038887024e-05 -1.1834315955638885e-05 0.0 0.0 0.0 0.0
1.135 0.18455670773983002 -1.1005882024765015 6.9336965680122375e-06 9.194016456604004e-06 0.0 0.0 0.0 0.0
1.136 0.1809479147195816 -1.100644588470459 3.981404006481171e-06 1.171790063381195e-05 0.0 0.0 0.0 0.0
1.137 0.18108031153678894 -1.0991758108139038 -1.1917203664779663e-05 -9.180046617984772e-06 0.0 0.0 0.0 0.0
1.138 0.17930783331394196 -1.1000665426254272 6.152316927909851e-06 -1.3929791748523712e-05 0.0 0.0 0.0 0.0
1.139 0.17816676199436188 -1.1005693674087524 -1.734122633934021e-06 -4.7869980335235596e-06 0.0 0.0 0.0 0.0
1.14 0.17566046118736267 -1.1020585298538208 -4.759058356285095e-07 -1.292303204536438e-05 0.0 0.0 0.0 0.0
1.141 0.17510515451431274 -1.099458932876587 -6.073154509067535e-06 4.6836212277412415e-06 0.0 0.0 0.0 0.0
1.142 0.17237019538879395 -1.1005151271820068 -1.2687407433986664e-05 1.0042451322078705e-05 0.0 0.0 0.0 0.0
1.143 0.1712784618139267 -1.1001864671707153 1.6451813280582428e-05 -1.4582648873329163e-05 0.0 0.0 0.0 0.0
1.144 0.16990484297275543 -1.099233865737915 -5.2228569984436035e-06 -4.92483377456665e-06 0.0 0.0 0.0 0.0
1.145 0.1687069982290268 -1.0985137224197388 1.3194046914577484e-05 8.854083716869354e-06 0.0 0.0 0.0 0.0
1.146 0.1660778671503067 -1.098645567893982 -8.864328265190125e-06 -1.483224332332611e-05 0.0 0.0 0.0 0.0
1.147 0.1639445424079895 -1.098564863204956 5.356036126613617e-06 -1.6437843441963196e-06 0.0 0.0 0.0 0.0
1.148 0.165509894490242 -1.0985774993896484 2.034846693277359e-05 3.913417458534241e-06 0.0 0.0 0.0 0.0
1.149 0.16127416491508484 -1.0980244874954224 1.685693860054016e-07 6.31529837846756e-06 0.0 0.0 0.0 0.0
1.15 0.16107550263404846 -1.0970224142074585 -2.1383166313171387e-06 -1.271069049835205e-05 0.0 0.0 0.0 0.0
1.151 0.16130436956882477 -1.096632719039917 -1.1547468602657318e-05 -1.8452294170856476e-05 0.0 0.0 0.0 0.0
1.152 0.15612085163593292 -1.0985199213027954 -1.4044344425201416e-06 -1.6534700989723206e-05 0.0 0.0 0.0 0.0
1.153 0.1567768156528473 -1.096304178237915 -1.1939555406570435e-06 -1.3970769941806793e-05 0.0 0.0 0.0 0.0
1.154 0.15478280186653137 -1.0963865518569946 1.980923116207123e-06 -1.1879950761795044e-05 0.0 0.0 0.0 0.0
1.155 0.1519365757703781 -1.095533013343811 -1.4955177903175354e-05 3.462657332420349e-06 0.0 0.0 0.0 0.0
1.156 0.1519182026386261 -1.096168875694275 1.19796022772789e-05 -1.8905848264694214e-07 0.0 0.0 0.0 0.0
1.157 0.1511009782552719 -1.0949763059616089 2.3027881979942322e-05 -8.161179721355438e-06 0.0 0.0 0.0 0.0
1.158 0.1474674642086029 -1.095040202140808 -1.993030309677124e-06 9.939074516296387e-06 0.0 0.0 0.0 0.0
1.159 0.1468517780303955 -1.0946056842803955 1.7102807760238647e-05 1.1407770216464996e-05 0.0 0.0 0.0 0.0
1.16 0.14490906894207 -1.0941298007965088 2.7307309210300446e-05 -1.7851591110229492e-05 0.0 0.0 0.0 0.0
1.161 0.1432974487543106 -1.0936590433120728 2.7706846594810486e-05 6.1802566051483154e-06 0.0 0.0 0.0 0.0
1.162 0.142454594373703 -1.0939089059829712 6.109476089477539e-06 -8.198432624340057e-06 0.0 0.0 0.0 0.0
1.163 0.1391201764345169 -1.0934031009674072 9.683892130851746e-06 -8.584931492805481e-06 0.0 0.0 0.0 0.0
1.164 0.1400223821401596 -1.093526840209961 4.5532360672950745e-06 -2.7088448405265808e-05 0.0 0.0 0.0 0.0
1.165 0.1412588506937027 -1.091726303100586 -1.448020339012146e-05 -1.0565854609012604e-05 0.0 0.0 0.0 0.0
1.166 0.13427165150642395 -1.092534065246582 7.041729986667633e-06 -8.96397978067398e-06 0.0 0.0 0.0 0.0
1.167 0.1365484595298767 -1.0919026136398315 1.2382864952087402e-05 -1.2400560081005096e-05 0.0 0.0 0.0 0.0
1.168 0.13303864002227783 -1.091667652130127 -8.832663297653198e-06 -3.88268381357193e-06 0.0 0.0 0.0 0.0
1.169 0.1337229162454605 -1.0912824869155884 9.180977940559387e-06 -1.7714686691761017e-05 0.0 0.0 0.0 0.0
1.17 0.1310548335313797 -1.0908098220825195 8.272938430309296e-06 6.1998143792152405e-06 0.0 0.0 0.0 0.0
1.171 0.12907211482524872 -1.0906264781951904 -6.488524377346039e-06 -5.508773028850555e-06 0.0 0.0 0.0 0.0
1.172 0.12797938287258148 -1.0902725458145142 -1.8061138689517975e-05 -2.042297273874283e-05 0.0 0.0 0.0 0.0
1.173 0.12718060612678528 -1.090636134147644 1.1333264410495758e-05 -2.3120082914829254e-05 0.0 0.0 0.0 0.0
1.174 0.12406381219625473 -1.089316487312317 -4.565343260765076e-06 6.3283368945121765e-06 0.0 0.0 0.0 0.0
1.175 0.12127337604761124 -1.0892143249511719 -9.676441550254822e-06 -7.869675755500793e-06 0.0 0.0 0.0 0.0
1.176 0.12328974157571793 -1.086100697517395 1.8048100173473358e-05 3.975816071033478e-06 0.0 0.0 0.0 0.0
1.177 0.11909101903438568 -1.0877089500427246 -2.1634623408317566e-06 -2.1682120859622955e-05 0.0 0.0 0.0 0.0
1.178 0.11747344583272934 -1.0880346298217773 2.3573637008666992e-05 -2.6071444153785706e-05 0.0 0.0 0.0 0.0
1.179 0.1185978576540947 -1.0873924493789673 -1.2246891856193542e-05 -3.645569086074829e-05 0.0 0.0 0.0 0.0
1.18 0.11579710245132446 -1.086516261100769 -7.895752787590027e-06 -1.3160519301891327e-05 0.0 0.0 0.0 0.0
1.181 0.11503726989030838 -1.0858994722366333 -6.813555955886841e-06 -2.1836720407009125e-05 0.0 0.0 0.0 0.0
1.182 0.11263485997915268 -1.085802435874939 8.024275302886963e-06 -2.333894371986389e-06 0.0 0.0 0.0 0.0
1.183 0.1130569651722908 -1.0851787328720093 -7.361173629760742e-06 2.137385308742523e-06 0.0 0.0 0.0 0.0
1.184 0.11052476614713669 -1.085557222366333 1.588929444551468e-05 -1.3941898941993713e-05 0.0 0.0 0.0 0.0
1.185 0.1119876354932785 -1.0845240354537964 2.8386712074279785e-06 -1.2120231986045837e-05 0.0 0.0 0.0 0.0
1.186 0.10676504671573639 -1.084290623664856 -3.536045551300049e-05 -1.4465302228927612e-05 0.0 0.0 0.0 0.0
1.187 0.10750168561935425 -1.0835940837860107 -1.8242746591567993e-05 -2.1783635020256042e-05 0.0 0.0 0.0 0.0
1.188 0.10577201098203659 -1.0830044746398926 -9.049661457538605e-06 -7.119029760360718e-06 0.0 0.0 0.0 0.0
1.189 0.10360921174287796 -1.0829142332077026 -1.5339814126491547e-05 4.147179424762726e-06 0.0 0.0 0.0 0.0
1.19 0.1016368493437767 -1.0823884010314941 -2.0703300833702087e-05 -2.9452145099639893e-05 0.0 0.0 0.0 0.0
1.191 0.1011434867978096 -1.0818963050842285 -1.1381693184375763e-05 -2.7759000658988953e-05 0.0 0.0 0.0 0.0
1.192 0.09759093075990677 -1.0809612274169922 -1.2359581887722015e-05 -1.529790461063385e-05 0.0 0.0 0.0 0.0
1.193 0.09834351390600204 -1.081072211265564 -1.2550503015518188e-05 9.150244295597076e-06 0.0 0.0 0.0 0.0
1.194 0.0976153165102005 -1.0805535316467285 -3.8053840398788452e-06 -1.0337680578231812e-05 0.0 0.0 0.0 0.0
1.195 0.09557110071182251 -1.0790737867355347 -3.199838101863861e-05 -2.2443942725658417e-05 0.0 0.0 0.0 0.0
1.196 0.0926167219877243 -1.0794298648834229 1.9632279872894287e-06 1.5081837773323059e-05 0.0 0.0 0.0 0.0
1.197 0.09162668138742447 -1.078352451324463 -1.6784295439720154e-05 3.876164555549622e-06 0.0 0.0 0.0 0.0
1.198 0.0913727656006813 -1.0784367322921753 -3.589317202568054e-05 2.4701468646526337e-05 0.0 0.0 0.0 0.0
1.199 0.0888931006193161 -1.0779964923858643 9.587034583091736e-06 -1.5055760741233826e-05 0.0 0.0 0.0 0.0
1.2 0.0890156626701355 -1.0774248838424683 -3.161933273077011e-05 4.87547367811203e-06 0.0 0.0 0.0 0.0
1.201 0.08694305270910263 -1.0765173435211182 -2.0248815417289734e-05 1.1263415217399597e-05 0.0 0.0 0.0 0.0
1.202 0.08651997894048691 -1.0766345262527466 -1.9962899386882782e-05 -2.1886080503463745e-07 0.0 0.0 0.0 0.0
1.203 0.08581976592540741 -1.075066328048706 -1.8174760043621063e-05 -2.429261803627014e-05 0.0 0.0 0.0 0.0
1.204 0.08362224698066711 -1.0752785205841064 -2.542976289987564e-05 5.1138922572135925e-06 0.0 0.0 0.0 0.0
1.205 0.08064789324998856 -1.0754177570343018 -2.2513791918754578e-05 -4.8102810978889465e-06 0.0 0.0 0.0 0.0
1.206 0.08053827285766602 -1.0741161108016968 -2.8345733880996704e-05 -8.341856300830841e-06 0.0 0.0 0.0 0.0
1.207 0.07974700629711151 -1.0734665393829346 -9.185634553432465e-06 1.4495104551315308e-05 0.0 0.0 0.0 0.0
1.208 0.07866570353507996 -1.0725901126861572 -2.6738271117210388e-05 -1.2224540114402771e-05 0.0 0.0 0.0 0.0
1.209 0.07741501182317734 -1.0726217031478882 -1.0047107934951782e-05 -1.2475065886974335e-05 0.0 0.0 0.0 0.0
1.21 0.07549287378787994 -1.0716378688812256 -2.612173557281494e-05 -4.936009645462036e-08 0.0 0.0 0.0 0.0
1.211 0.07416775822639465 -1.0707201957702637 -2.2273510694503784e-05 1.2359581887722015e-05 0.0 0.0 0.0 0.0
1.212 0.07394088059663773 -1.06937575340271 -2.9462389647960663e-05 -2.384185791015625e-07 0.0 0.0 0.0 0.0
1.213 0.07018657773733139 -1.0707895755767822 -2.93804332613945e-05 4.889443516731262e-07 0.0 0.0 0.0 0.0
1.214 0.06877642124891281 -1.0701720714569092 -2.0774081349372864e-05 1.656077802181244e-05 0.0 0.0 0.0 0.0
1.215 0.06843189150094986 -1.0694903135299683 -1.807231456041336e-05 6.732530891895294e-06 0.0 0.0 0.0 0.0
1.216 0.0654103010892868 -1.0680725574493408 -2.5373883545398712e-05 -8.342787623405457e-06 0.0 0.0 0.0 0.0
1.217 0.0669884905219078 -1.0676624774932861 -4.427507519721985e-06 -2.6458874344825745e-06 0.0 0.0 0.0 0.0
1.218 0.06371986865997314 -1.0675073862075806 -1.936592161655426e-05 1.8415972590446472e-05 0.0 0.0 0.0 0.0
1.219 0.06266863644123077 -1.0669203996658325 -1.71661376953125e-05 2.8221867978572845e-05 0.0 0.0 0.0 0.0
1.22 0.060780495405197144 -1.066346287727356 1.4854595065116882e-06 1.749955117702484e-05 0.0 0.0 0.0 0.0
1.221 0.061391111463308334 -1.0648972988128662 -3.0992552638053894e-05 9.359791874885559e-07 0.0 0.0 0.0 0.0
1.222 0.057214923202991486 -1.0651652812957764 -1.7637386918067932e-05 4.789792001247406e-05 0.0 0.0 0.0 0.0
1.223 0.056874584406614304 -1.0641019344329834 2.169981598854065e-07 -1.7937272787094116e-06 0.0 0.0 0.0 0.0
1.224 0.057467155158519745 -1.0631734132766724 -1.756753772497177e-05 4.827044904232025e-06 0.0 0.0 0.0 0.0
1.225 0.05572438985109329 -1.0636017322540283 -9.577721357345581e-06 1.1473894119262695e-06 0.0 0.0 0.0 0.0
1.226 0.05340927094221115 -1.0613665580749512 -1.4302320778369904e-05 -1.2721866369247437e-05 0.0 0.0 0.0 0.0
1.227 0.05118969827890396 -1.062142014503479 -3.195274621248245e-05 2.7567148208618164e-06 0.0 0.0 0.0 0.0
1.228 0.05071137472987175 -1.0619611740112305 -1.7391517758369446e-05 5.9138983488082886e-06 0.0 0.0 0.0 0.0
1.229 0.05024377256631851 -1.0601487159729004 4.8354268074035645e-06 9.566545486450195e-06 0.0 0.0 0.0 0.0
1.23 0.046995218843221664 -1.0599825382232666 -3.977678716182709e-06 5.16790896654129e-06 0.0 0.0 0.0 0.0
1.231 0.04714071378111839 -1.0600112676620483 8.919276297092438e-06 1.7912127077579498e-05 0.0 0.0 0.0 0.0
1.232 0.04755818471312523 -1.0579193830490112 -2.8049573302268982e-05 3.2475218176841736e-06 0.0 0.0 0.0 0.0
1.233 0.04370947182178497 -1.05716073513031 -1.1654570698738098e-05 -5.866400897502899e-06 0.0 0.0 0.0 0.0
1.234 0.04264871031045914 -1.0573841333389282 -2.7013011276721954e-05 2.8219074010849e-07 0.0 0.0 0.0 0.0
1.235 0.042390916496515274 -1.0561631917953491 -2.510007470846176e-05 9.63546335697174e-06 0.0 0.0 0.0 0.0
1.236 0.040418315678834915 -1.055752158164978 -2.5511719286441803e-05 -3.3313408493995667e-06 0.0 0.0 0.0 0.0
1.237 0.03890024125576019 -1.0548609495162964 -1.2111850082874298e-05 2.4293549358844757e-05 0.0 0.0 0.0 0.0
1.238 0.038984499871730804 -1.0538419485092163 -2.283696085214615e-05 1.728348433971405e-05 0.0 0.0 0.0 0.0
1.239 0.03483027592301369 -1.0534443855285645 -3.496650606393814e-05 1.1671334505081177e-05 0.0 0.0 0.0 0.0
1.24 0.0369049571454525 -1.0528998374938965 -1.8835999071598053e-05 1.1567026376724243e-05 0.0 0.0 0.0 0.0
1.241 0.035025496035814285 -1.0511904954910278 -1.2182630598545074e-05 1.8741004168987274e-05 0.0 0.0 0.0 0.0
1.242 0.03193741664290428 -1.0503495931625366 -7.10412859916687e-06 4.172325134277344e-07 0.0 0.0 0.0 0.0
1.243 0.03218061476945877 -1.049220085144043 -1.8227845430374146e-05 3.0664727091789246e-05 0.0 0.0 0.0 0.0
1.244 0.03229936957359314 -1.0483644008636475 1.21239572763443e-05 1.9138678908348083e-06 0.0 0.0 0.0 0.0
1.245 0.02860010229051113 -1.0471526384353638 5.997717380523682e-06 4.6362169086933136e-05 0.0 0.0 0.0 0.0
1.246 0.028440797701478004 -1.0461640357971191 1.5664845705032349e-06 9.0012326836586e-06 0.0 0.0 0.0 0.0
1.247 0.026760302484035492 -1.045149326324463 -8.915551006793976e-06 1.6060657799243927e-05 0.0 0.0 0.0 0.0
1.248 0.024187708273530006 -1.044061541557312 1.0617077350616455e-05 3.531854599714279e-05 0.0 0.0 0.0 0.0
1.249 0.02598317340016365 -1.041823387145996 1.6264617443084717e-05 -7.394701242446899e-07 0.0 0.0 0.0 0.0
1.25 0.023056579753756523 -1.0412631034851074 1.2357719242572784e-05 2.488214522600174e-05 0.0 0.0 0.0 0.0
1.251 0.025099266320466995 -1.0414097309112549 1.7830170691013336e-05 2.5085173547267914e-05 0.0 0.0 0.0 0.0
1.252 0.026195626705884933 -1.039531946182251 2.812407910823822e-05 5.162321031093597e-06 0.0 0.0 0.0 0.0
1.253 0.02514687180519104 -1.0396106243133545 2.406444400548935e-05 -2.668239176273346e-06 0.0 0.0 0.0 0.0
1.254 0.023442111909389496 -1.0404001474380493 1.3347715139389038e-05 2.2165477275848389e-07 0.0 0.0 0.0 0.0
1.255 0.0229642353951931 -1.038771629333496 1.132860779762268e-05 3.0640512704849243e-06 0.0 0.0 0.0 0.0
1.256 0.023115593940019608 -1.0400983095169067 -3.0491501092910767e-06 -4.38932329416275e-06 0.0 0.0 0.0 0.0
1.257 0.02160217985510826 -1.0392208099365234 -7.896684110164642e-06 2.0687468349933624e-05 0.0 0.0 0.0 0.0
1.258 0.020654886960983276 -1.0387030839920044 2.0090490579605103e-05 -1.30385160446167e-08 0.0 0.0 0.0 0.0
1.259 0.019563205540180206 -1.0395565032958984 3.725290298461914e-06 1.7415732145309448e-07 0.0 0.0 0.0 0.0
1.26 0.020949674770236015 -1.0394717454910278 -1.701340079307556e-05 3.7383288145065308e-06 0.0 0.0 0.0 0.0
1.261 0.016505947336554527 -1.037850260734558 -2.3944303393363953e-06 -1.5830621123313904e-05 0.0 0.0 0.0 0.0
1.262 0.015935508534312248 -1.0387427806854248 -2.6506371796131134e-05 -1.1851079761981964e-05 0.0 0.0 0.0 0.0
1.263 0.01567939482629299 -1.038216233253479 -4.762783646583557e-06 2.299342304468155e-05 0.0 0.0 0.0 0.0
1.264 0.01309035625308752 -1.0365753173828125 2.712942659854889e-06 1.0584481060504913e-05 0.0 0.0 0.0 0.0
1.265 0.010385905392467976 -1.0370413064956665 -1.3032928109169006e-05 2.341531217098236e-05 0.0 0.0 0.0 0.0
1.266 0.010423474945127964 -1.0361359119415283 -1.2814067304134369e-05 1.1688098311424255e-05 0.0 0.0 0.0 0.0
1.267 0.009526788257062435 -1.0355408191680908 -1.6641803085803986e-05 5.019828677177429e-06 0.0 0.0 0.0 0.0
1.268 0.00868507195264101 -1.0355876684188843 -1.1103227734565735e-05 -1.736171543598175e-05 0.0 0.0 0.0 0.0
1.269 0.008453380316495895 -1.0347503423690796 -3.446824848651886e-06 3.5259872674942017e-06 0.0 0.0 0.0 0.0
1.27 0.005598974414169788 -1.0333483219146729 7.66851007938385e-06 -2.7252361178398132e-05 0.0 0.0 0.0 0.0
1.271 0.006605984643101692 -1.0335335731506348 2.8585083782672882e-05 -2.0532868802547455e-05 0.0 0.0 0.0 0.0
1.272 0.004875571466982365 -1.0327167510986328 -1.1304393410682678e-05 -2.1978281438350677e-05 0.0 0.0 0.0 0.0
1.273 0.002994800917804241 -1.0313911437988281 3.577210009098053e-06 -7.95070081949234e-06 0.0 0.0 0.0 0.0
1.274 0.0018899254500865936 -1.0318739414215088 6.690621376037598e-06 2.927146852016449e-06 0.0 0.0 0.0 0.0
1.275 0.0014898572117090225 -1.031002402305603 -2.76295468211174e-05 1.3201497495174408e-05 0.0 0.0 0.0 0.0
1.276 0.0020438292995095253 -1.029928207397461 -6.899237632751465e-06 -2.059154212474823e-05 0.0 0.0 0.0 0.0
1.277 -0.0019536977633833885 -1.0298619270324707 -5.8943405747413635e-06 1.5515834093093872e-06 0.0 0.0 0.0 0.0
1.278 -0.0014468766748905182 -1.0287222862243652 -3.5976991057395935e-06 -3.2605603337287903e-06 0.0 0.0 0.0 0.0
1.279 -0.004629582166671753 -1.0274945497512817 -8.911825716495514e-06 3.160908818244934e-06 0.0 0.0 0.0 0.0
1.28 -0.005748199298977852 -1.0269285440444946 1.5040859580039978e-06 -2.2044405341148376e-06 0.0 0.0 0.0 0.0
1.281 -0.005711172707378864 -1.0273313522338867 3.4226104617118835e-06 -3.4132972359657288e-06 0.0 0.0 0.0 0.0
1.282 -0.00807479489594698 -1.0262157917022705 -7.688067853450775e-06 -1.0828487575054169e-05 0.0 0.0 0.0 0.0
1.283 -0.008829508908092976 -1.0261160135269165 -1.4994293451309204e-07 1.1850148439407349e-05 0.0 0.0 0.0 0.0
1.284 -0.008853576146066189 -1.0246154069900513 -3.709644079208374e-05 -4.2496249079704285e-06 0.0 0.0 0.0 0.0
1.285 -0.009994441643357277 -1.0241152048110962 -2.4382025003433228e-06 7.733702659606934e-06 0.0 0.0 0.0 0.0
1.286 -0.011040129698812962 -1.0241836309432983 -8.726492524147034e-06 1.5215948224067688e-05 0.0 0.0 0.0 0.0
1.287 -0.013247426599264145 -1.0233204364776611 -3.21120023727417e-06 1.583155244588852e-05 0.0 0.0 0.0 0.0
1.288 -0.014058117754757404 -1.0220519304275513 -1.548510044813156e-05 3.9441511034965515e-06 0.0 0.0 0.0 0.0
1.289 -0.01418409962207079 -1.0219039916992188 8.783303201198578e-06 2.5753863155841827e-05 0.0 0.0 0.0 0.0
1.29 -0.015096061863005161 -1.0204050540924072 -1.5362165868282318e-05 2.2858381271362305e-05 0.0 0.0 0.0 0.0
1.291 -0.017555855214595795 -1.0203455686569214 -1.649279147386551e-05 3.835652023553848e-05 0.0 0.0 0.0 0.0
1.292 -0.01602286659181118 -1.0192049741744995 -3.079138696193695e-05 8.969567716121674e-06 0.0 0.0 0.0 0.0
1.293 -0.018562965095043182 -1.0184322595596313 2.1923333406448364e-06 1.2811273336410522e-05 0.0 0.0 0.0 0.0
1.294 -0.01956881955265999 -1.0176080465316772 -1.932494342327118e-06 -9.369105100631714e-07 0.0 0.0 0.0 0.0
1.295 -0.019534796476364136 -1.0168204307556152 1.6866251826286316e-06 2.8044916689395905e-05 0.0 0.0 0.0 0.0
1.296 -0.02262347936630249 -1.0151541233062744 -2.5280751287937164e-05 1.0881572961807251e-05 0.0 0.0 0.0 0.0
1.297 -0.02450917847454548 -1.0160107612609863 -2.2875145077705383e-05 -1.3981945812702179e-05 0.0 0.0 0.0 0.0
1.298 -0.02390981838107109 -1.0150421857833862 -1.1166557669639587e-06 3.505591303110123e-05 0.0 0.0 0.0 0.0
1.299 -0.02607792429625988 -1.0146620273590088 -9.964220225811005e-06 1.3463199138641357e-05 0.0 0.0 0.0 0.0
1.3 -0.02443973533809185 -1.0132490396499634 -2.07582488656044e-05 1.296214759349823e-05 0.0 0.0 0.0 0.0
1.301 -0.026664357632398605 -1.012010097503662 1.4885328710079193e-05 -4.970468580722809e-06 0.0 0.0 0.0 0.0
1.302 -0.028323642909526825 -1.011160135269165 -6.9821253418922424e-06 1.31949782371521e-05 0.0 0.0 0.0 0.0
1.303 -0.02697395160794258 -1.0109773874282837 -1.666322350502014e-05 -1.913495361804962e-05 0.0 0.0 0.0 0.0
1.304 -0.02933993749320507 -1.0098830461502075 1.4641322195529938e-05 -1.6289763152599335e-05 0.0 0.0 0.0 0.0
1.305 -0.029572006314992905 -1.0098891258239746 -1.925695687532425e-05 1.9120052456855774e-05 0.0 0.0 0.0 0.0
1.306 -0.031093603000044823 -1.0092796087265015 1.1285766959190369e-05 7.786788046360016e-06 0.0 0.0 0.0 0.0
1.307 -0.0344504676759243 -1.0083664655685425 1.0184012353420258e-05 2.104043960571289e-05 0.0 0.0 0.0 0.0
1.308 -0.034026920795440674 -1.0089770555496216 -1.2518838047981262e-05 2.6132911443710327e-05 0.0 0.0 0.0 0.0
1.309 -0.03456427901983261 -1.0068098306655884 -3.884546458721161e-05 5.796551704406738e-06 0.0 0.0 0.0 0.0
1.31 -0.0363704189658165 -1.0061789751052856 -1.2717209756374359e-05 7.795169949531555e-06 0.0 0.0 0.0 0.0
1.311 -0.03646820783615112 -1.0062811374664307 2.451334148645401e-05 -7.370486855506897e-06 0.0 0.0 0.0 0.0
1.312 -0.03652524948120117 -1.00442636013031 1.1399388313293457e-06 2.4724751710891724e-05 0.0 0.0 0.0 0.0
1.313 -0.038954734802246094 -1.003618836402893 1.7637386918067932e-05 -4.63239848613739e-06 0.0 0.0 0.0 0.0
1.314 -0.038926415145397186 -1.0028437376022339 -2.5097280740737915e-05 -1.0042451322078705e-05 0.0 0.0 0.0 0.0
1.315 -0.039595358073711395 -1.0021203756332397 1.2228265404701233e-06 1.001451164484024e-05 0.0 0.0 0.0 0.0
1.316 -0.04070306196808815 -1.0018773078918457 3.949739038944244e-06 3.064330667257309e-05 0.0 0.0 0.0 0.0
1.317 -0.04256610944867134 -1.0008037090301514 -5.98561018705368e-06 1.3034790754318237e-05 0.0 0.0 0.0 0.0
1.318 -0.04186670109629631 -1.0004124641418457 3.5455450415611267e-06 6.854534149169922e-07 0.0 0.0 0.0 0.0
1.319 -0.04307403415441513 -0.9999189972877502 2.409704029560089e-05 5.556270480155945e-06 0.0 0.0 0.0 0.0
1.32 -0.044570133090019226 -0.9990437626838684 -1.6701407730579376e-05 -8.102506399154663e-06 0.0 0.0 0.0 0.0
1.321 -0.045668743550777435 -0.9987061619758606 8.503906428813934e-06 2.678297460079193e-05 0.0 0.0 0.0 0.0
1.322 -0.047565460205078125 -0.9981424808502197 1.5832483768463135e-08 -6.884336471557617e-06 0.0 0.0 0.0 0.0
1.323 -0.04847186431288719 -0.9973806142807007 5.085021257400513e-07 -5.19677996635437e-07 0.0 0.0 0.0 0.0
1.324 -0.04950851947069168 -0.996004581451416 1.5784986317157745e-05 -7.635913789272308e-06 0.0 0.0 0.0 0.0
1.325 -0.050358571112155914 -0.9951717853546143 1.8366612493991852e-05 1.8087215721607208e-05 0.0 0.0 0.0 0.0
1.326 -0.05202356353402138 -0.993981659412384 9.66247171163559e-06 -2.016499638557434e-05 0.0 0.0 0.0 0.0
1.327 -0.05118488892912865 -0.994094967842102 7.766298949718475e-06 4.824250936508179e-06 0.0 0.0 0.0 0.0
1.328 -0.052991341799497604 -0.9927507042884827 6.685033440589905e-06 -3.6954879760742188e-06 0.0 0.0 0.0 0.0
1.329 -0.053993646055459976 -0.9932889342308044 4.607252776622772e-06 3.4510158002376556e-05 0.0 0.0 0.0 0.0
1.33 -0.05422237887978554 -0.9915058016777039 1.7629936337471008e-06 -8.288770914077759e-07 0.0 0.0 0.0 0.0
1.331 -0.05580496788024902 -0.991560161113739 1.1981464922428131e-05 1.2310221791267395e-05 0.0 0.0 0.0 0.0
1.332 -0.052504222840070724 -0.9894341230392456 3.689900040626526e-06 -1.642853021621704e-06 0.0 0.0 0.0 0.0
1.333 -0.05589522421360016 -0.9900292754173279 -8.326955139636993e-06 -1.2126751244068146e-05 0.0 0.0 0.0 0.0
1.334 -0.058988217264413834 -0.9882531762123108 -1.0614283382892609e-05 -2.1583400666713715e-05 0.0 0.0 0.0 0.0
1.335 -0.056328073143959045 -0.9877933859825134 1.2764707207679749e-05 1.27498060464859e-06 0.0 0.0 0.0 0.0
1.336 -0.06031693518161774 -0.9872450232505798 1.0526739060878754e-05 6.087124347686768e-06 0.0 0.0 0.0 0.0
1.337 -0.0608818493783474 -0.9866726398468018 2.0927749574184418e-05 -2.0755454897880554e-05 0.0 0.0 0.0 0.0
1.338 -0.06282635033130646 -0.9852909445762634 -2.2598542273044586e-05 -1.8950551748275757e-05 0.0 0.0 0.0 0.0
1.339 -0.06201376020908356 -0.9848326444625854 1.0844320058822632e-05 1.603737473487854e-05 0.0 0.0 0.0 0.0
1.34 -0.06471645087003708 -0.9842680096626282 8.330680429935455e-06 -1.0224059224128723e-05 0.0 0.0 0.0 0.0
1.341 -0.06411927938461304 -0.9827259182929993 1.2606382369995117e-05 -3.768131136894226e-06 0.0 0.0 0.0 0.0
1.342 -0.06258544325828552 -0.9825338125228882 1.938082277774811e-06 1.2132339179515839e-05 0.0 0.0 0.0 0.0
1.343 -0.06602440774440765 -0.9821749329566956 1.6316771507263184e-05 8.098781108856201e-06 0.0 0.0 0.0 0.0
1.344 -0.06500236690044403 -0.9810118675231934 2.6794150471687317e-06 1.862645149230957e-07 0.0 0.0 0.0 0.0
1.345 -0.06581897288560867 -0.9807077050209045 1.2121163308620453e-05 -3.4924596548080444e-07 0.0 0.0 0.0 0.0
1.346 -0.06701210141181946 -0.980722963809967 1.8581748008728027e-05 1.0889023542404175e-05 0.0 0.0 0.0 0.0
1.347 -0.06769683957099915 -0.9787732362747192 1.517031341791153e-05 -7.914379239082336e-06 0.0 0.0 0.0 0.0
1.348 -0.0704745277762413 -0.9781747460365295 1.893565058708191e-05 9.004957973957062e-06 0.0 0.0 0.0 0.0
1.349 -0.07030485570430756 -0.9784229397773743 1.040380448102951e-05 -7.4962154030799866e-06 0.0 0.0 0.0 0.0
1.35 -0.07031816244125366 -0.9772346019744873 -1.4683231711387634e-05 9.173527359962463e-06 0.0 0.0 0.0 0.0
1.351 -0.07178207486867905 -0.976683497428894 -9.519048035144806e-06 -1.4005228877067566e-05 0.0 0.0 0.0 0.0
1.352 -0.07447295635938644 -0.976140022277832 7.461756467819214e-06 -8.301809430122375e-06 0.0 0.0 0.0 0.0
1.353 -0.07392262667417526 -0.9734905362129211 2.4295412003993988e-05 -2.7056783437728882e-05 0.0 0.0 0.0 0.0
1.354 -0.07578623294830322 -0.9737996459007263 -2.1457672119140625e-06 -1.6441568732261658e-05 0.0 0.0 0.0 0.0
1.355 -0.07565672695636749 -0.9735520482063293 9.034760296344757e-06 -2.2110529243946075e-05 0.0 0.0 0.0 0.0
1.356 -0.07715907692909241 -0.9729912877082825 -1.7270445823669434e-05 -1.9492581486701965e-06 0.0 0.0 0.0 0.0
1.357 -0.07688432186841965 -0.9724466800689697 8.299015462398529e-06 -1.1644326150417328e-05 0.0 0.0 0.0 0.0
1.358 -0.07831373065710068 -0.9707559943199158 -3.111641854047775e-05 1.0907649993896484e-05 0.0 0.0 0.0 0.0
1.359 -0.0774930939078331 -0.9709222316741943 -2.430751919746399e-07 -9.32253897190094e-07 0.0 0.0 0.0 0.0
1.36 -0.08041592687368393 -0.9699503779411316 -5.07943332195282e-06 -2.0489096641540527e-08 0.0 0.0 0.0 0.0
1.361 -0.07979226112365723 -0.9688839912414551 -3.55355441570282e-05 5.32250851392746e-06 0.0 0.0 0.0 0.0
1.362 -0.0822431743144989 -0.9681321978569031 -2.1558254957199097e-05 -2.4470500648021698e-05 0.0 0.0 0.0 0.0
1.363 -0.08153104782104492 -0.9677426815032959 -1.0464340448379517e-05 3.4961849451065063e-06 0.0 0.0 0.0 0.0
1.364 -0.08381537348031998 -0.9668663144111633 1.708604395389557e-05 -6.683170795440674e-06 0.0 0.0 0.0 0.0
1.365 -0.08424925059080124 -0.9666380882263184 -1.6652047634124756e-06 -3.149546682834625e-05 0.0 0.0 0.0 0.0
1.366 -0.08393349498510361 -0.9652113318443298 1.100730150938034e-05 -1.416727900505066e-05 0.0 0.0 0.0 0.0
1.367 -0.08149237185716629 -0.9652405381202698 -3.888271749019623e-06 -8.431263267993927e-06 0.0 0.0 0.0 0.0
1.368 -0.0878145769238472 -0.9639632701873779 -1.1039897799491882e-05 1.5370547771453857e-05 0.0 0.0 0.0 0.0
1.369 -0.08497490733861923 -0.963337242603302 -4.3157488107681274e-06 3.1329691410064697e-06 0.0 0.0 0.0 0.0
1.37 -0.09050430357456207 -0.9625575542449951 2.2221356630325317e-06 -2.3628585040569305e-05 0.0 0.0 0.0 0.0
1.371 -0.0862497091293335 -0.9622814655303955 -5.7853758335113525e-06 2.0870938897132874e-06 0.0 0.0 0.0 0.0
1.372 -0.0902162492275238 -0.9612061977386475 -9.406358003616333e-06 -2.2181309759616852e-05 0.0 0.0 0.0 0.0
1.373 -0.08887848258018494 -0.9611222743988037 -1.9101426005363464e-05 -2.5541521608829498e-05 0.0 0.0 0.0 0.0
1.374 -0.09081774950027466 -0.959675669670105 -3.693625330924988e-06 8.14441591501236e-06 0.0 0.0 0.0 0.0
1.375 -0.0917099192738533 -0.9591507315635681 -1.7154961824417114e-06 -8.557923138141632e-06 0.0 0.0 0.0 0.0
1.376 -0.09130091965198517 -0.9582823514938354 -1.5079043805599213e-05 -2.4918466806411743e-05 0.0 0.0 0.0 0.0
1.377 -0.09145595133304596 -0.9579683542251587 -4.049297422170639e-05 1.2370757758617401e-05 0.0 0.0 0.0 0.0
1.378 -0.09476973116397858 -0.956627368927002 -9.096227586269379e-06 1.2997537851333618e-05 0.0 0.0 0.0 0.0
1.379 -0.09315315634012222 -0.9564325213432312 -3.7894584238529205e-05 -5.389563739299774e-06 0.0 0.0 0.0 0.0
1.38 -0.09635145962238312 -0.9552664160728455 -3.493018448352814e-05 3.894791007041931e-06 0.0 0.0 0.0 0.0
1.381 -0.09709826111793518 -0.9549006819725037 -6.59748911857605e-06 -2.7159228920936584e-05 0.0 0.0 0.0 0.0
1.382 -0.09584946185350418 -0.954662024974823 -2.456270158290863e-05 -1.0970048606395721e-05 0.0 0.0 0.0 0.0
1.383 -0.09873794764280319 -0.9534310102462769 1.6102567315101624e-06 -9.139999747276306e-06 0.0 0.0 0.0 0.0
1.384 -0.0989106073975563 -0.9527949690818787 -2.3048371076583862e-05 -6.279908120632172e-06 0.0 0.0 0.0 0.0
1.385 -0.09802087396383286 -0.9518008828163147 -1.2616626918315887e-05 -1.7126090824604034e-05 0.0 0.0 0.0 0.0
1.386 -0.0990285724401474 -0.9518893957138062 -2.257898449897766e-05 2.2387132048606873e-05 0.0 0.0 0.0 0.0
1.387 -0.10115691274404526 -0.9507643580436707 -1.5487894415855408e-05 -1.6538426280021667e-05 0.0 0.0 0.0 0.0
1.388 -0.10158640146255493 -0.950127124786377 -2.621673047542572e-06 -1.7383135855197906e-05 0.0 0.0 0.0 0.0
1.389 -0.10182834416627884 -0.9494926333427429 -2.028699964284897e-05 1.947302371263504e-05 0.0 0.0 0.0 0.0
1.39 -0.10444486141204834 -0.9482656121253967 -1.0309740900993347e-06 -6.484799087047577e-06 0.0 0.0 0.0 0.0
1.391 -0.10321037471294403 -0.9478467702865601 -8.814036846160889e-06 1.719687134027481e-05 0.0 0.0 0.0 0.0
1.392 -0.10460714995861053 -0.9464332461357117 -2.3066066205501556e-05 -6.687827408313751e-06 0.0 0.0 0.0 0.0
1.393 -0.10801087319850922 -0.9455338716506958 -1.2728385627269745e-05 -7.459893822669983e-07 0.0 0.0 0.0 0.0
1.394 -0.10536239296197891 -0.9462128281593323 -6.752088665962219e-07 1.5786848962306976e-05 0.0 0.0 0.0 0.0
1.395 -0.10474277287721634 -0.944705605506897 -2.2991560399532318e-05 -6.265006959438324e-06 0.0 0.0 0.0 0.0
1.396 -0.10830457508563995 -0.9441241025924683 -2.0357780158519745e-05 -8.172355592250824e-06 0.0 0.0 0.0 0.0
1.397 -0.10737574845552444 -0.9439142346382141 -1.452956348657608e-05 -6.668269634246826e-07 0.0 0.0 0.0 0.0
1.398 -0.10890664905309677 -0.9423591494560242 5.8766454458236694e-06 5.131587386131287e-07 0.0 0.0 0.0 0.0
1.399 -0.1117909774184227 -0.9418163299560547 -8.626841008663177e-06 6.165355443954468e-07 0.0 0.0 0.0 0.0
1.4 -0.10959111154079437 -0.9413778185844421 -2.0218081772327423e-05 -2.8888694941997528e-05 0.0 0.0 0.0 0.0
1.401 -0.11156706511974335 -0.9415315389633179 -1.38087198138237e-05 4.338100552558899e-06 0.0 0.0 0.0 0.0
1.402 -0.11246076971292496 -0.94023597240448 -1.7855316400527954e-05 -2.0638108253479004e-06 0.0 0.0 0.0 0.0
1.403 -0.1138819083571434 -0.9392443299293518 -3.818422555923462e-08 1.99759379029274e-05 0.0 0.0 0.0 0.0
1.404 -0.11239384114742279 -0.9381669759750366 -1.3257376849651337e-05 -4.565343260765076e-06 0.0 0.0 0.0 0.0
1.405 -0.11588381230831146 -0.9377599358558655 -1.1739321053028107e-05 1.6869977116584778e-05 0.0 0.0 0.0 0.0
1.406 -0.11447025090456009 -0.9377842545509338 -3.825780004262924e-05 -1.1897645890712738e-05 0.0 0.0 0.0 0.0
1.407 -0.11550317704677582 -0.936518132686615 -3.61371785402298e-05 -5.2461400628089905e-06 0.0 0.0 0.0 0.0
1.408 -0.11939467489719391 -0.9358654022216797 1.4137476682662964e-06 -6.798654794692993e-06 0.0 0.0 0.0 0.0
1.409 -0.11600220948457718 -0.9358925223350525 -1.5296973288059235e-05 9.06083732843399e-06 0.0 0.0 0.0 0.0
1.41 -0.11722438037395477 -0.9339457154273987 -1.3123266398906708e-05 3.138650208711624e-05 0.0 0.0 0.0 0.0
1.411 -0.120515376329422 -0.9344212412834167 -1.605600118637085e-05 -3.7299469113349915e-06 0.0 0.0 0.0 0.0
1.412 -0.11702877283096313 -0.9332152605056763 -2.085510641336441e-05 4.270114004611969e-06 0.0 0.0 0.0 0.0
1.413 -0.12074317038059235 -0.9317213296890259 -3.411155194044113e-05 3.420468419790268e-05 0.0 0.0 0.0 0.0
1.414 -0.12165341526269913 -0.9315330386161804 2.5155022740364075e-06 -4.887580871582031e-06 0.0 0.0 0.0 0.0
1.415 -0.12194649130105972 -0.9310736060142517 3.851018846035004e-06 1.23586505651474e-06 0.0 0.0 0.0 0.0
1.416 -0.1247444599866867 -0.930437445640564 -1.5320256352424622e-06 2.5161541998386383e-05 0.0 0.0 0.0 0.0
1.417 -0.12323515862226486 -0.9296848177909851 1.4000572264194489e-05 7.1711838245391846e-06 0.0 0.0 0.0 0.0
1.418 -0.1232159435749054 -0.9281078577041626 -1.4582648873329163e-05 2.3677945137023926e-05 0.0 0.0 0.0 0.0
1.419 -0.12536291778087616 -0.9283470511436462 -1.9204802811145782e-05 1.5626661479473114e-05 0.0 0.0 0.0 0.0
1.42 -0.12580539286136627 -0.9274060726165771 -8.003786206245422e-06 1.8477439880371094e-05 0.0 0.0 0.0 0.0
1.421 -0.1248759850859642 -0.9268353581428528 -7.268041372299194e-06 3.809109330177307e-06 0.0 0.0 0.0 0.0
1.422 -0.12936490774154663 -0.9256077408790588 4.936009645462036e-07 1.5797093510627747e-05 0.0 0.0 0.0 0.0
1.423 -0.1271522343158722 -0.9262731671333313 -1.9021332263946533e-05 1.1398456990718842e-05 0.0 0.0 0.0 0.0
1.424 -0.12830355763435364 -0.9239224791526794 -1.789722591638565e-05 -7.983297109603882e-06 0.0 0.0 0.0 0.0
1.425 -0.13090163469314575 -0.9232722520828247 -9.299255907535553e-06 7.83521682024002e-06 0.0 0.0 0.0 0.0
1.426 -0.12575653195381165 -0.9245298504829407 -1.6495585441589355e-05 2.3148953914642334e-05 0.0 0.0 0.0 0.0
1.427 -0.13213010132312775 -0.9218262434005737 -1.9412487745285034e-05 1.0649673640727997e-05 0.0 0.0 0.0 0.0
1.428 -0.13233552873134613 -0.921643078327179 3.373250365257263e-06 1.0662712156772614e-05 0.0 0.0 0.0 0.0
1.429 -0.13087227940559387 -0.9210228323936462 -8.751638233661652e-06 1.135561615228653e-05 0.0 0.0 0.0 0.0
1.43 -0.13214419782161713 -0.920265793800354 -1.86283141374588e-05 1.5762634575366974e-05 0.0 0.0 0.0 0.0
1.431 -0.13589386641979218 -0.9196861982345581 -6.726942956447601e-06 6.183050572872162e-06 0.0 0.0 0.0 0.0
1.432 -0.13401904702186584 -0.9185091853141785 -8.02706927061081e-06 8.231028914451599e-06 0.0 0.0 0.0 0.0
1.433 -0.13628651201725006 -0.9175547361373901 -1.549534499645233e-05 8.082017302513123e-06 0.0 0.0 0.0 0.0
1.434 -0.1366196721792221 -0.9164928793907166 -1.5477649867534637e-05 2.0044855773448944e-05 0.0 0.0 0.0 0.0
1.435 -0.1359575390815735 -0.9162136912345886 -2.5251880288124084e-05 2.2415071725845337e-05 0.0 0.0 0.0 0.0
1.436 -0.13782036304473877 -0.9150943756103516 -1.5754252672195435e-05 1.6197562217712402e-05 0.0 0.0 0.0 0.0
1.437 -0.137455016374588 -0.9148471355438232 -1.099519431591034e-05 4.744064062833786e-05 0.0 0.0 0.0 0.0
1.438 -0.1403365135192871 -0.9116997122764587 -6.582587957382202e-06 4.00664284825325e-05 0.0 0.0 0.0 0.0
1.439 -0.14106228947639465 -0.9110927581787109 -3.7821009755134583e-06 1.738034188747406e-05 0.0 0.0 0.0 0.0
1.44 -0.14119058847427368 -0.9099719524383545 -7.227063179016113e-06 2.523045986890793e-05 0.0 0.0 0.0 0.0
1.441 -0.14032195508480072 -0.9089900851249695 -1.3824552297592163e-05 3.078673034906387e-05 0.0 0.0 0.0 0.0
1.442 -0.13948290050029755 -0.907998263835907 1.0925345122814178e-05 3.088265657424927e-05 0.0 0.0 0.0 0.0
1.443 -0.13871324062347412 -0.9067619442939758 2.639368176460266e-05 3.0385330319404602e-05 0.0 0.0 0.0 0.0
1.444 -0.1424710899591446 -0.9053542613983154 1.1146068572998047e-05 1.8338672816753387e-05 0.0 0.0 0.0 0.0
1.445 -0.14117994904518127 -0.904747486114502 8.723698556423187e-06 2.0430423319339752e-05 0.0 0.0 0.0 0.0
1.446 -0.13859789073467255 -0.90553218126297 1.224316656589508e-05 9.112991392612457e-06 0.0 0.0 0.0 0.0
1.447 -0.13985706865787506 -0.904472827911377 9.56561416387558e-06 6.224960088729858e-06 0.0 0.0 0.0 0.0
1.448 -0.13869594037532806 -0.9040473103523254 1.255422830581665e-06 2.6112422347068787e-05 0.0 0.0 0.0 0.0
1.449 -0.13970109820365906 -0.9039574861526489 2.024136483669281e-05 2.182554453611374e-05 0.0 0.0 0.0 0.0
1.45 -0.13973402976989746 -0.9043270945549011 1.848675310611725e-05 2.3663975298404694e-05 0.0 0.0 0.0 0.0
1.451 -0.1414984166622162 -0.9042601585388184 3.798864781856537e-06 -7.191672921180725e-06 0.0 0.0 0.0 0.0
1.452 -0.14303530752658844 -0.903497576713562 1.4212913811206818e-05 1.350603997707367e-05 0.0 0.0 0.0 0.0
1.453 -0.14262691140174866 -0.9043059945106506 2.8520822525024414e-05 1.4240853488445282e-05 0.0 0.0 0.0 0.0
1.454 -0.14442238211631775 -0.9040814638137817 -3.5567209124565125e-06 -1.2794509530067444e-05 0.0 0.0 0.0 0.0
1.455 -0.14423201978206635 -0.9051634073257446 -8.526258170604706e-06 1.759640872478485e-05 0.0 0.0 0.0 0.0
1.456 -0.14387516677379608 -0.904365599155426 -7.309950888156891e-06 2.948753535747528e-05 0.0 0.0 0.0 0.0
1.457 -0.1464034467935562 -0.9022594690322876 7.907859981060028e-06 -1.2822449207305908e-05 0.0 0.0 0.0 0.0
1.458 -0.14748430252075195 -0.9036008715629578 -8.568167686462402e-07 -5.67268580198288e-06 0.0 0.0 0.0 0.0
1.459 -0.14724405109882355 -0.9026395082473755 -2.019200474023819e-05 -1.5301629900932312e-06 0.0 0.0 0.0 0.0
1.46 -0.1470104306936264 -0.9017712473869324 1.4413148164749146e-05 2.4767592549324036e-05 0.0 0.0 0.0 0.0
1.461 -0.14849208295345306 -0.900926411151886 1.2999400496482849e-05 6.841495633125305e-06 0.0 0.0 0.0 0.0
1.462 -0.14960674941539764 -0.901350736618042 -1.580268144607544e-05 3.7336722016334534e-06 0.0 0.0 0.0 0.0
1.463 -0.15088315308094025 -0.9001359343528748 8.495524525642395e-06 1.730397343635559e-06 0.0 0.0 0.0 0.0
1.464 -0.15033331513404846 -0.9006965756416321 2.5099143385887146e-06 2.6142224669456482e-05 0.0 0.0 0.0 0.0
1.465 -0.15168175101280212 -0.8988907933235168 4.890374839305878e-06 -3.8119032979011536e-06 0.0 0.0 0.0 0.0
1.466 -0.15243415534496307 -0.8989517688751221 -2.2901222109794617e-06 3.4794211387634277e-06 0.0 0.0 0.0 0.0
1.467 -0.15420782566070557 -0.8983177542686462 1.5221536159515381e-05 6.893649697303772e-06 0.0 0.0 0.0 0.0
1.468 -0.15303948521614075 -0.8976057767868042 1.5925616025924683e-06 -1.6728416085243225e-05 0.0 0.0 0.0 0.0
1.469 -0.15367308259010315 -0.897998571395874 -2.212822437286377e-06 9.03010368347168e-06 0.0 0.0 0.0 0.0
1.47 -0.1556202471256256 -0.8972499966621399 -1.5507452189922333e-05 1.5331432223320007e-05 0.0 0.0 0.0 0.0
1.471 -0.156853586435318 -0.8957225680351257 9.162351489067078e-06 2.103857696056366e-05 0.0 0.0 0.0 0.0
1.472 -0.15873366594314575 -0.8956910967826843 3.693625330924988e-06 1.2520700693130493e-05 0.0 0.0 0.0 0.0
1.473 -0.15764440596103668 -0.8951036930084229 1.348927617073059e-05 -1.5449710190296173e-05 0.0 0.0 0.0 0.0
1.474 -0.15897703170776367 -0.8932294845581055 -5.7406723499298096e-06 -7.905066013336182e-06 0.0 0.0 0.0 0.0
1.475 -0.16148485243320465 -0.8936430811882019 3.93204391002655e-06 -3.0063092708587646e-06 0.0 0.0 0.0 0.0
1.476 -0.15866002440452576 -0.8925154805183411 -8.849427103996277e-06 -2.3562461137771606e-07 0.0 0.0 0.0 0.0
1.477 -0.16243456304073334 -0.8921698927879333 4.832632839679718e-06 5.4817646741867065e-06 0.0 0.0 0.0 0.0
1.478 -0.16136415302753448 -0.8921311497688293 -4.286877810955048e-06 4.141591489315033e-06 0.0 0.0 0.0 0.0
1.479 -0.162667378783226 -0.8915833830833435 7.591210305690765e-06 -5.020759999752045e-06 0.0 0.0 0.0 0.0
1.48 -0.16219961643218994 -0.8911058306694031 1.3751909136772156e-05 4.770234227180481e-06 0.0 0.0 0.0 0.0
1.481 -0.16378861665725708 -0.889960765838623 2.2184103727340698e-05 -3.4794211387634277e-06 0.0 0.0 0.0 0.0
1.482 -0.16404710710048676 -0.8891926407814026 2.560485154390335e-05 5.651265382766724e-06 0.0 0.0 0.0 0.0
1.483 -0.16620056331157684 -0.8888125419616699 7.105059921741486e-06 3.848224878311157e-06 0.0 0.0 0.0 0.0
1.484 -0.16648750007152557 -0.888637363910675 3.5744160413742065e-06 -1.1868774890899658e-05 0.0 0.0 0.0 0.0
1.485 -0.16502819955348969 -0.8879415392875671 2.3195520043373108e-05 -2.4279579520225525e-05 0.0 0.0 0.0 0.0
1.486 -0.16867370903491974 -0.8871513605117798 1.4969147741794586e-05 1.330394297838211e-05 0.0 0.0 0.0 0.0
1.487 -0.16759754717350006 -0.886863648891449 2.5739893317222595e-05 -4.186294972896576e-06 0.0 0.0 0.0 0.0
1.488 -0.1690426468849182 -0.8853967785835266 2.1589919924736023e-05 1.0147690773010254e-05 0.0 0.0 0.0 0.0
1.489 -0.17091034352779388 -0.8860852718353271 -4.391185939311981e-06 -8.913688361644745e-06 0.0 0.0 0.0 0.0
1.49 -0.17109541594982147 -0.8846501111984253 1.0133720934391022e-05 -5.1390379667282104e-06 0.0 0.0 0.0 0.0
1.491 -0.17296966910362244 -0.8847119808197021 -4.5765191316604614e-06 1.0817311704158783e-05 0.0 0.0 0.0 0.0
1.492 -0.17453597486019135 -0.8836617469787598 2.619624137878418e-05 1.3041310012340546e-05 0.0 0.0 0.0 0.0
1.493 -0.17228220403194427 -0.8832916617393494 5.29363751411438e-06 1.0493211448192596e-05 0.0 0.0 0.0 0.0
1.494 -0.17398445308208466 -0.8822566270828247 -1.6381964087486267e-06 2.1117739379405975e-05 0.0 0.0 0.0 0.0
1.495 -0.17157134413719177 -0.8819701075553894 1.784786581993103e-05 1.223105937242508e-05 0.0 0.0 0.0 0.0
1.496 -0.1728011965751648 -0.881756067276001 9.51811671257019e-06 -1.451931893825531e-05 0.0 0.0 0.0 0.0
1.497 -0.1759936362504959 -0.8805679678916931 1.2088567018508911e-06 -1.5295110642910004e-05 0.0 0.0 0.0 0.0
1.498 -0.176291361451149 -0.8802350163459778 8.908100426197052e-06 -1.6773119568824768e-06 0.0 0.0 0.0 0.0
1.499 -0.17604251205921173 -0.8796369433403015 1.8687918782234192e-05 -2.5918707251548767e-05 0.0 0.0 0.0 0.0
1.5 -0.17768512666225433 -0.879641592502594 1.8882565200328827e-05 -2.794899046421051e-06 0.0 0.0 0.0 0.0
1.501 -0.17691215872764587 -0.8794125318527222 2.9513612389564514e-06 -6.73346221446991e-07 0.0 0.0 0.0 0.0
1.502 -0.1776781678199768 -0.8786749839782715 2.1391548216342926e-05 2.2025778889656067e-06 0.0 0.0 0.0 0.0
1.503 -0.1797928810119629 -0.8778349757194519 -1.890677958726883e-05 -4.502944648265839e-06 0.0 0.0 0.0 0.0
1.504 -0.17969673871994019 -0.8777689337730408 9.885057806968689e-06 -5.06080687046051e-06 0.0 0.0 0.0 0.0
1.505 -0.18105633556842804 -0.8757762908935547 3.150198608636856e-05 9.504146873950958e-06 0.0 0.0 0.0 0.0
1.506 -0.1813676357269287 -0.874667763710022 4.756264388561249e-06 6.528571248054504e-07 0.0 0.0 0.0 0.0
1.507 -0.18328741192817688 -0.875497579574585 1.6754493117332458e-06 3.887340426445007e-06 0.0 0.0 0.0 0.0
1.508 -0.18231570720672607 -0.8751972913742065 -5.162321031093597e-06 -6.993301212787628e-06 0.0 0.0 0.0 0.0
1.509 -0.18532928824424744 -0.874125599861145 -1.031532883644104e-05 7.119961082935333e-06 0.0 0.0 0.0 0.0
1.51 -0.18164609372615814 -0.8735475540161133 7.168389856815338e-06 -4.149042069911957e-06 0.0 0.0 0.0 0.0
1.511 -0.1867082715034485 -0.8730287551879883 -1.1283904314041138e-05 -2.266187220811844e-05 0.0 0.0 0.0 0.0
1.512 -0.19312629103660583 -0.8764275908470154 -9.405426681041718e-06 2.802349627017975e-06 0.0 0.0 0.0 0.0
1.513 -0.18682701885700226 -0.8712804913520813 2.3161061108112335e-05 -7.6284632086753845e-06 0.0 0.0 0.0 0.0
1.514 -0.18797242641448975 -0.8707675933837891 -7.507391273975372e-06 2.2351741790771484e-07 0.0 0.0 0.0 0.0
1.515 -0.1863298863172531 -0.8711737394332886 -7.429160177707672e-06 7.28946179151535e-06 0.0 0.0 0.0 0.0
1.516 -0.1892266422510147 -0.8692737817764282 -5.4156407713890076e-06 1.2703239917755127e-06 0.0 0.0 0.0 0.0
1.517 -0.18981753289699554 -0.8702278733253479 5.7443976402282715e-06 -2.61794775724411e-06 0.0 0.0 0.0 0.0
1.518 -0.18914999067783356 -0.8692818880081177 -8.11554491519928e-06 -1.2509524822235107e-05 0.0 0.0 0.0 0.0
1.519 -0.19137006998062134 -0.8682349324226379 -6.631016731262207e-06 -4.10713255405426e-07 0.0 0.0 0.0 0.0
1.52 -0.19140098989009857 -0.8677480220794678 -2.4198554456233978e-05 -2.712942659854889e-06 0.0 0.0 0.0 0.0
1.521 -0.19137805700302124 -0.8675747513771057 -1.9375234842300415e-05 -3.374461084604263e-05 0.0 0.0 0.0 0.0
1.522 -0.1941635012626648 -0.8661367297172546 1.627858728170395e-05 -4.3958425521850586e-07 0.0 0.0 0.0 0.0
1.523 -0.19306333363056183 -0.866223931312561 -4.256144165992737e-07 -8.41636210680008e-06 0.0 0.0 0.0 0.0
1.524 -0.19331000745296478 -0.8597899675369263 -1.0786578059196472e-05 -1.12876296043396e-06 0.0 0.0 0.0 0.0
1.525 -0.19537830352783203 -0.8642308115959167 7.487833499908447e-07 -2.60770320892334e-08 0.0 0.0 0.0 0.0
1.526 -0.19600290060043335 -0.8652207255363464 -3.95067036151886e-06 -7.11437314748764e-06 0.0 0.0 0.0 0.0
1.527 -0.19502843916416168 -0.8642358183860779 -1.0244548320770264e-05 2.9886141419410706e-06 0.0 0.0 0.0 0.0
1.528 -0.19792580604553223 -0.8632256388664246 -8.633360266685486e-07 -8.774921298027039e-06 0.0 0.0 0.0 0.0
1.529 -0.19781166315078735 -0.8631622195243835 -1.4985911548137665e-05 -6.002373993396759e-06 0.0 0.0 0.0 0.0
1.53 -0.19998063147068024 -0.862013578414917 -2.453569322824478e-05 -9.369105100631714e-07 0.0 0.0 0.0 0.0
1.531 -0.19834323227405548 -0.8616423010826111 -1.3626180589199066e-05 -2.2152438759803772e-05 0.0 0.0 0.0 0.0
1.532 -0.20001690089702606 -0.8601769208908081 3.904104232788086e-06 5.355104804039001e-07 0.0 0.0 0.0 0.0
1.533 -0.19884724915027618 -0.861125648021698 6.8498775362968445e-06 -1.1038035154342651e-05 0.0 0.0 0.0 0.0
1.534 -0.20285899937152863 -0.8594441413879395 -1.571793109178543e-05 -8.102506399154663e-06 0.0 0.0 0.0 0.0
1.535 -0.1999860256910324 -0.859337329864502 -2.089608460664749e-05 -5.189329385757446e-06 0.0 0.0 0.0 0.0
1.536 -0.21079587936401367 -0.8654218912124634 1.4249235391616821e-06 2.6170164346694946e-06 0.0 0.0 0.0 0.0
1.537 -0.20529302954673767 -0.857791543006897 1.315586268901825e-05 1.0812655091285706e-06 0.0 0.0 0.0 0.0
1.538 -0.20348142087459564 -0.8585442304611206 -1.1526979506015778e-05 -2.070888876914978e-05 0.0 0.0 0.0 0.0
1.539 -0.20549815893173218 -0.8571232557296753 -2.5171786546707153e-05 1.3405457139015198e-05 0.0 0.0 0.0 0.0
1.54 -0.20447100698947906 -0.8566718697547913 -3.351829946041107e-06 8.930452167987823e-06 0.0 0.0 0.0 0.0
1.541 -0.20485061407089233 -0.8568198680877686 -9.481795132160187e-06 -2.394896000623703e-05 0.0 0.0 0.0 0.0
1.542 -0.20882771909236908 -0.8558320999145508 9.181909263134003e-06 -4.719942808151245e-06 0.0 0.0 0.0 0.0
1.543 -0.20668290555477142 -0.8545361161231995 -1.287367194890976e-05 2.22083181142807e-05 0.0 0.0 0.0 0.0
1.544 -0.20791833102703094 -0.8551900386810303 1.4250166714191437e-05 -4.58303838968277e-06 0.0 0.0 0.0 0.0
1.545 -0.21020328998565674 -0.854144811630249 -8.077360689640045e-06 -4.0046870708465576e-05 0.0 0.0 0.0 0.0
1.546 -0.2084759622812271 -0.8537433743476868 -2.56979838013649e-05 1.0170042514801025e-05 0.0 0.0 0.0 0.0
1.547 -0.20953381061553955 -0.8527966141700745 -8.262693881988525e-06 -2.147536724805832e-05 0.0 0.0 0.0 0.0
1.548 -0.20914429426193237 -0.8550716638565063 -7.549300789833069e-06 1.6325153410434723e-05 0.0 0.0 0.0 0.0
1.549 -0.21233618259429932 -0.852521538734436 -8.620321750640869e-06 -3.026239573955536e-05 0.0 0.0 0.0 0.0
1.55 -0.21370406448841095 -0.8518548607826233 -1.2101605534553528e-05 -7.3909759521484375e-06 0.0 0.0 0.0 0.0
1.551 -0.21278834342956543 -0.8519243597984314 -3.1332485377788544e-05 -2.1284446120262146e-05 0.0 0.0 0.0 0.0
1.552 -0.21389472484588623 -0.8512181639671326 -3.948807716369629e-06 9.183771908283234e-06 0.0 0.0 0.0 0.0
1.553 -0.21657170355319977 -0.8488134741783142 -1.8377788364887238e-05 -1.0672956705093384e-06 0.0 0.0 0.0 0.0
1.554 -0.21458463370800018 -0.8479503393173218 3.448687493801117e-06 -7.553026080131531e-06 0.0 0.0 0.0 0.0
1.555 -0.2176676094532013 -0.849208414554596 -2.2034160792827606e-05 7.798895239830017e-06 0.0 0.0 0.0 0.0
1.556 -0.21461370587348938 -0.8486325740814209 -2.433639019727707e-05 2.3171305656433105e-06 0.0 0.0 0.0 0.0
1.557 -0.22002673149108887 -0.8474248051643372 -1.5469267964363098e-06 -2.240855246782303e-05 0.0 0.0 0.0 0.0
1.558 -0.21686609089374542 -0.8475522994995117 -1.9623897969722748e-05 1.367274671792984e-05 0.0 0.0 0.0 0.0
1.559 -0.2185956835746765 -0.846672773361206 -9.521842002868652e-06 2.042669802904129e-05 0.0 0.0 0.0 0.0
1.56 -0.22391873598098755 -0.8586549758911133 -2.8002075850963593e-05 -3.995373845100403e-07 0.0 0.0 0.0 0.0
1.561 -0.21995225548744202 -0.8460662961006165 -3.269873559474945e-06 -1.940317451953888e-05 0.0 0.0 0.0 0.0
1.562 -0.222178652882576 -0.8446994423866272 -9.175390005111694e-06 6.534159183502197e-06 0.0 0.0 0.0 0.0
1.563 -0.22267070412635803 -0.8436042666435242 -2.9173679649829865e-05 -5.8766454458236694e-06 0.0 0.0 0.0 0.0
1.564 -0.2235681265592575 -0.8439676761627197 -1.835264265537262e-05 -4.559755325317383e-06 0.0 0.0 0.0 0.0
1.565 -0.22354033589363098 -0.8418651223182678 -9.018927812576294e-06 -1.025572419166565e-05 0.0 0.0 0.0 0.0
1.566 -0.22496889531612396 -0.8425460457801819 -3.998167812824249e-06 6.583519279956818e-06 0.0 0.0 0.0 0.0
1.567 -0.22444356977939606 -0.8422723412513733 -2.2977590560913086e-05 -7.404014468193054e-07 0.0 0.0 0.0 0.0
1.568 -0.226262629032135 -0.8408307433128357 2.0966865122318268e-05 3.374088555574417e-05 0.0 0.0 0.0 0.0
1.569 -0.22563835978507996 -0.8407282829284668 -1.3002194464206696e-05 -3.245938569307327e-05 0.0 0.0 0.0 0.0
1.57 -0.2283555120229721 -0.8420185446739197 -2.5371089577674866e-05 -1.3240613043308258e-05 0.0 0.0 0.0 0.0
1.571 -0.22665292024612427 -0.8404011130332947 -2.8545036911964417e-06 -5.4854899644851685e-06 0.0 0.0 0.0 0.0
1.572 -0.2334880828857422 -0.8389485478401184 1.3802200555801392e-05 -8.845701813697815e-06 0.0 0.0 0.0 0.0
1.573 -0.23129181563854218 -0.8389682769775391 1.9582919776439667e-05 -5.641952157020569e-06 0.0 0.0 0.0 0.0
1.574 -0.22959153354167938 -0.8377257585525513 -8.245930075645447e-06 -1.9259750843048096e-06 0.0 0.0 0.0 0.0
1.575 -0.2321879267692566 -0.8373550176620483 -1.9663944840431213e-05 1.85258686542511e-05 0.0 0.0 0.0 0.0
1.576 -0.23161907494068146 -0.8378481268882751 6.27618283033371e-06 -1.3730488717556e-05 0.0 0.0 0.0 0.0
1.577 -0.23049889504909515 -0.8366571068763733 1.1275522410869598e-05 4.945322871208191e-06 0.0 0.0 0.0 0.0
1.578 -0.23591069877147675 -0.8350483179092407 -1.6100704669952393e-05 1.9906088709831238e-05 0.0 0.0 0.0 0.0
1.579 -0.23476170003414154 -0.8362972736358643 1.1445023119449615e-05 3.022700548171997e-05 0.0 0.0 0.0 0.0
1.58 -0.23319318890571594 -0.8346565961837769 -8.578412234783173e-06 6.563030183315277e-06 0.0 0.0 0.0 0.0
1.581 -0.23559559881687164 -0.8349224925041199 -2.5546178221702576e-06 2.036895602941513e-05 0.0 0.0 0.0 0.0
1.582 -0.23813177645206451 -0.8331199288368225 8.244067430496216e-06 3.0510127544403076e-06 0.0 0.0 0.0 0.0
1.583 -0.23723649978637695 -0.8338778614997864 -1.785624772310257e-05 2.039596438407898e-07 0.0 0.0 0.0 0.0
1.584 -0.23669692873954773 -0.841462254524231 -1.4644116163253784e-05 -4.450790584087372e-06 0.0 0.0 0.0 0.0
1.585 -0.23859217762947083 -0.8324630260467529 1.7439015209674835e-05 1.7884187400341034e-05 0.0 0.0 0.0 0.0
1.586 -0.24031895399093628 -0.8312282562255859 -1.5730038285255432e-06 6.44288957118988e-06 0.0 0.0 0.0 0.0
1.587 -0.2398054599761963 -0.8307129740715027 -1.3218261301517487e-05 -3.4151598811149597e-06 0.0 0.0 0.0 0.0
1.588 -0.2425699681043625 -0.830388605594635 -7.07525759935379e-06 2.1220184862613678e-05 0.0 0.0 0.0 0.0
1.589 -0.24143755435943604 -0.8301637172698975 1.739244908094406e-05 1.1883676052093506e-05 0.0 0.0 0.0 0.0
1.59 -0.2420908808708191 -0.8293389678001404 -3.3471733331680298e-06 -3.873370587825775e-06 0.0 0.0 0.0 0.0
1.591 -0.24165543913841248 -0.8286310434341431 1.1332333087921143e-05 -1.0602176189422607e-05 0.0 0.0 0.0 0.0
1.592 -0.24343028664588928 -0.8279122710227966 -2.4022534489631653e-05 -2.818182110786438e-06 0.0 0.0 0.0 0.0
1.593 -0.2457389235496521 -0.8265695571899414 1.8994323909282684e-05 6.755813956260681e-06 0.0 0.0 0.0 0.0
1.594 -0.24582037329673767 -0.8285000920295715 6.504356861114502e-06 2.5425106287002563e-07 0.0 0.0 0.0 0.0
1.595 -0.2470979541540146 -0.826745867729187 -4.3315812945365906e-06 -3.604218363761902e-07 0.0 0.0 0.0 0.0
1.596 -0.2451169341802597 -0.8232921361923218 -9.642913937568665e-06 -9.685754776000977e-07 0.0 0.0 0.0 0.0
1.597 -0.24897514283657074 -0.8254178166389465 1.7803162336349487e-05 4.433095455169678e-06 0.0 0.0 0.0 0.0
1.598 -0.24926383793354034 -0.8254945278167725 6.883405148983002e-06 -7.778406143188477e-06 0.0 0.0 0.0 0.0
1.599 -0.24848057329654694 -0.8244245648384094 -1.1295080184936523e-05 1.0314397513866425e-05 0.0 0.0 0.0 0.0
1.6 -0.25212621688842773 -0.8237506151199341 3.9422884583473206e-06 6.612390279769897e-07 0.0 0.0 0.0 0.0
1.601 -0.2515386641025543 -0.823240339756012 -6.034970283508301e-07 1.135747879743576e-05 0.0 0.0 0.0 0.0
1.602 -0.2532440423965454 -0.8230940103530884 -9.90740954875946e-06 2.2331252694129944e-05 0.0 0.0 0.0 0.0
1.603 -0.25464481115341187 -0.8215004801750183 -4.025176167488098e-06 2.4460256099700928e-05 0.0 0.0 0.0 0.0
1.604 -0.25599512457847595 -0.8213689923286438 1.607649028301239e-05 -6.8088993430137634e-06 0.0 0.0 0.0 0.0
1.605 -0.2548796236515045 -0.8206447958946228 -1.8868595361709595e-06 1.2033618986606598e-05 0.0 0.0 0.0 0.0
1.606 -0.2574935853481293 -0.8206744194030762 -7.63777643442154e-06 4.113558679819107e-05 0.0 0.0 0.0 0.0
1.607 -0.25640976428985596 -0.820065438747406 1.2895092368125916e-05 2.7390196919441223e-05 0.0 0.0 0.0 0.0
1.608 -0.25286805629730225 -0.8226544260978699 -1.2224540114402771e-05 3.388989716768265e-05 0.0 0.0 0.0 0.0
1.609 -0.25395888090133667 -0.8189834952354431 -1.8477439880371094e-06 6.0014426708221436e-06 0.0 0.0 0.0 0.0
1.61 -0.258351594209671 -0.8186680674552917 3.462657332420349e-06 1.5963800251483917e-05 0.0 0.0 0.0 0.0
1.611 -0.2587568759918213 -0.8184614181518555 6.582587957382202e-06 1.1577270925045013e-05 0.0 0.0 0.0 0.0
1.612 -0.2602040767669678 -0.81638103723526 1.1079013347625732e-05 -8.759088814258575e-06 0.0 0.0 0.0 0.0
1.613 -0.2612619698047638 -0.8158363699913025 -9.33092087507248e-06 -1.1039897799491882e-05 0.0 0.0 0.0 0.0
1.614 -0.261711061000824 -0.8155828714370728 1.3029202818870544e-06 5.7443976402282715e-06 0.0 0.0 0.0 0.0
1.615 -0.26194775104522705 -0.8144724369049072 3.450550138950348e-06 1.2150034308433533e-05 0.0 0.0 0.0 0.0
1.616 -0.2656233310699463 -0.813579797744751 2.2821128368377686e-05 3.268010914325714e-06 0.0 0.0 0.0 0.0
1.617 -0.2629087567329407 -0.8140783905982971 7.48317688703537e-06 1.2945383787155151e-07 0.0 0.0 0.0 0.0
1.618 -0.2633848786354065 -0.812691867351532 8.385628461837769e-06 2.1629035472869873e-05 0.0 0.0 0.0 0.0
1.619 -0.26715439558029175 -0.8125717639923096 3.898795694112778e-05 1.841876655817032e-05 0.0 0.0 0.0 0.0
1.62 -0.26516833901405334 -0.8140419125556946 6.701797246932983e-06 -3.795139491558075e-06 0.0 0.0 0.0 0.0
1.621 -0.26945117115974426 -0.8091872930526733 -2.387072890996933e-05 -1.257285475730896e-07 0.0 0.0 0.0 0.0
1.622 -0.26748257875442505 -0.8107810616493225 8.833594620227814e-06 -2.4730339646339417e-05 0.0 0.0 0.0 0.0
1.623 -0.269705593585968 -0.807813823223114 -3.8370490074157715e-06 1.1752359569072723e-05 0.0 0.0 0.0 0.0
1.624 -0.27268192172050476 -0.8082053065299988 1.835078001022339e-05 4.414469003677368e-07 0.0 0.0 0.0 0.0
1.625 -0.27201947569847107 -0.807104766368866 2.5507062673568726e-05 -1.8691644072532654e-06 0.0 0.0 0.0 0.0
1.626 -0.2732416093349457 -0.8069117069244385 -5.9604644775390625e-06 3.322586417198181e-05 0.0 0.0 0.0 0.0
1.627 -0.27493876218795776 -0.8068144917488098 3.25031578540802e-07 1.2604519724845886e-05 0.0 0.0 0.0 0.0
1.628 -0.2742498219013214 -0.8057206869125366 8.059665560722351e-06 -1.5925616025924683e-05 0.0 0.0 0.0 0.0
1.629 -0.2752014100551605 -0.8047819137573242 -8.629634976387024e-06 1.7173588275909424e-06 0.0 0.0 0.0 0.0
1.63 -0.27996209263801575 -0.8009140491485596 1.6340985894203186e-05 5.508773028850555e-06 0.0 0.0 0.0 0.0
1.631 -0.27586066722869873 -0.8030318021774292 1.581106334924698e-05 -2.1811574697494507e-06 0.0 0.0 0.0 0.0
1.632 -0.2720335125923157 -0.7942128777503967 -1.0924413800239563e-05 6.639398634433746e-06 0.0 0.0 0.0 0.0
1.633 -0.2791817784309387 -0.7986993789672852 -1.8170103430747986e-06 2.166256308555603e-06 0.0 0.0 0.0 0.0
1.634 -0.27989059686660767 -0.798518180847168 1.8724240362644196e-05 -1.9585713744163513e-05 0.0 0.0 0.0 0.0
1.635 -0.2748609185218811 -0.7985479831695557 -1.2831762433052063e-05 8.344650268554688e-07 0.0 0.0 0.0 0.0
1.636 -0.2772675156593323 -0.7955878973007202 1.1227093636989594e-05 -2.6728957891464233e-06 0.0 0.0 0.0 0.0
1.637 -0.27731412649154663 -0.7966458797454834 1.4750286936759949e-05 2.3698434233665466e-05 0.0 0.0 0.0 0.0
1.638 -0.2773728668689728 -0.7946008443832397 2.065952867269516e-05 2.4254433810710907e-05 0.0 0.0 0.0 0.0
1.639 -0.2753666341304779 -0.7949486970901489 9.548850357532501e-06 -3.3192336559295654e-06 0.0 0.0 0.0 0.0
1.64 -0.27897143363952637 -0.794472336769104 1.0654330253601074e-06 -1.4290213584899902e-05 0.0 0.0 0.0 0.0
1.641 -0.2783336639404297 -0.7944760918617249 2.2523105144500732e-05 1.5897676348686218e-05 0.0 0.0 0.0 0.0
1.642 -0.27845045924186707 -0.7955363392829895 1.6539357602596283e-05 1.4281831681728363e-05 0.0 0.0 0.0 0.0
1.643 -0.2779451012611389 -0.7967950105667114 -4.285015165805817e-06 7.538124918937683e-06 0.0 0.0 0.0 0.0
1.644 -0.27845683693885803 -0.7975247502326965 -2.9979273676872253e-06 -3.0174851417541504e-07 0.0 0.0 0.0 0.0
1.645 -0.2815791666507721 -0.794573187828064 2.3579224944114685e-05 1.3338401913642883e-05 0.0 0.0 0.0 0.0
1.646 -0.28038686513900757 -0.7963404655456543 4.0726736187934875e-06 -3.3853575587272644e-06 0.0 0.0 0.0 0.0
1.647 -0.2814845144748688 -0.7958976030349731 -1.1511147022247314e-06 -3.7054531276226044e-05 0.0 0.0 0.0 0.0
1.648 -0.2846236824989319 -0.7987003922462463 3.1013041734695435e-06 1.6149133443832397e-06 0.0 0.0 0.0 0.0
1.649 -0.28417226672172546 -0.7963232398033142 4.7292560338974e-06 -1.5398487448692322e-05 0.0 0.0 0.0 0.0
1.65 -0.2858704924583435 -0.7951720356941223 -7.078982889652252e-06 1.2250617146492004e-05 0.0 0.0 0.0 0.0
1.651 -0.2872818112373352 -0.7953314185142517 7.4747949838638306e-06 -1.94404274225235e-05 0.0 0.0 0.0 0.0
1.652 -0.288524866104126 -0.7951193451881409 2.3527070879936218e-05 -1.4619901776313782e-05 0.0 0.0 0.0 0.0
1.653 -0.2905503511428833 -0.7947836518287659 3.7178397178649902e-06 -3.7671998143196106e-06 0.0 0.0 0.0 0.0
1.654 -0.2928248643875122 -0.7966201305389404 -2.9653310775756836e-06 -2.6899389922618866e-05 0.0 0.0 0.0 0.0
1.655 -0.2910769581794739 -0.793929934501648 2.4648383259773254e-05 8.830800652503967e-06 0.0 0.0 0.0 0.0
1.656 -0.2923400402069092 -0.7826074957847595 -1.2755393981933594e-05 -1.5653669834136963e-05 0.0 0.0 0.0 0.0
1.657 -0.2942287027835846 -0.7911780476570129 3.061443567276001e-05 -1.1382624506950378e-05 0.0 0.0 0.0 0.0
1.658 -0.2919505834579468 -0.7930169701576233 -2.868473529815674e-07 -1.472514122724533e-05 0.0 0.0 0.0 0.0
1.659 -0.29628854990005493 -0.7921913862228394 1.12876296043396e-06 1.7676502466201782e-05 0.0 0.0 0.0 0.0
1.66 -0.2989339232444763 -0.7918001413345337 -5.059875547885895e-06 -1.4295801520347595e-06 0.0 0.0 0.0 0.0
1.661 -0.29617148637771606 -0.7913333773612976 -2.6831403374671936e-06 -1.8191523849964142e-05 0.0 0.0 0.0 0.0
1.662 -0.2980496287345886 -0.789574146270752 2.639833837747574e-05 9.619630873203278e-06 0.0 0.0 0.0 0.0
1.663 -0.30026504397392273 -0.7891031503677368 -4.9620866775512695e-06 2.407468855381012e-06 0.0 0.0 0.0 0.0
1.664 -0.29957789182662964 -0.7906977534294128 7.03614205121994e-06 -2.5736168026924133e-05 0.0 0.0 0.0 0.0
1.665 -0.3031880259513855 -0.7877126932144165 7.343478500843048e-06 -1.849699765443802e-05 0.0 0.0 0.0 0.0
1.666 -0.30119478702545166 -0.788578450679779 -9.872950613498688e-06 3.2782554626464844e-06 0.0 0.0 0.0 0.0
1.667 -0.30444735288619995 -0.7873803377151489 -1.1116266250610352e-05 -6.440095603466034e-06 0.0 0.0 0.0 0.0
1.668 -0.30625689029693604 -0.7878438830375671 7.990747690200806e-07 -3.550201654434204e-06 0.0 0.0 0.0 0.0
1.669 -0.30499306321144104 -0.7846665978431702 1.1743046343326569e-05 1.0456889867782593e-05 0.0 0.0 0.0 0.0
1.67 -0.30573272705078125 -0.7846579551696777 1.7440877854824066e-05 -9.680166840553284e-06 0.0 0.0 0.0 0.0
1.671 -0.30772027373313904 -0.7835603356361389 3.129243850708008e-06 -1.8035992980003357e-05 0.0 0.0 0.0 0.0
1.672 -0.30956658720970154 -0.783832848072052 -2.2143125534057617e-05 1.2757256627082825e-05 0.0 0.0 0.0 0.0
1.673 -0.3092520236968994 -0.7831299304962158 2.291053533554077e-05 -7.906928658485413e-07 0.0 0.0 0.0 0.0
1.674 -0.31086665391921997 -0.7823600172996521 7.675960659980774e-06 -2.426840364933014e-05 0.0 0.0 0.0 0.0
1.675 -0.311623752117157 -0.783812403678894 -3.5474076867103577e-06 7.38631933927536e-06 0.0 0.0 0.0 0.0
1.676 -0.31203681230545044 -0.78220534324646 7.795169949531555e-06 -7.19074159860611e-06 0.0 0.0 0.0 0.0
1.677 -0.31440773606300354 -0.7801929712295532 1.5504658222198486e-05 -1.986231654882431e-05 0.0 0.0 0.0 0.0
1.678 -0.3146723508834839 -0.7786110639572144 2.8274953365325928e-06 -6.0889869928359985e-06 0.0 0.0 0.0 0.0
1.679 -0.31493088603019714 -0.7795255184173584 -3.1134113669395447e-06 -6.222166121006012e-06 0.0 0.0 0.0 0.0
1.68 -0.31825587153434753 -0.7719255089759827 7.247552275657654e-06 2.142135053873062e-05 0.0 0.0 0.0 0.0
1.681 -0.3165389597415924 -0.7796248197555542 1.6245990991592407e-05 -3.066752105951309e-05 0.0 0.0 0.0 0.0
1.682 -0.31781265139579773 -0.7775520086288452 1.1317431926727295e-05 -7.897615432739258e-07 0.0 0.0 0.0 0.0
1.683 -0.32063671946525574 -0.7759938836097717 1.4825724065303802e-05 -2.364441752433777e-05 0.0 0.0 0.0 0.0
1.684 -0.3167610168457031 -0.7786113023757935 1.0426156222820282e-05 -1.16666778922081e-05 0.0 0.0 0.0 0.0
1.685 -0.3218216598033905 -0.7761716246604919 6.202608346939087e-06 -8.80565494298935e-06 0.0 0.0 0.0 0.0
1.686 -0.3221004903316498 -0.7753757238388062 -1.3104639947414398e-05 -1.2973323464393616e-05 0.0 0.0 0.0 0.0
1.687 -0.3220711946487427 -0.7735254168510437 1.778826117515564e-07 -3.078952431678772e-05 0.0 0.0 0.0 0.0
1.688 -0.3251760005950928 -0.7744578123092651 -1.7676502466201782e-06 -1.3731420040130615e-05 0.0 0.0 0.0 0.0
1.689 -0.32390347123146057 -0.7748770117759705 -5.660578608512878e-06 -2.173706889152527e-06 0.0 0.0 0.0 0.0
1.69 -0.32664400339126587 -0.7730837464332581 -1.8270686268806458e-05 -4.542060196399689e-06 0.0 0.0 0.0 0.0
1.691 -0.32921910285949707 -0.7726685404777527 7.67875462770462e-06 -1.1820346117019653e-05 0.0 0.0 0.0 0.0
1.692 -0.3285205066204071 -0.7757140398025513 5.3104013204574585e-06 -4.149973392486572e-06 0.0 0.0 0.0 0.0
1.693 -0.329997718334198 -0.7715491056442261 -1.8114224076271057e-05 1.0936520993709564e-05 0.0 0.0 0.0 0.0
1.694 -0.32851701974868774 -0.7716121077537537 -4.926696419715881e-07 -1.551210880279541e-05 0.0 0.0 0.0 0.0
1.695 -0.3310803472995758 -0.7696689367294312 -1.6028061509132385e-05 -2.158433198928833e-05 0.0 0.0 0.0 0.0
1.696 -0.3322122097015381 -0.7693947553634644 -3.0919909477233887e-07 -1.5576370060443878e-05 0.0 0.0 0.0 0.0
1.697 -0.33262890577316284 -0.7693840265274048 -2.036523073911667e-05 -2.044346183538437e-05 0.0 0.0 0.0 0.0
1.698 -0.3338927626609802 -0.7674287557601929 -3.541819751262665e-06 -1.4122575521469116e-05 0.0 0.0 0.0 0.0
1.699 -0.33681434392929077 -0.7658706307411194 1.675821840763092e-05 7.623806595802307e-06 0.0 0.0 0.0 0.0
1.7 -0.33361703157424927 -0.766714870929718 -1.124013215303421e-05 -2.8178095817565918e-05 0.0 0.0 0.0 0.0
1.701 -0.33720144629478455 -0.7660489678382874 3.9422884583473206e-06 -7.146969437599182e-06 0.0 0.0 0.0 0.0
1.702 -0.3369794487953186 -0.7638053894042969 6.753019988536835e-06 8.651986718177795e-07 0.0 0.0 0.0 0.0
1.703 -0.3381214141845703 -0.7648583650588989 5.739741027355194e-06 1.4555640518665314e-05 0.0 0.0 0.0 0.0
1.704 -0.34512993693351746 -0.7610092163085938 3.1665898859500885e-05 2.1122395992279053e-06 0.0 0.0 0.0 0.0
1.705 -0.3396827280521393 -0.7646792531013489 -1.8902122974395752e-05 1.1762604117393494e-05 0.0 0.0 0.0 0.0
1.706 -0.3394485414028168 -0.763759195804596 1.790560781955719e-05 -9.157694876194e-06 0.0 0.0 0.0 0.0
1.707 -0.3412512242794037 -0.7628049850463867 2.584420144557953e-06 -1.0534189641475677e-05 0.0 0.0 0.0 0.0
1.708 -0.3438893258571625 -0.7620012760162354 4.601664841175079e-06 -4.348345100879669e-06 0.0 0.0 0.0 0.0
1.709 -0.34294748306274414 -0.7613779306411743 -2.6207417249679565e-06 9.253621101379395e-06 0.0 0.0 0.0 0.0
1.71 -0.34480592608451843 -0.7598293423652649 -1.3343989849090576e-05 -1.2318603694438934e-05 0.0 0.0 0.0 0.0
1.711 -0.34570035338401794 -0.7597225308418274 -2.164393663406372e-06 -1.3529323041439056e-05 0.0 0.0 0.0 0.0
1.712 -0.34717094898223877 -0.7589378356933594 9.096227586269379e-06 -1.6143545508384705e-05 0.0 0.0 0.0 0.0
1.713 -0.350115031003952 -0.7586231231689453 -1.0044313967227936e-05 -3.483332693576813e-05 0.0 0.0 0.0 0.0
1.714 -0.34840071201324463 -0.757994532585144 2.986472100019455e-05 -1.1925585567951202e-05 0.0 0.0 0.0 0.0
1.715 -0.351018488407135 -0.7571078538894653 5.305744707584381e-06 1.1471100151538849e-05 0.0 0.0 0.0 0.0
1.716 -0.35464125871658325 -0.7519076466560364 -7.851049304008484e-06 -2.7154572308063507e-05 0.0 0.0 0.0 0.0
1.717 -0.35197609663009644 -0.7569455504417419 4.2282044887542725e-07 -2.0802021026611328e-05 0.0 0.0 0.0 0.0
1.718 -0.35245007276535034 -0.7549782395362854 1.0266900062561035e-05 -1.936405897140503e-05 0.0 0.0 0.0 0.0
1.719 -0.3538944125175476 -0.7546667456626892 -1.536589115858078e-05 -7.41519033908844e-06 0.0 0.0 0.0 0.0
1.72 -0.35544919967651367 -0.7536437511444092 -4.218891263008118e-06 -3.364868462085724e-06 0.0 0.0 0.0 0.0
1.721 -0.35662660002708435 -0.7521664500236511 3.057532012462616e-06 -9.79006290435791e-06 0.0 0.0 0.0 0.0
1.722 -0.3561537265777588 -0.7531817555427551 3.0673108994960785e-05 -8.7665393948555e-06 0.0 0.0 0.0 0.0
1.723 -0.3588527739048004 -0.7514289021492004 1.647230237722397e-05 -2.3987144231796265e-05 0.0 0.0 0.0 0.0
1.724 -0.35761508345603943 -0.7503200769424438 -8.869916200637817e-06 -1.5622004866600037e-05 0.0 0.0 0.0 0.0
1.725 -0.3585397005081177 -0.750115156173706 9.585171937942505e-06 -1.7587095499038696e-05 0.0 0.0 0.0 0.0
1.726 -0.3592935800552368 -0.7509859204292297 9.152106940746307e-06 3.7048012018203735e-06 0.0 0.0 0.0 0.0
1.727 -0.3621303141117096 -0.7487323880195618 1.4238990843296051e-05 1.08303502202034e-05 0.0 0.0 0.0 0.0
1.728 -0.3666744828224182 -0.7474890947341919 -3.987923264503479e-06 -1.6450881958007812e-05 0.0 0.0 0.0 0.0
1.729 -0.3637246787548065 -0.747387170791626 1.411978155374527e-05 -8.42660665512085e-06 0.0 0.0 0.0 0.0
1.73 -0.36550378799438477 -0.7462035417556763 8.99285078048706e-06 5.963258445262909e-06 0.0 0.0 0.0 0.0
1.731 -0.3681817054748535 -0.744986355304718 -1.6801059246063232e-06 -1.3441778719425201e-05 0.0 0.0 0.0 0.0
1.732 -0.3655107319355011 -0.7470381259918213 1.1680647730827332e-05 -3.0028633773326874e-05 0.0 0.0 0.0 0.0
1.733 -0.3681352138519287 -0.7445299625396729 2.9394403100013733e-05 -1.806393265724182e-05 0.0 0.0 0.0 0.0
1.734 -0.368985652923584 -0.7452432513237 8.270144462585449e-07 -3.3010728657245636e-05 0.0 0.0 0.0 0.0
1.735 -0.3685304820537567 -0.7437230944633484 -4.035420715808868e-06 -2.0359642803668976e-05 0.0 0.0 0.0 0.0
1.736 -0.3716289699077606 -0.7418347001075745 -1.525040715932846e-05 -9.43988561630249e-06 0.0 0.0 0.0 0.0
1.737 -0.3709665536880493 -0.7429921627044678 -1.7000362277030945e-05 -1.8036924302577972e-05 0.0 0.0 0.0 0.0
1.738 -0.37179309129714966 -0.7410476207733154 -7.580965757369995e-07 -4.1443854570388794e-07 0.0 0.0 0.0 0.0
1.739 -0.37350335717201233 -0.7416853904724121 5.535781383514404e-06 -3.4213997423648834e-05 0.0 0.0 0.0 0.0
1.74 -0.3696194887161255 -0.7425938248634338 -3.769993782043457e-06 2.3604370653629303e-05 0.0 0.0 0.0 0.0
1.741 -0.3753873109817505 -0.7405337691307068 7.74674117565155e-06 5.393289029598236e-06 0.0 0.0 0.0 0.0
1.742 -0.3767951428890228 -0.7383301854133606 -1.4835968613624573e-06 -1.662876456975937e-05 0.0 0.0 0.0 0.0
1.743 -0.3779149651527405 -0.7375414371490479 1.724250614643097e-05 1.3937242329120636e-05 0.0 0.0 0.0 0.0
1.744 -0.3782498240470886 -0.7379233241081238 6.148591637611389e-06 -1.7872080206871033e-05 0.0 0.0 0.0 0.0
1.745 -0.3791416883468628 -0.7362151145935059 9.080395102500916e-06 -2.5402754545211792e-05 0.0 0.0 0.0 0.0
1.746 -0.3803597390651703 -0.7370479106903076 -7.164664566516876e-06 -1.8841587007045746e-05 0.0 0.0 0.0 0.0
1.747 -0.38421761989593506 -0.7340954542160034 3.325100988149643e-05 3.557652235031128e-07 0.0 0.0 0.0 0.0
1.748 -0.3810422122478485 -0.7347986102104187 -1.1732801795005798e-05 6.5248459577560425e-06 0.0 0.0 0.0 0.0
1.749 -0.38353750109672546 -0.7335739731788635 -7.718801498413086e-06 -1.187250018119812e-05 0.0 0.0 0.0 0.0
1.75 -0.3840762972831726 -0.7335396409034729 7.824040949344635e-06 -1.2233853340148926e-05 0.0 0.0 0.0 0.0
1.751 -0.38612237572669983 -0.7328214049339294 -1.7387792468070984e-05 -3.207661211490631e-05 0.0 0.0 0.0 0.0
1.752 -0.3891259729862213 -0.7373070120811462 5.377456545829773e-06 -2.928357571363449e-05 0.0 0.0 0.0 0.0
1.753 -0.38891100883483887 -0.7310563325881958 -1.3914890587329865e-05 3.7904828786849976e-06 0.0 0.0 0.0 0.0
1.754 -0.38726726174354553 -0.7307620048522949 -2.71480530500412e-06 -2.5161541998386383e-05 0.0 0.0 0.0 0.0
1.755 -0.3887740969657898 -0.731296956539154 -1.926906406879425e-06 6.4391642808914185e-06 0.0 0.0 0.0 0.0
1.756 -0.3929678499698639 -0.7283498644828796 6.895512342453003e-06 -3.6545097827911377e-06 0.0 0.0 0.0 0.0
1.757 -0.39079660177230835 -0.7290244102478027 -6.020069122314453e-06 -1.985393464565277e-05 0.0 0.0 0.0 0.0
1.758 -0.39163097739219666 -0.7280155420303345 -2.1325424313545227e-05 -6.64684921503067e-06 0.0 0.0 0.0 0.0
1.759 -0.3925987184047699 -0.7278404831886292 -1.1227093636989594e-05 -1.1344440281391144e-05 0.0 0.0 0.0 0.0
1.76 -0.39406031370162964 -0.7268712520599365 -5.774199962615967e-07 5.334615707397461e-06 0.0 0.0 0.0 0.0
1.761 -0.3966808021068573 -0.7247707843780518 1.126900315284729e-06 4.367902874946594e-06 0.0 0.0 0.0 0.0
1.762 -0.3953096270561218 -0.7254589200019836 3.993511199951172e-06 -1.2886710464954376e-05 0.0 0.0 0.0 0.0
1.763 -0.39653876423835754 -0.7226546406745911 8.081085979938507e-06 -2.7813948690891266e-05 0.0 0.0 0.0 0.0
1.764 -0.3999235928058624 -0.7203671932220459 -1.4380551874637604e-05 -2.564024180173874e-05 0.0 0.0 0.0 0.0
1.765 -0.39663004875183105 -0.7206615805625916 8.284114301204681e-06 1.2499280273914337e-05 0.0 0.0 0.0 0.0
1.766 -0.3992530107498169 -0.7212309837341309 1.5852972865104675e-05 -9.241513907909393e-06 0.0 0.0 0.0 0.0
1.767 -0.40122175216674805 -0.7193882465362549 1.9886530935764313e-05 -2.1549873054027557e-05 0.0 0.0 0.0 0.0
1.768 -0.4018458127975464 -0.7195622324943542 5.073845386505127e-06 -5.928799510002136e-06 0.0 0.0 0.0 0.0
1.769 -0.40217125415802 -0.7191665172576904 -1.6986392438411713e-05 8.838251233100891e-07 0.0 0.0 0.0 0.0
1.77 -0.40499040484428406 -0.7189511656761169 2.7297064661979675e-06 -2.0440667867660522e-05 0.0 0.0 0.0 0.0
1.771 -0.403272420167923 -0.717302143573761 -6.342306733131409e-07 3.2298266887664795e-06 0.0 0.0 0.0 0.0
1.772 -0.4064303934574127 -0.7160719037055969 -2.5834888219833374e-06 -2.825167030096054e-05 0.0 0.0 0.0 0.0
1.773 -0.4059743285179138 -0.7164615988731384 5.339272320270538e-06 3.380700945854187e-06 0.0 0.0 0.0 0.0
1.774 -0.41308295726776123 -0.714763343334198 -4.537403583526611e-06 1.780688762664795e-06 0.0 0.0 0.0 0.0
1.775 -0.40896114706993103 -0.7148364782333374 4.814937710762024e-07 -1.2382864952087402e-05 0.0 0.0 0.0 0.0
1.776 -0.410273939371109 -0.7066960334777832 -1.1069700121879578e-05 -2.9704533517360687e-05 0.0 0.0 0.0 0.0
1.777 -0.40952977538108826 -0.7146874070167542 -1.0525807738304138e-05 -5.730427801609039e-06 0.0 0.0 0.0 0.0
1.778 -0.4139767289161682 -0.7101238369941711 -6.919726729393005e-06 1.0079704225063324e-05 0.0 0.0 0.0 0.0
1.779 -0.4132329225540161 -0.7115087509155273 -2.919137477874756e-05 -2.4139881134033203e-05 0.0 0.0 0.0 0.0
1.78 -0.4158032238483429 -0.7113322615623474 2.4187378585338593e-05 4.482455551624298e-06 0.0 0.0 0.0 0.0
1.781 -0.4168660044670105 -0.7092794179916382 7.199123501777649e-07 6.8945810198783875e-06 0.0 0.0 0.0 0.0
1.782 -0.41519713401794434 -0.7085735201835632 -2.2427178919315338e-05 -4.2477622628211975e-06 0.0 0.0 0.0 0.0
1.783 -0.416402131319046 -0.7098823189735413 2.1222978830337524e-05 -4.093162715435028e-06 0.0 0.0 0.0 0.0
1.784 -0.418288916349411 -0.7085121273994446 3.8290396332740784e-05 -9.659677743911743e-06 0.0 0.0 0.0 0.0
1.785 -0.4181712865829468 -0.7069265246391296 -1.6804784536361694e-05 -1.4203600585460663e-05 0.0 0.0 0.0 0.0
1.786 -0.42114877700805664 -0.7055725455284119 -6.681308150291443e-06 -1.1012889444828033e-05 0.0 0.0 0.0 0.0
1.787 -0.4210596978664398 -0.704216480255127 -2.2234395146369934e-05 -2.601463347673416e-05 0.0 0.0 0.0 0.0
1.788 -0.4259990453720093 -0.7032166719436646 7.577240467071533e-06 -8.624047040939331e-07 0.0 0.0 0.0 0.0
1.789 -0.4242909550666809 -0.7032856345176697 -5.5050477385520935e-06 -2.1520070731639862e-05 0.0 0.0 0.0 0.0
1.79 -0.426670104265213 -0.7010679244995117 9.971670806407928e-06 -8.15652310848236e-06 0.0 0.0 0.0 0.0
1.791 -0.42626017332077026 -0.700995683670044 1.1704862117767334e-05 -1.3219192624092102e-05 0.0 0.0 0.0 0.0
1.792 -0.4263589382171631 -0.7022089958190918 2.2424384951591492e-05 6.079673767089844e-06 0.0 0.0 0.0 0.0
1.793 -0.4281086027622223 -0.6991726756095886 1.556798815727234e-05 -2.2444874048233032e-06 0.0 0.0 0.0 0.0
1.794 -0.4309178590774536 -0.6985035538673401 8.472241461277008e-06 -2.3137778043746948e-05 0.0 0.0 0.0 0.0
1.795 -0.4319877326488495 -0.699299693107605 -2.4985522031784058e-05 1.560896635055542e-06 0.0 0.0 0.0 0.0
1.796 -0.43291160464286804 -0.6950947642326355 2.0430423319339752e-05 -1.684669405221939e-05 0.0 0.0 0.0 0.0
1.797 -0.4332536458969116 -0.6961381435394287 2.9266811907291412e-05 1.9408762454986572e-06 0.0 0.0 0.0 0.0
1.798 -0.4353111684322357 -0.6969860792160034 1.2612901628017426e-05 -4.935078322887421e-06 0.0 0.0 0.0 0.0
1.799 -0.43484431505203247 -0.694331705570221 1.028459519147873e-05 -1.1338852345943451e-05 0.0 0.0 0.0 0.0
1.8 -0.4370163679122925 -0.6891561150550842 -3.081560134887695e-05 4.0996819734573364e-06 0.0 0.0 0.0 0.0
1.801 -0.4367635250091553 -0.6950603127479553 9.214505553245544e-06 -1.6211532056331635e-05 0.0 0.0 0.0 0.0
1.802 -0.4358047842979431 -0.6928889155387878 -4.59328293800354e-06 1.9968487322330475e-05 0.0 0.0 0.0 0.0
1.803 -0.43953707814216614 -0.690268337726593 -2.7259811758995056e-06 -8.188188076019287e-06 0.0 0.0 0.0 0.0
1.804 -0.44378364086151123 -0.6877461075782776 -1.265108585357666e-05 1.6205012798309326e-07 0.0 0.0 0.0 0.0
1.805 -0.4390331208705902 -0.6905944347381592 2.4186447262763977e-06 -2.656504511833191e-05 0.0 0.0 0.0 0.0
1.806 -0.4451199769973755 -0.6860510110855103 -2.2580847144126892e-05 -1.3257376849651337e-05 0.0 0.0 0.0 0.0
1.807 -0.44492533802986145 -0.6856423020362854 2.076476812362671e-05 -2.1578744053840637e-06 0.0 0.0 0.0 0.0
1.808 -0.4432343542575836 -0.6878098249435425 -2.0695850253105164e-05 -1.4817342162132263e-06 0.0 0.0 0.0 0.0
1.809 -0.44585439562797546 -0.6845809817314148 2.528540790081024e-06 -1.3342127203941345e-05 0.0 0.0 0.0 0.0
1.81 -0.4454226493835449 -0.6863198280334473 -3.3369287848472595e-06 1.3249926269054413e-05 0.0 0.0 0.0 0.0
1.811 -0.4481852650642395 -0.6838160157203674 -1.7005018889904022e-05 1.972820609807968e-05 0.0 0.0 0.0 0.0
1.812 -0.45200830698013306 -0.683112621307373 1.2936070561408997e-06 -8.760951459407806e-06 0.0 0.0 0.0 0.0
1.813 -0.4470961093902588 -0.6805613040924072 -9.434297680854797e-07 -1.5521422028541565e-05 0.0 0.0 0.0 0.0
1.814 -0.45299649238586426 -0.6792303919792175 -2.5105662643909454e-05 -2.573709934949875e-05 0.0 0.0 0.0 0.0
1.815 -0.4539538323879242 -0.6799054145812988 2.192799001932144e-05 -1.5496276319026947e-05 0.0 0.0 0.0 0.0
1.816 -0.4532937705516815 -0.6789220571517944 -4.752539098262787e-06 8.773989975452423e-06 0.0 0.0 0.0 0.0
1.817 -0.45521634817123413 -0.6775174736976624 1.4657154679298401e-05 -1.6936101019382477e-05 0.0 0.0 0.0 0.0
1.818 -0.4559118151664734 -0.6770479083061218 2.4009495973587036e-06 3.8929283618927e-06 0.0 0.0 0.0 0.0
1.819 -0.4565719962120056 -0.6726312041282654 -3.246869891881943e-05 -1.19796022772789e-05 0.0 0.0 0.0 0.0
1.82 -0.459530770778656 -0.6730772852897644 -7.663853466510773e-06 -6.854534149169922e-07 0.0 0.0 0.0 0.0
1.821 -0.45798665285110474 -0.6727417707443237 -1.631304621696472e-05 2.6495195925235748e-05 0.0 0.0 0.0 0.0
1.822 -0.45962008833885193 -0.6736371517181396 -1.5933066606521606e-05 1.4211051166057587e-05 0.0 0.0 0.0 0.0
1.823 -0.46317949891090393 -0.6695595979690552 3.4139491617679596e-05 1.0981224477291107e-05 0.0 0.0 0.0 0.0
1.824 -0.465717077255249 -0.6675684452056885 1.7294660210609436e-05 2.469867467880249e-05 0.0 0.0 0.0 0.0
1.825 -0.4623039960861206 -0.6651400923728943 -3.986712545156479e-05 -3.026612102985382e-05 0.0 0.0 0.0 0.0
1.826 -0.4646480977535248 -0.6652026772499084 -1.646764576435089e-05 -1.4269724488258362e-05 0.0 0.0 0.0 0.0
1.827 -0.4613002836704254 -0.6665761470794678 -1.273956149816513e-05 -7.197260856628418e-06 0.0 0.0 0.0 0.0
1.828 -0.4677138924598694 -0.6634345650672913 1.7976388335227966e-05 2.2594816982746124e-05 0.0 0.0 0.0 0.0
1.829 -0.465863972902298 -0.6618809103965759 1.981109380722046e-05 -1.830514520406723e-05 0.0 0.0 0.0 0.0
1.83 -0.46233123540878296 -0.6632432341575623 -1.3985671103000641e-05 -2.679973840713501e-05 0.0 0.0 0.0 0.0
1.831 -0.4668795168399811 -0.6624866724014282 1.5618279576301575e-06 2.6188790798187256e-06 0.0 0.0 0.0 0.0
1.832 -0.46489009261131287 -0.6608722805976868 1.2950971722602844e-05 -2.263672649860382e-05 0.0 0.0 0.0 0.0
1.833 -0.46345406770706177 -0.6592180132865906 -2.4959444999694824e-07 -1.1152587831020355e-05 0.0 0.0 0.0 0.0
1.834 -0.46538445353507996 -0.6587784290313721 2.2965483367443085e-05 -4.8140063881874084e-06 0.0 0.0 0.0 0.0
1.835 -0.4648178219795227 -0.6601395606994629 1.3227574527263641e-05 -1.3066455721855164e-05 0.0 0.0 0.0 0.0
1.836 -0.46625980734825134 -0.6627222895622253 -4.532746970653534e-06 -9.317882359027863e-06 0.0 0.0 0.0 0.0
1.837 -0.46765655279159546 -0.6613670587539673 2.3849308490753174e-05 -5.044043064117432e-06 0.0 0.0 0.0 0.0
1.838 -0.46890246868133545 -0.6603562831878662 2.976786345243454e-05 -3.4304335713386536e-05 0.0 0.0 0.0 0.0
1.839 -0.46976369619369507 -0.659538209438324 1.450907438993454e-05 1.3059936463832855e-05 0.0 0.0 0.0 0.0
1.84 -0.469331294298172 -0.6592699289321899 -1.751445233821869e-05 2.1578744053840637e-06 0.0 0.0 0.0 0.0
1.841 -0.4731139838695526 -0.6601155996322632 -4.314817488193512e-06 -3.6973506212234497e-07 0.0 0.0 0.0 0.0
1.842 -0.470280259847641 -0.6609984040260315 -1.5419907867908478e-05 -1.8037855625152588e-05 0.0 0.0 0.0 0.0
1.843 -0.47548672556877136 -0.6579023599624634 7.031485438346863e-06 3.9422884583473206e-06 0.0 0.0 0.0 0.0
1.844 -0.4760134220123291 -0.6596711277961731 2.3012980818748474e-05 1.514330506324768e-06 0.0 0.0 0.0 0.0
1.845 -0.47918251156806946 -0.6561901569366455 -2.546049654483795e-05 -6.444752216339111e-06 0.0 0.0 0.0 0.0
1.846 -0.48008331656455994 -0.6593801975250244 3.245007246732712e-05 -3.5645440220832825e-05 0.0 0.0 0.0 0.0
1.847 -0.48237231373786926 -0.6558957099914551 -1.842435449361801e-05 -2.5911256670951843e-05 0.0 0.0 0.0 0.0
1.848 -0.4874182343482971 -0.6577296257019043 9.127892553806305e-06 -2.294778823852539e-06 0.0 0.0 0.0 0.0
1.849 -0.4874097406864166 -0.6505593061447144 -3.60291451215744e-05 -1.0538846254348755e-05 0.0 0.0 0.0 0.0
1.85 -0.48531070351600647 -0.6546000242233276 1.0263174772262573e-06 -5.0819478929042816e-05 0.0 0.0 0.0 0.0
1.851 -0.48690560460090637 -0.6531881093978882 -2.0058825612068176e-05 -1.1636875569820404e-05 0.0 0.0 0.0 0.0
1.852 -0.48831668496131897 -0.6531201601028442 1.7687678337097168e-05 -2.106092870235443e-05 0.0 0.0 0.0 0.0
1.853 -0.49003666639328003 -0.6508510708808899 1.9455328583717346e-06 -3.846827894449234e-05 0.0 0.0 0.0 0.0
1.854 -0.49064183235168457 -0.6501279473304749 3.919005393981934e-06 1.1339783668518066e-05 0.0 0.0 0.0 0.0
1.855 -0.49259915947914124 -0.6480678915977478 -1.8541701138019562e-05 -5.582347512245178e-06 0.0 0.0 0.0 0.0
1.856 -0.49338236451148987 -0.6477868556976318 1.2958422303199768e-05 -9.152106940746307e-06 0.0 0.0 0.0 0.0
1.857 -0.4953547716140747 -0.6473345756530762 -1.118052750825882e-05 -2.7982518076896667e-05 0.0 0.0 0.0 0.0
1.858 -0.4943688213825226 -0.6494324803352356 2.151820808649063e-05 -1.8287450075149536e-05 0.0 0.0 0.0 0.0
1.859 -0.49803367257118225 -0.6450971364974976 4.2683444917201996e-05 -2.6399269700050354e-05 0.0 0.0 0.0 0.0
1.86 -0.4956945776939392 -0.6465681195259094 1.0620802640914917e-05 2.09147110581398e-05 0.0 0.0 0.0 0.0
1.861 -0.4998360574245453 -0.6470771431922913 -1.3403594493865967e-05 -4.851445555686951e-05 0.0 0.0 0.0 0.0
1.862 -0.5019054412841797 -0.6415738463401794 1.2324191629886627e-05 -3.429129719734192e-05 0.0 0.0 0.0 0.0
1.863 -0.5015972256660461 -0.6413764357566833 -2.393871545791626e-05 -2.9833056032657623e-05 0.0 0.0 0.0 0.0
1.864 -0.5058982968330383 -0.6389929056167603 -3.7783756852149963e-06 6.625428795814514e-06 0.0 0.0 0.0 0.0
1.865 -0.5080595016479492 -0.6379261016845703 1.0196119546890259e-05 -7.236376404762268e-06 0.0 0.0 0.0 0.0
1.866 -0.5064243078231812 -0.638724684715271 4.011206328868866e-06 -1.2442469596862793e-06 0.0 0.0 0.0 0.0
1.867 -0.5094611644744873 -0.6364978551864624 2.1206215023994446e-06 -3.246963024139404e-05 0.0 0.0 0.0 0.0
1.868 -0.5072313547134399 -0.6373972296714783 1.2246891856193542e-06 -2.1473504602909088e-05 0.0 0.0 0.0 0.0
1.869 -0.5103338956832886 -0.6343160271644592 -1.860782504081726e-05 -1.596938818693161e-05 0.0 0.0 0.0 0.0
1.87 -0.506554365158081 -0.6390867829322815 -3.645196557044983e-06 -5.622394382953644e-06 0.0 0.0 0.0 0.0
1.871 -0.5115789771080017 -0.6342440247535706 -2.1647661924362183e-05 1.5087425708770752e-06 0.0 0.0 0.0 0.0
1.872 -0.5166968703269958 -0.6385421752929688 6.2193721532821655e-06 -1.622457057237625e-05 0.0 0.0 0.0 0.0
1.873 -0.5145217180252075 -0.6305696964263916 -2.524442970752716e-05 1.2682750821113586e-05 0.0 0.0 0.0 0.0
1.874 -0.5165122151374817 -0.6305721402168274 3.1674280762672424e-06 1.3731420040130615e-05 0.0 0.0 0.0 0.0
1.875 -0.5175984501838684 -0.6291208863258362 8.828938007354736e-07 -2.1857209503650665e-05 0.0 0.0 0.0 0.0
1.876 -0.5162837505340576 -0.6336238384246826 7.917173206806183e-06 1.1730939149856567e-05 0.0 0.0 0.0 0.0
1.877 -0.5200474262237549 -0.6278665661811829 -1.3214536011219025e-05 -2.0420178771018982e-05 0.0 0.0 0.0 0.0
1.878 -0.5210830569267273 -0.6270047426223755 1.3628974556922913e-05 8.64267349243164e-06 0.0 0.0 0.0 0.0
1.879 -0.5214248895645142 -0.6301869750022888 -3.7212856113910675e-05 -1.3260170817375183e-05 0.0 0.0 0.0 0.0
1.88 -0.5246295928955078 -0.6248278617858887 -1.671724021434784e-06 2.9801391065120697e-05 0.0 0.0 0.0 0.0
1.881 -0.5252493619918823 -0.6243610978126526 9.852461516857147e-06 5.3299590945243835e-06 0.0 0.0 0.0 0.0
1.882 -0.525596559047699 -0.6243825554847717 3.615673631429672e-05 -1.4166347682476044e-05 0.0 0.0 0.0 0.0
1.883 -0.5272217392921448 -0.6219634413719177 -3.411341458559036e-05 -8.638948202133179e-06 0.0 0.0 0.0 0.0
1.884 -0.524894118309021 -0.6242945790290833 -1.558847725391388e-05 2.4314969778060913e-05 0.0 0.0 0.0 0.0
1.885 -0.5278010368347168 -0.6191717386245728 1.5412457287311554e-05 9.978190064430237e-06 0.0 0.0 0.0 0.0
1.886 -0.5299738645553589 -0.6185480356216431 2.05356627702713e-05 -1.1875294148921967e-05 0.0 0.0 0.0 0.0
1.887 -0.533230185508728 -0.6164717078208923 2.1653249859809875e-06 -2.3554079234600067e-05 0.0 0.0 0.0 0.0
1.888 -0.5287626385688782 -0.6198959350585938 5.696900188922882e-06 -5.53373247385025e-05 0.0 0.0 0.0 0.0
1.889 -0.5347848534584045 -0.6151847839355469 7.06501305103302e-06 -4.120636731386185e-05 0.0 0.0 0.0 0.0
1.89 -0.5348824262619019 -0.6136692762374878 7.860362529754639e-07 -3.213062882423401e-05 0.0 0.0 0.0 0.0
1.891 -0.5352299809455872 -0.6137570738792419 3.51807102560997e-05 -1.2361444532871246e-05 0.0 0.0 0.0 0.0
1.892 -0.53806072473526 -0.6112281084060669 -1.924671232700348e-05 1.8322840332984924e-05 0.0 0.0 0.0 0.0
1.893 -0.5354477167129517 -0.6138322353363037 -1.0533258318901062e-05 3.989133983850479e-05 0.0 0.0 0.0 0.0
1.894 -0.5406836271286011 -0.610234260559082 2.5948509573936462e-05 -3.991462290287018e-05 0.0 0.0 0.0 0.0
1.895 -0.5403687953948975 -0.6101076006889343 4.605390131473541e-06 -4.591885954141617e-05 0.0 0.0 0.0 0.0
1.896 -0.5439452528953552 -0.6130784749984741 -2.3556873202323914e-05 2.842862159013748e-05 0.0 0.0 0.0 0.0
1.897 -0.5456612706184387 -0.6018746495246887 -3.241188824176788e-05 -3.155320882797241e-05 0.0 0.0 0.0 0.0
1.898 -0.5426398515701294 -0.6076015830039978 7.31833279132843e-06 1.8120743334293365e-05 0.0 0.0 0.0 0.0
1.899 -0.544394314289093 -0.6067950129508972 5.655921995639801e-06 7.926486432552338e-06 0.0 0.0 0.0 0.0
1.9 -0.5466059446334839 -0.6018525958061218 2.3907050490379333e-06 1.2498348951339722e-05 0.0 0.0 0.0 0.0
1.901 -0.5481830835342407 -0.6040205359458923 2.4677254259586334e-05 1.8219463527202606e-05 0.0 0.0 0.0 0.0
1.902 -0.5480486154556274 -0.6033372282981873 2.0215287804603577e-05 -2.5214627385139465e-05 0.0 0.0 0.0 0.0
1.903 -0.5510438680648804 -0.6012104153633118 2.00001522898674e-05 1.3686716556549072e-05 0.0 0.0 0.0 0.0
1.904 -0.550234854221344 -0.6003061532974243 1.7494894564151764e-05 1.9222497940063477e-06 0.0 0.0 0.0 0.0
1.905 -0.5506324768066406 -0.6003454923629761 -1.9232742488384247e-05 -2.3348256945610046e-05 0.0 0.0 0.0 0.0
1.906 -0.5562231540679932 -0.6000903248786926 -7.388181984424591e-06 -6.011687219142914e-06 0.0 0.0 0.0 0.0
1.907 -0.5534354448318481 -0.5983750224113464 -7.2801485657691956e-06 -4.08003106713295e-05 0.0 0.0 0.0 0.0
1.908 -0.5532790422439575 -0.5981435179710388 3.755558282136917e-05 1.803971827030182e-05 0.0 0.0 0.0 0.0
1.909 -0.555637538433075 -0.5930608510971069 -1.7719343304634094e-05 -2.8330832719802856e-06 0.0 0.0 0.0 0.0
1.91 -0.5578112006187439 -0.595426619052887 9.406358003616333e-06 -3.330036997795105e-05 0.0 0.0 0.0 0.0
1.911 -0.5588619112968445 -0.5921096205711365 -4.4638291001319885e-06 8.841045200824738e-06 0.0 0.0 0.0 0.0
1.912 -0.5623096823692322 -0.5910097360610962 3.5647302865982056e-05 -5.271285772323608e-07 0.0 0.0 0.0 0.0
1.913 -0.5616534352302551 -0.5904483795166016 4.355795681476593e-06 -3.9256177842617035e-05 0.0 0.0 0.0 0.0
1.914 -0.5656002163887024 -0.5887190699577332 2.0452775061130524e-05 -1.4298595488071442e-05 0.0 0.0 0.0 0.0
1.915 -0.565157413482666 -0.5853756070137024 -2.278946340084076e-05 -3.490224480628967e-05 0.0 0.0 0.0 0.0
1.916 -0.5647261142730713 -0.5874632000923157 3.363192081451416e-05 -3.939960151910782e-05 0.0 0.0 0.0 0.0
1.917 -0.5677109360694885 -0.5850489735603333 -2.2212043404579163e-05 3.314763307571411e-05 0.0 0.0 0.0 0.0
1.918 -0.563099205493927 -0.5834830403327942 1.1824071407318115e-05 3.1781382858753204e-05 0.0 0.0 0.0 0.0
1.919 -0.5678051114082336 -0.5843752026557922 -5.459412932395935e-06 -4.462897777557373e-06 0.0 0.0 0.0 0.0
1.92 -0.5681024789810181 -0.5869150757789612 -1.2709759175777435e-05 3.75090166926384e-05 0.0 0.0 0.0 0.0
1.921 -0.5704209208488464 -0.5808777809143066 4.637986421585083e-07 -4.8741698265075684e-05 0.0 0.0 0.0 0.0
1.922 -0.5701995491981506 -0.5812946557998657 -1.8728896975517273e-06 7.236376404762268e-07 0.0 0.0 0.0 0.0
1.923 -0.5752121210098267 -0.5775535702705383 -4.639569669961929e-05 2.8155744075775146e-05 0.0 0.0 0.0 0.0
1.924 -0.5754085779190063 -0.5807313919067383 1.622270792722702e-05 -6.575137376785278e-07 0.0 0.0 0.0 0.0
1.925 -0.5762331485748291 -0.5766452550888062 -2.097245305776596e-05 3.291759639978409e-05 0.0 0.0 0.0 0.0
1.926 -0.5766399502754211 -0.5753381252288818 3.3629126846790314e-05 8.079223334789276e-06 0.0 0.0 0.0 0.0
1.927 -0.5780523419380188 -0.5775377750396729 1.7239712178707123e-05 2.5389716029167175e-05 0.0 0.0 0.0 0.0
1.928 -0.5816262364387512 -0.5720821619033813 -2.1204352378845215e-05 -2.2050924599170685e-05 0.0 0.0 0.0 0.0
1.929 -0.5801761746406555 -0.5740402936935425 1.0007992386817932e-05 -5.868729203939438e-05 0.0 0.0 0.0 0.0
1.93 -0.581291139125824 -0.5705237984657288 7.767230272293091e-07 3.753136843442917e-05 0.0 0.0 0.0 0.0
1.931 -0.5838369727134705 -0.5685379505157471 5.360785871744156e-05 -6.898306310176849e-06 0.0 0.0 0.0 0.0
1.932 -0.5808577537536621 -0.5698380470275879 -2.252589911222458e-05 -1.7833895981311798e-05 0.0 0.0 0.0 0.0
1.933 -0.5846376419067383 -0.5679156184196472 -2.987682819366455e-06 1.1685304343700409e-05 0.0 0.0 0.0 0.0
1.934 -0.5876532196998596 -0.565727710723877 4.349276423454285e-06 2.4195760488510132e-05 0.0 0.0 0.0 0.0
1.935 -0.5870272517204285 -0.5665924549102783 -5.7248398661613464e-06 3.332272171974182e-06 0.0 0.0 0.0 0.0
1.936 -0.5913808941841125 -0.5621342658996582 1.63959339261055e-05 2.0759180188179016e-06 0.0 0.0 0.0 0.0
1.937 -0.5894717574119568 -0.5627267360687256 1.3457611203193665e-06 -4.3264590203762054e-05 0.0 0.0 0.0 0.0
1.938 -0.5927349925041199 -0.5617154240608215 3.504659980535507e-05 -3.355555236339569e-05 0.0 0.0 0.0 0.0
1.939 -0.5948611497879028 -0.5584978461265564 2.3997388780117035e-05 -1.3486482203006744e-05 0.0 0.0 0.0 0.0
1.94 -0.5943781733512878 -0.5573756098747253 2.6431865990161896e-05 6.551854312419891e-06 0.0 0.0 0.0 0.0
1.941 -0.5946354866027832 -0.556279718875885 -2.097897231578827e-05 2.269633114337921e-06 0.0 0.0 0.0 0.0
1.942 -0.5963166356086731 -0.5579715371131897 -1.010112464427948e-05 -7.384456694126129e-06 0.0 0.0 0.0 0.0
1.943 -0.5985497236251831 -0.5546298027038574 -9.372830390930176e-06 -1.1160969734191895e-05 0.0 0.0 0.0 0.0
1.944 -0.5945312976837158 -0.5594188570976257 1.972448080778122e-05 -3.240164369344711e-05 0.0 0.0 0.0 0.0
1.945 -0.6009557843208313 -0.5515120625495911 -3.442913293838501e-05 -4.3286941945552826e-05 0.0 0.0 0.0 0.0
1.946 -0.6016948819160461 -0.550768256187439 -1.0854564607143402e-05 -2.989545464515686e-07 0.0 0.0 0.0 0.0
1.947 -0.6014800667762756 -0.5508436560630798 1.970771700143814e-05 -3.743451088666916e-05 0.0 0.0 0.0 0.0
1.948 -0.6045950651168823 -0.5483912825584412 1.395493745803833e-05 -2.10590660572052e-05 0.0 0.0 0.0 0.0
1.949 -0.6045476794242859 -0.5478747487068176 2.9307790100574493e-05 2.678483724594116e-06 0.0 0.0 0.0 0.0
1.95 -0.6053484082221985 -0.5446243286132812 -2.2911466658115387e-05 -2.0684674382209778e-06 0.0 0.0 0.0 0.0
1.951 -0.6061035394668579 -0.5462015867233276 -1.9455328583717346e-05 1.0658055543899536e-05 0.0 0.0 0.0 0.0
1.952 -0.6069443225860596 -0.5452678799629211 3.6345794796943665e-05 -1.5053898096084595e-05 0.0 0.0 0.0 0.0
1.953 -0.6096842885017395 -0.5417220592498779 -1.3971701264381409e-05 -6.817281246185303e-07 0.0 0.0 0.0 0.0
1.954 -0.6113424301147461 -0.5442013144493103 -1.8176622688770294e-05 2.834014594554901e-06 0.0 0.0 0.0 0.0
1.955 -0.6107908487319946 -0.5399874448776245 -1.2850388884544373e-05 -2.689473330974579e-05 0.0 0.0 0.0 0.0
1.956 -0.6114447712898254 -0.5345349311828613 7.786788046360016e-06 1.4168210327625275e-05 0.0 0.0 0.0 0.0
1.957 -0.6158307790756226 -0.5365269780158997 2.2280961275100708e-05 1.3110227882862091e-05 0.0 0.0 0.0 0.0
1.958 -0.6149070858955383 -0.5361578464508057 -1.2207776308059692e-05 5.94649463891983e-06 0.0 0.0 0.0 0.0
1.959 -0.6174334287643433 -0.5348272919654846 1.6658566892147064e-05 1.345854252576828e-05 0.0 0.0 0.0 0.0
1.96 -0.6169803738594055 -0.5354269742965698 1.4037825167179108e-05 1.362338662147522e-05 0.0 0.0 0.0 0.0
1.961 -0.6181150674819946 -0.5312139391899109 -1.014024019241333e-05 -3.53250652551651e-06 0.0 0.0 0.0 0.0
1.962 -0.6207906007766724 -0.5307739973068237 9.47713851928711e-06 -2.1639280021190643e-05 0.0 0.0 0.0 0.0
1.963 -0.6207806468009949 -0.5294086933135986 1.0313466191291809e-05 9.645707905292511e-06 0.0 0.0 0.0 0.0
1.964 -0.623903751373291 -0.5261841416358948 4.5634806156158447e-07 -1.5387311577796936e-05 0.0 0.0 0.0 0.0
1.965 -0.6245226860046387 -0.5259850025177002 -1.5828758478164673e-05 3.794580698013306e-05 0.0 0.0 0.0 0.0
1.966 -0.6284737586975098 -0.5265476703643799 4.053395241498947e-05 3.888271749019623e-06 0.0 0.0 0.0 0.0
1.967 -0.626481294631958 -0.5244593620300293 1.208484172821045e-05 2.3595988750457764e-05 0.0 0.0 0.0 0.0
1.968 -0.6246013045310974 -0.5211986303329468 -1.7462298274040222e-06 -2.1741725504398346e-05 0.0 0.0 0.0 0.0
1.969 -0.627009391784668 -0.5214092135429382 2.3028813302516937e-05 -2.1627172827720642e-05 0.0 0.0 0.0 0.0
1.97 -0.630554735660553 -0.518267035484314 2.6348046958446503e-05 -2.6413239538669586e-05 0.0 0.0 0.0 0.0
1.971 -0.6300743818283081 -0.5207326412200928 4.4053420424461365e-05 4.894472658634186e-05 0.0 0.0 0.0 0.0
1.972 -0.6301539540290833 -0.5167743563652039 -2.1354295313358307e-05 4.004687070846558e-06 0.0 0.0 0.0 0.0
1.973 -0.634164035320282 -0.515497624874115 2.614874392747879e-05 -5.909428000450134e-05 0.0 0.0 0.0 0.0
1.974 -0.633611261844635 -0.5143609046936035 8.799135684967041e-06 2.276431769132614e-05 0.0 0.0 0.0 0.0
1.975 -0.6344785690307617 -0.5099369287490845 1.3095326721668243e-05 3.0230730772018433e-06 0.0 0.0 0.0 0.0
1.976 -0.6360201239585876 -0.5122606158256531 3.976747393608093e-07 -2.0191073417663574e-05 0.0 0.0 0.0 0.0
1.977 -0.6375641226768494 -0.5107134580612183 1.7103739082813263e-05 -4.451721906661987e-06 0.0 0.0 0.0 0.0
1.978 -0.6408379077911377 -0.508237361907959 2.828054130077362e-05 1.2210570275783539e-05 0.0 0.0 0.0 0.0
1.979 -0.6412040591239929 -0.507530152797699 3.27136367559433e-05 1.4761462807655334e-05 0.0 0.0 0.0 0.0
1.98 -0.6447901129722595 -0.5093371868133545 3.5176053643226624e-05 -7.734633982181549e-06 0.0 0.0 0.0 0.0
1.981 -0.6429870128631592 -0.505056619644165 3.041233867406845e-05 -1.676846295595169e-05 0.0 0.0 0.0 0.0
1.982 -0.6442813873291016 -0.5034136772155762 2.5686807930469513e-05 -2.8499402105808258e-05 0.0 0.0 0.0 0.0
1.983 -0.644655704498291 -0.5028185844421387 2.0934268832206726e-05 1.9723549485206604e-05 0.0 0.0 0.0 0.0
1.984 -0.6454688310623169 -0.497270405292511 -1.739244908094406e-05 -2.212170511484146e-05 0.0 0.0 0.0 0.0
1.985 -0.6487971544265747 -0.49843519926071167 3.291945904493332e-05 -2.6164576411247253e-05 0.0 0.0 0.0 0.0
1.986 -0.6469246745109558 -0.49896320700645447 1.948140561580658e-05 -3.505311906337738e-05 0.0 0.0 0.0 0.0
1.987 -0.6512818336486816 -0.4947969615459442 9.75094735622406e-07 4.120171070098877e-06 0.0 0.0 0.0 0.0
1.988 -0.6512633562088013 -0.4935010075569153 7.97957181930542e-06 1.3901852071285248e-05 0.0 0.0 0.0 0.0
1.989 -0.6523357629776001 -0.49141839146614075 -1.3485550880432129e-06 3.951601684093475e-06 0.0 0.0 0.0 0.0
1.99 -0.6533591151237488 -0.4910612404346466 -2.3144297301769257e-05 -3.026798367500305e-06 0.0 0.0 0.0 0.0
1.991 -0.6545391082763672 -0.4902631640434265 5.595386028289795e-06 -2.705305814743042e-05 0.0 0.0 0.0 0.0
1.992 -0.6552539467811584 -0.4865497648715973 2.1646730601787567e-05 3.448408097028732e-05 0.0 0.0 0.0 0.0
1.993 -0.6579601168632507 -0.48268136382102966 -1.6172416508197784e-05 -1.344829797744751e-05 0.0 0.0 0.0 0.0
1.994 -0.6572360396385193 -0.4874688386917114 3.139488399028778e-06 9.055249392986298e-06 0.0 0.0 0.0 0.0
1.995 -0.6599668860435486 -0.48337432742118835 -1.636706292629242e-05 -1.5558674931526184e-05 0.0 0.0 0.0 0.0
1.996 -0.661327064037323 -0.48049095273017883 3.252178430557251e-05 -2.6949681341648102e-05 0.0 0.0 0.0 0.0
1.997 -0.6621455550193787 -0.47885531187057495 -9.590759873390198e-06 8.046627044677734e-07 0.0 0.0 0.0 0.0
1.998 -0.6613430380821228 -0.4786616563796997 -6.356276571750641e-06 -1.0198913514614105e-05 0.0 0.0 0.0 0.0
1.999 -0.6661123633384705 -0.47403258085250854 -1.3224780559539795e-05 -1.979060471057892e-06 0.0 0.0 0.0 0.0
2.0 -0.6631183624267578 -0.4785555303096771 4.1833147406578064e-05 -3.914441913366318e-05 0.0 0.0 0.0 0.0
2.001 -0.6670241355895996 -0.4717523157596588 9.441748261451721e-06 3.57823446393013e-05 0.0 0.0 0.0 0.0
2.002 -0.6650140881538391 -0.4715211093425751 1.3391487300395966e-05 -5.218572914600372e-05 0.0 0.0 0.0 0.0
2.003 -0.6703975796699524 -0.46784088015556335 2.3116357624530792e-05 -3.496464341878891e-05 0.0 0.0 0.0 0.0
2.004 -0.6703334450721741 -0.47202908992767334 -3.906898200511932e-06 -2.3772940039634705e-05 0.0 0.0 0.0 0.0
2.005 -0.6697268486022949 -0.4660158157348633 1.1811032891273499e-05 -4.505366086959839e-05 0.0 0.0 0.0 0.0
2.006 -0.6719439029693604 -0.46440646052360535 4.893168807029724e-06 7.565133273601532e-06 0.0 0.0 0.0 0.0
2.007 -0.6733030080795288 -0.4637063145637512 1.0672025382518768e-05 -3.1264498829841614e-05 0.0 0.0 0.0 0.0
2.008 -0.6751347184181213 -0.4625813066959381 3.1944364309310913e-07 -2.545025199651718e-05 0.0 0.0 0.0 0.0
2.009 -0.6737942695617676 -0.46091049909591675 -4.821456968784332e-06 -1.4225021004676819e-05 0.0 0.0 0.0 0.0
2.01 -0.6767981648445129 -0.4583842158317566 4.632864147424698e-05 -6.761401891708374e-07 0.0 0.0 0.0 0.0
2.011 -0.6744168400764465 -0.4596419036388397 -1.902598887681961e-05 -1.5174038708209991e-05 0.0 0.0 0.0 0.0
2.012 -0.6779988408088684 -0.45556819438934326 2.9167160391807556e-05 -3.5064294934272766e-06 0.0 0.0 0.0 0.0
2.013 -0.6793768405914307 -0.45193958282470703 -2.0726583898067474e-05 -3.621913492679596e-05 0.0 0.0 0.0 0.0
2.014 -0.6814365983009338 -0.4494628608226776 2.2658146917819977e-05 -1.448206603527069e-06 0.0 0.0 0.0 0.0
2.015 -0.6799800992012024 -0.4490385949611664 3.0337832868099213e-05 -1.605600118637085e-06 0.0 0.0 0.0 0.0
2.016 -0.6820947527885437 -0.44415730237960815 -1.9997358322143555e-05 -1.2530945241451263e-05 0.0 0.0 0.0 0.0
2.017 -0.6802865266799927 -0.4450853765010834 -2.8265640139579773e-06 -8.288770914077759e-08 0.0 0.0 0.0 0.0
2.018 -0.681689441204071 -0.44345957040786743 1.598801463842392e-05 -3.1128525733947754e-05 0.0 0.0 0.0 0.0
2.019 -0.6803723573684692 -0.444486141204834 2.4362467229366302e-05 -3.2403506338596344e-05 0.0 0.0 0.0 0.0
2.02 -0.6821082830429077 -0.43901750445365906 2.7752481400966644e-05 -4.1653402149677277e-05 0.0 0.0 0.0 0.0
2.021 -0.6832107901573181 -0.4382762312889099 -2.9928982257843018e-05 5.076639354228973e-06 0.0 0.0 0.0 0.0
2.022 -0.6822044849395752 -0.4389721751213074 4.522223025560379e-05 -2.7128495275974274e-05 0.0 0.0 0.0 0.0
2.023 -0.6818720698356628 -0.44044753909111023 4.363246262073517e-05 7.140450179576874e-06 0.0 0.0 0.0 0.0
2.024 -0.6839799284934998 -0.4357718825340271 2.761557698249817e-05 -3.5181641578674316e-05 0.0 0.0 0.0 0.0
2.025 -0.6827383041381836 -0.43549996614456177 4.399847239255905e-05 -1.7830170691013336e-05 0.0 0.0 0.0 0.0
2.026 -0.6829943656921387 -0.4363088309764862 1.558009535074234e-05 -1.5513040125370026e-05 0.0 0.0 0.0 0.0
2.027 -0.6861530542373657 -0.4342840015888214 1.832377165555954e-05 7.351860404014587e-06 0.0 0.0 0.0 0.0
2.028 -0.6859703063964844 -0.43415147066116333 1.1826865375041962e-05 5.122274160385132e-08 0.0 0.0 0.0 0.0
2.029 -0.6873961687088013 -0.43368858098983765 6.620772182941437e-06 -2.1437183022499084e-05 0.0 0.0 0.0 0.0
2.03 -0.6902592778205872 -0.4318312406539917 8.227303624153137e-06 -7.295981049537659e-06 0.0 0.0 0.0 0.0
2.031 -0.6914043426513672 -0.4313192665576935 1.6159377992153168e-05 -2.5954097509384155e-05 0.0 0.0 0.0 0.0
2.032 -0.6915448904037476 -0.4341917932033539 -4.489906132221222e-06 -2.163182944059372e-05 0.0 0.0 0.0 0.0
2.033 -0.6952130794525146 -0.42952761054039 1.7249025404453278e-05 -3.0501745641231537e-05 0.0 0.0 0.0 0.0
2.034 -0.6958709359169006 -0.43026623129844666 3.346987068653107e-05 -4.476960748434067e-05 0.0 0.0 0.0 0.0
2.035 -0.6962204575538635 -0.42788946628570557 1.5606172382831573e-05 -3.012176603078842e-05 0.0 0.0 0.0 0.0
2.036 -0.699670135974884 -0.42412087321281433 -1.562107354402542e-05 -3.217998892068863e-05 0.0 0.0 0.0 0.0
2.037 -0.6998046636581421 -0.42515695095062256 -2.2836029529571533e-06 -2.6353634893894196e-05 0.0 0.0 0.0 0.0
2.038 -0.7018491625785828 -0.42471426725387573 -2.1955929696559906e-05 7.664784789085388e-06 0.0 0.0 0.0 0.0
2.039 -0.704918384552002 -0.4193682074546814 -1.8281862139701843e-05 -2.904888242483139e-05 0.0 0.0 0.0 0.0
2.04 -0.7055652737617493 -0.41903504729270935 7.780268788337708e-06 -1.5239231288433075e-05 0.0 0.0 0.0 0.0
2.041 -0.7079143524169922 -0.4184522032737732 1.387856900691986e-05 -5.825608968734741e-05 0.0 0.0 0.0 0.0
2.042 -0.7079924941062927 -0.41661596298217773 -1.4821067452430725e-05 1.0941177606582642e-05 0.0 0.0 0.0 0.0
2.043 -0.7089263796806335 -0.4158318042755127 -2.8127804398536682e-05 -2.3894011974334717e-05 0.0 0.0 0.0 0.0
2.044 -0.7095009088516235 -0.4132559299468994 2.6794150471687317e-06 -3.0977651476860046e-05 0.0 0.0 0.0 0.0
2.045 -0.7123744487762451 -0.41148829460144043 1.3185665011405945e-05 -2.9838643968105316e-05 0.0 0.0 0.0 0.0
2.046 -0.7130017280578613 -0.4096810817718506 3.6293640732765198e-06 1.5756115317344666e-05 0.0 0.0 0.0 0.0
2.047 -0.7150139212608337 -0.4075565040111542 1.3424083590507507e-05 -1.734308898448944e-05 0.0 0.0 0.0 0.0
2.048 -0.7155890464782715 -0.40649405121803284 2.2677704691886902e-05 -3.1433068215847015e-05 0.0 0.0 0.0 0.0
2.049 -0.7167755961418152 -0.4040563106536865 9.736977517604828e-06 -3.199838101863861e-05 0.0 0.0 0.0 0.0
2.05 -0.7200837731361389 -0.4027821719646454 1.0322779417037964e-05 2.0070932805538177e-05 0.0 0.0 0.0 0.0
2.051 -0.7183339595794678 -0.40328797698020935 -2.216547727584839e-06 3.518536686897278e-06 0.0 0.0 0.0 0.0
2.052 -0.7182453870773315 -0.40263429284095764 1.8540769815444946e-05 7.436610758304596e-06 0.0 0.0 0.0 0.0
2.053 -0.7242040038108826 -0.39812278747558594 -4.927627742290497e-06 -5.227513611316681e-05 0.0 0.0 0.0 0.0
2.054 -0.7224754691123962 -0.3971501886844635 2.4653971195220947e-05 -4.984438419342041e-06 0.0 0.0 0.0 0.0
2.055 -0.7226349115371704 -0.3954058289527893 -1.7276033759117126e-06 -4.335679113864899e-05 0.0 0.0 0.0 0.0
2.056 -0.7262477278709412 -0.3920760452747345 -1.4425255358219147e-05 -1.1497177183628082e-05 0.0 0.0 0.0 0.0
2.057 -0.7252664566040039 -0.3921704888343811 -7.7737495303154e-06 1.7080456018447876e-06 0.0 0.0 0.0 0.0
2.058 -0.726791262626648 -0.388655424118042 -7.772818207740784e-06 -1.894962042570114e-05 0.0 0.0 0.0 0.0
2.059 -0.7286832928657532 -0.38958120346069336 8.299015462398529e-06 -2.205837517976761e-05 0.0 0.0 0.0 0.0
2.06 -0.7289801239967346 -0.38698524236679077 -2.571195363998413e-05 -2.7682632207870483e-05 0.0 0.0 0.0 0.0
2.061 -0.7313710451126099 -0.3821697235107422 1.3154000043869019e-05 -1.0168179869651794e-05 0.0 0.0 0.0 0.0
2.062 -0.7293408513069153 -0.384666383266449 -3.1981617212295532e-06 -1.1290423572063446e-05 0.0 0.0 0.0 0.0
2.063 -0.7328547835350037 -0.3800467848777771 2.7087517082691193e-05 -2.806633710861206e-05 0.0 0.0 0.0 0.0
2.064 -0.7361515760421753 -0.3784847855567932 1.3061799108982086e-05 -2.5750137865543365e-05 0.0 0.0 0.0 0.0
2.065 -0.7343084812164307 -0.37651267647743225 1.2639909982681274e-05 -1.0326504707336426e-05 0.0 0.0 0.0 0.0
2.066 -0.7355471849441528 -0.375536173582077 -7.81472772359848e-06 -1.208484172821045e-05 0.0 0.0 0.0 0.0
2.067 -0.7375152707099915 -0.37416020035743713 -2.5527551770210266e-06 -3.82792204618454e-05 0.0 0.0 0.0 0.0
2.068 -0.7393680810928345 -0.37244099378585815 1.5273690223693848e-05 -3.6954879760742188e-06 0.0 0.0 0.0 0.0
2.069 -0.7390559315681458 -0.3695928752422333 -3.2940879464149475e-06 -2.2328458726406097e-05 0.0 0.0 0.0 0.0
2.07 -0.7410727739334106 -0.36745187640190125 1.7210841178894043e-06 -4.909932613372803e-06 0.0 0.0 0.0 0.0
2.071 -0.7403339743614197 -0.3663090765476227 2.086162567138672e-06 -1.2011267244815826e-05 0.0 0.0 0.0 0.0
2.072 -0.7427958250045776 -0.3641432821750641 5.245208740234375e-06 -1.0281801223754883e-06 0.0 0.0 0.0 0.0
2.073 -0.7432937622070312 -0.3620215058326721 2.732500433921814e-06 -2.080760896205902e-05 0.0 0.0 0.0 0.0
2.074 -0.7441356182098389 -0.3610231280326843 6.59748911857605e-06 -2.1832063794136047e-05 0.0 0.0 0.0 0.0
2.075 -0.7461053133010864 -0.35781624913215637 -6.1122700572013855e-06 -2.1616928279399872e-05 0.0 0.0 0.0 0.0
2.076 -0.747550904750824 -0.35519880056381226 -6.097368896007538e-06 -2.8808601200580597e-05 0.0 0.0 0.0 0.0
2.077 -0.7463852167129517 -0.3582582473754883 -2.619996666908264e-05 -4.521757364273071e-05 0.0 0.0 0.0 0.0
2.078 -0.7495216727256775 -0.3522169291973114 3.174878656864166e-05 -2.9521994292736053e-05 0.0 0.0 0.0 0.0
2.079 -0.7502179145812988 -0.3515814542770386 1.3805925846099854e-05 7.883645594120026e-06 0.0 0.0 0.0 0.0
2.08 -0.7498371005058289 -0.34945619106292725 -1.0378658771514893e-05 -3.0841678380966187e-05 0.0 0.0 0.0 0.0
2.081 -0.7521990537643433 -0.34775859117507935 1.8771737813949585e-05 -1.726299524307251e-05 0.0 0.0 0.0 0.0
2.082 -0.7530789375305176 -0.3481350541114807 5.972571671009064e-06 -1.6149133443832397e-06 0.0 0.0 0.0 0.0
2.083 -0.7553598880767822 -0.3431527614593506 5.884096026420593e-06 -6.35441392660141e-06 0.0 0.0 0.0 0.0
2.084 -0.7555467486381531 -0.3418498933315277 9.879469871520996e-06 -2.0723789930343628e-05 0.0 0.0 0.0 0.0
2.085 -0.7554717659950256 -0.3410302996635437 -5.599111318588257e-06 -1.4828518033027649e-05 0.0 0.0 0.0 0.0
2.086 -0.756413459777832 -0.3370431661605835 -1.4777295291423798e-05 1.1787749826908112e-05 0.0 0.0 0.0 0.0
2.087 -0.7597812414169312 -0.3331782817840576 -7.438473403453827e-06 -1.3739801943302155e-05 0.0 0.0 0.0 0.0
2.088 -0.7577016949653625 -0.3385075628757477 1.2123025953769684e-05 -2.0452775061130524e-05 0.0 0.0 0.0 0.0
2.089 -0.7599853873252869 -0.33306780457496643 -1.8326565623283386e-05 -7.633119821548462e-06 0.0 0.0 0.0 0.0
2.09 -0.761307954788208 -0.33166274428367615 -5.00120222568512e-06 3.1851232051849365e-06 0.0 0.0 0.0 0.0
2.091 -0.7617216110229492 -0.32977432012557983 4.272162914276123e-05 -1.561921089887619e-05 0.0 0.0 0.0 0.0
2.092 -0.7632397413253784 -0.328063428401947 -4.44706529378891e-06 -9.509734809398651e-06 0.0 0.0 0.0 0.0
2.093 -0.7649646997451782 -0.3249521255493164 -1.1472031474113464e-05 -7.972121238708496e-07 0.0 0.0 0.0 0.0
2.094 -0.7630780339241028 -0.32703322172164917 -4.2282044887542725e-07 -2.822745591402054e-05 0.0 0.0 0.0 0.0
2.095 -0.7657746076583862 -0.32255715131759644 3.887154161930084e-05 -2.304092049598694e-05 0.0 0.0 0.0 0.0
2.096 -0.7676411867141724 -0.3195129632949829 -2.4782493710517883e-06 1.0363757610321045e-05 0.0 0.0 0.0 0.0
2.097 -0.7674341201782227 -0.3192611634731293 -7.352791726589203e-06 1.903623342514038e-06 0.0 0.0 0.0 0.0
2.098 -0.7679453492164612 -0.31772342324256897 7.296912372112274e-06 -4.937872290611267e-05 0.0 0.0 0.0 0.0
2.099 -0.7703374624252319 -0.3132667541503906 1.2093223631381989e-05 -3.96091490983963e-06 0.0 0.0 0.0 0.0
2.1 -0.7708343267440796 -0.31110236048698425 -1.6300007700920105e-05 -1.206621527671814e-05 0.0 0.0 0.0 0.0
2.101 -0.7726656198501587 -0.3093701899051666 1.1436641216278076e-06 -1.4715828001499176e-05 0.0 0.0 0.0 0.0
2.102 -0.7719904780387878 -0.31015151739120483 3.499165177345276e-05 2.773478627204895e-06 0.0 0.0 0.0 0.0
2.103 -0.7730926275253296 -0.3081017732620239 -4.5085325837135315e-06 -9.957700967788696e-06 0.0 0.0 0.0 0.0
2.104 -0.7746505737304688 -0.3037683665752411 -9.401701390743256e-06 -9.898096323013306e-06 0.0 0.0 0.0 0.0
2.105 -0.7747671008110046 -0.3043089509010315 2.1532177925109863e-05 -1.083221286535263e-05 0.0 0.0 0.0 0.0
2.106 -0.776214063167572 -0.3012678325176239 1.452956348657608e-05 -2.612639218568802e-05 0.0 0.0 0.0 0.0
2.107 -0.7777754068374634 -0.29845020174980164 -1.5245750546455383e-06 -2.5179237127304077e-05 0.0 0.0 0.0 0.0
2.108 -0.7773758769035339 -0.2995905876159668 -8.177943527698517e-06 2.292916178703308e-06 0.0 0.0 0.0 0.0
2.109 -0.7784972190856934 -0.2946958839893341 -1.403316855430603e-05 -9.899027645587921e-06 0.0 0.0 0.0 0.0
2.11 -0.7801347970962524 -0.2951342463493347 5.200505256652832e-06 -3.545451909303665e-05 0.0 0.0 0.0 0.0
2.111 -0.7802562713623047 -0.2931327819824219 -7.770955562591553e-06 -9.034760296344757e-06 0.0 0.0 0.0 0.0
2.112 -0.7807328104972839 -0.2898571789264679 -2.166256308555603e-06 1.8479302525520325e-05 0.0 0.0 0.0 0.0
2.113 -0.7829147577285767 -0.28827422857284546 2.9103830456733704e-06 3.409478813409805e-05 0.0 0.0 0.0 0.0
2.114 -0.7824500799179077 -0.28718122839927673 5.377456545829773e-06 -1.994892954826355e-05 0.0 0.0 0.0 0.0
2.115 -0.7851003408432007 -0.2821364104747772 2.3922882974147797e-05 2.83215194940567e-06 0.0 0.0 0.0 0.0
2.116 -0.7851290702819824 -0.2798977792263031 1.768488436937332e-05 -4.067085683345795e-06 0.0 0.0 0.0 0.0
2.117 -0.7855110168457031 -0.28162533044815063 -9.190291166305542e-06 6.701797246932983e-06 0.0 0.0 0.0 0.0
2.118 -0.7871600985527039 -0.27845218777656555 -1.2755393981933594e-05 -2.389121800661087e-05 0.0 0.0 0.0 0.0
2.119 -0.7879343628883362 -0.27508091926574707 1.956801861524582e-05 -2.6378780603408813e-05 0.0 0.0 0.0 0.0
2.12 -0.7884616851806641 -0.27313071489334106 -2.3066066205501556e-05 8.131377398967743e-06 0.0 0.0 0.0 0.0
2.121 -0.7895790934562683 -0.272596150636673 6.1802566051483154e-06 -2.058502286672592e-05 0.0 0.0 0.0 0.0
2.122 -0.790358304977417 -0.2684197425842285 3.203749656677246e-07 1.1805444955825806e-05 0.0 0.0 0.0 0.0
2.123 -0.7903378009796143 -0.2712918221950531 3.867782652378082e-06 -2.6695430278778076e-05 0.0 0.0 0.0 0.0
2.124 -0.7928342223167419 -0.2625146806240082 -2.005603164434433e-05 3.7299469113349915e-06 0.0 0.0 0.0 0.0
2.125 -0.7916377782821655 -0.26568683981895447 8.220784366130829e-06 -8.96211713552475e-06 0.0 0.0 0.0 0.0
2.126 -0.7943412065505981 -0.2618490755558014 1.782923936843872e-05 -7.518567144870758e-06 0.0 0.0 0.0 0.0
2.127 -0.7937725782394409 -0.26149216294288635 -1.9766390323638916e-05 8.014962077140808e-06 0.0 0.0 0.0 0.0
2.128 -0.7951891422271729 -0.25776487588882446 1.3479962944984436e-05 -1.9781291484832764e-05 0.0 0.0 0.0 0.0
2.129 -0.7965274453163147 -0.2555992901325226 -3.5744160413742065e-06 -1.735985279083252e-05 0.0 0.0 0.0 0.0
2.13 -0.7970393896102905 -0.2552540600299835 1.5261583030223846e-05 -1.6763806343078613e-07 0.0 0.0 0.0 0.0
2.131 -0.7980214357376099 -0.2499234825372696 1.5302561223506927e-05 5.6438148021698e-07 0.0 0.0 0.0 0.0
2.132 -0.7984308004379272 -0.2502313256263733 7.739290595054626e-07 -3.7942081689834595e-06 0.0 0.0 0.0 0.0
2.133 -0.7985954284667969 -0.24871815741062164 -1.8114224076271057e-06 -1.1301599442958832e-05 0.0 0.0 0.0 0.0
2.134 -0.7998661994934082 -0.24470293521881104 -2.8753653168678284e-05 -6.959773600101471e-06 0.0 0.0 0.0 0.0
2.135 -0.8009833097457886 -0.24443158507347107 -1.3171695172786713e-05 -3.848224878311157e-06 0.0 0.0 0.0 0.0
2.136 -0.799770712852478 -0.2431945651769638 5.554407835006714e-06 -5.545094609260559e-06 0.0 0.0 0.0 0.0
2.137 -0.8026661276817322 -0.23715952038764954 -6.611458957195282e-06 -3.142375499010086e-05 0.0 0.0 0.0 0.0
2.138 -0.8028281927108765 -0.240409255027771 -4.098750650882721e-06 -2.2428110241889954e-05 0.0 0.0 0.0 0.0
2.139 -0.80401211977005 -0.23615869879722595 7.580965757369995e-07 -9.733252227306366e-06 0.0 0.0 0.0 0.0
2.14 -0.8051663637161255 -0.23304101824760437 9.327195584774017e-06 -1.2233853340148926e-05 0.0 0.0 0.0 0.0
2.141 -0.805294930934906 -0.23261795938014984 -2.8870999813079834e-06 -1.918897032737732e-05 0.0 0.0 0.0 0.0
2.142 -0.8053702712059021 -0.2324877679347992 -2.3937784135341644e-05 6.7148357629776e-07 0.0 0.0 0.0 0.0
2.143 -0.8069393634796143 -0.22799313068389893 3.98978590965271e-06 -2.969149500131607e-05 0.0 0.0 0.0 0.0
2.144 -0.8071569800376892 -0.22804278135299683 1.8047168850898743e-05 -8.041970431804657e-06 0.0 0.0 0.0 0.0
2.145 -0.8085824847221375 -0.22361403703689575 1.9127503037452698e-05 -2.9404647648334503e-05 0.0 0.0 0.0 0.0
2.146 -0.8091793060302734 -0.2229958474636078 1.769140362739563e-05 1.2871809303760529e-05 0.0 0.0 0.0 0.0
2.147 -0.8098265528678894 -0.22042763233184814 6.835907697677612e-06 -1.4081597328186035e-06 0.0 0.0 0.0 0.0
2.148 -0.8096710443496704 -0.21755152940750122 6.48200511932373e-07 5.749985575675964e-06 0.0 0.0 0.0 0.0
2.149 -0.8109872341156006 -0.2158147245645523 -2.7270987629890442e-05 -2.5836750864982605e-05 0.0 0.0 0.0 0.0
2.15 -0.8118605613708496 -0.21412914991378784 7.8640878200531e-06 -1.3676472008228302e-05 0.0 0.0 0.0 0.0
2.151 -0.8126505017280579 -0.21179836988449097 -2.0868144929409027e-05 -1.23586505651474e-05 0.0 0.0 0.0 0.0
2.152 -0.81417316198349 -0.20763131976127625 1.9322149455547333e-05 -1.216493546962738e-05 0.0 0.0 0.0 0.0
2.153 -0.8133469223976135 -0.20801185071468353 3.213062882423401e-06 -7.42543488740921e-06 0.0 0.0 0.0 0.0
2.154 -0.8150898814201355 -0.2034001499414444 3.1115487217903137e-06 -2.3731961846351624e-05 0.0 0.0 0.0 0.0
2.155 -0.8151383399963379 -0.20399588346481323 1.4974735677242279e-05 -9.319745004177094e-06 0.0 0.0 0.0 0.0
2.156 -0.8158959746360779 -0.20141232013702393 2.421904355287552e-05 -6.854534149169922e-07 0.0 0.0 0.0 0.0
2.157 -0.8163393139839172 -0.20012915134429932 -1.5762634575366974e-05 -5.738344043493271e-05 0.0 0.0 0.0 0.0
2.158 -0.8183459639549255 -0.19616469740867615 -2.086162567138672e-06 -1.214444637298584e-06 0.0 0.0 0.0 0.0
2.159 -0.8178366422653198 -0.19662027060985565 3.147311508655548e-05 -6.317161023616791e-06 0.0 0.0 0.0 0.0
2.16 -0.8180943131446838 -0.19046849012374878 1.3016164302825928e-05 -2.40374356508255e-06 0.0 0.0 0.0 0.0
2.161 -0.8192122578620911 -0.1920539140701294 1.752469688653946e-05 1.0700896382331848e-06 0.0 0.0 0.0 0.0
2.162 -0.8200880885124207 -0.18856222927570343 1.671537756919861e-05 -2.1564774215221405e-05 0.0 0.0 0.0 0.0
2.163 -0.820691704750061 -0.1862817108631134 2.0237639546394348e-05 -6.584450602531433e-07 0.0 0.0 0.0 0.0
2.164 -0.8209520578384399 -0.1847674399614334 -4.4405460357666016e-06 -2.519320696592331e-05 0.0 0.0 0.0 0.0
2.165 -0.8216580152511597 -0.18313559889793396 -1.8849968910217285e-06 -2.368725836277008e-05 0.0 0.0 0.0 0.0
2.166 -0.822937548160553 -0.17832741141319275 6.192363798618317e-06 -2.9159709811210632e-05 0.0 0.0 0.0 0.0
2.167 -0.8235428929328918 -0.17803247272968292 1.4378689229488373e-05 -2.8508715331554413e-05 0.0 0.0 0.0 0.0
2.168 -0.8231578469276428 -0.17696084082126617 2.2120773792266846e-05 -3.8865022361278534e-05 0.0 0.0 0.0 0.0
2.169 -0.8241627812385559 -0.17462007701396942 -4.725530743598938e-06 -2.0240433514118195e-05 0.0 0.0 0.0 0.0
2.17 -0.8247465491294861 -0.1730450838804245 -1.3438984751701355e-05 -2.947542816400528e-05 0.0 0.0 0.0 0.0
2.171 -0.8252784609794617 -0.1690351366996765 -6.4568594098091125e-06 -2.635642886161804e-06 0.0 0.0 0.0 0.0
2.172 -0.825108528137207 -0.16776086390018463 -1.0931864380836487e-05 -1.5145167708396912e-05 0.0 0.0 0.0 0.0
2.173 -0.8261474967002869 -0.1666828989982605 -1.4881603419780731e-05 4.540197551250458e-06 0.0 0.0 0.0 0.0
2.174 -0.8276926279067993 -0.16011177003383636 1.6626901924610138e-05 -1.592375338077545e-05 0.0 0.0 0.0 0.0
2.175 -0.8278607726097107 -0.16083794832229614 2.3074448108673096e-05 1.8738210201263428e-06 0.0 0.0 0.0 0.0
2.176 -0.8269227147102356 -0.16048452258110046 2.541579306125641e-06 -3.925152122974396e-05 0.0 0.0 0.0 0.0
2.177 -0.8286793828010559 -0.15576604008674622 -2.6219524443149567e-05 -9.54698771238327e-06 0.0 0.0 0.0 0.0
2.178 -0.8290297389030457 -0.1548287570476532 -2.5890767574310303e-06 7.053837180137634e-06 0.0 0.0 0.0 0.0
2.179 -0.8296312689781189 -0.15325261652469635 2.532266080379486e-05 -3.172829747200012e-05 0.0 0.0 0.0 0.0
2.18 -0.8303465247154236 -0.15031792223453522 -1.1455267667770386e-06 -2.7514062821865082e-05 0.0 0.0 0.0 0.0
2.181 -0.8299687504768372 -0.14993205666542053 1.859385520219803e-05 -1.3880431652069092e-05 0.0 0.0 0.0 0.0
2.182 -0.830672562122345 -0.14630664885044098 -1.0193325579166412e-05 -3.095157444477081e-05 0.0 0.0 0.0 0.0
2.183 -0.8315681219100952 -0.14386409521102905 -1.4599412679672241e-05 -9.463168680667877e-06 0.0 0.0 0.0 0.0
2.184 -0.8323156833648682 -0.14264748990535736 1.2157484889030457e-05 -1.28941610455513e-05 0.0 0.0 0.0 0.0
2.185 -0.8322998285293579 -0.1399778127670288 2.5909394025802612e-05 -1.3642944395542145e-05 0.0 0.0 0.0 0.0
2.186 -0.8336981534957886 -0.13564631342887878 1.471489667892456e-07 -1.955777406692505e-05 0.0 0.0 0.0 0.0
2.187 -0.8329434394836426 -0.13735181093215942 1.235026866197586e-05 1.3932585716247559e-06 0.0 0.0 0.0 0.0
2.188 -0.8333492875099182 -0.13276584446430206 -2.7390196919441223e-05 -1.284480094909668e-05 0.0 0.0 0.0 0.0
2.189 -0.834412157535553 -0.12871915102005005 -2.2901222109794617e-06 -1.4462508261203766e-05 0.0 0.0 0.0 0.0
2.19 -0.8343532085418701 -0.1272837221622467 1.5720725059509277e-06 2.4312175810337067e-05 0.0 0.0 0.0 0.0
2.191 -0.8350295424461365 -0.1266498863697052 1.768115907907486e-05 -2.039782702922821e-05 0.0 0.0 0.0 0.0
2.192 -0.8352301716804504 -0.1240711584687233 2.161506563425064e-05 2.1845102310180664e-05 0.0 0.0 0.0 0.0
2.193 -0.8351755738258362 -0.12267911434173584 -2.900604158639908e-05 1.8384307622909546e-05 0.0 0.0 0.0 0.0
2.194 -0.8354272842407227 -0.116518534719944 -3.9132311940193176e-05 1.3969838619232178e-07 0.0 0.0 0.0 0.0
2.195 -0.8359325528144836 -0.11754609644412994 -3.787130117416382e-05 -2.3166649043560028e-05 0.0 0.0 0.0 0.0
2.196 -0.8357434272766113 -0.11271894723176956 -1.7257407307624817e-05 1.955777406692505e-06 0.0 0.0 0.0 0.0
2.197 -0.8364847898483276 -0.11247388273477554 -3.4207478165626526e-05 1.4971941709518433e-05 0.0 0.0 0.0 0.0
2.198 -0.8369162082672119 -0.10899405926465988 -2.279318869113922e-05 2.3359432816505432e-05 0.0 0.0 0.0 0.0
2.199 -0.8363961577415466 -0.10730002820491791 -2.0091421902179718e-05 -5.743466317653656e-06 0.0 0.0 0.0 0.0
2.2 -0.8365047574043274 -0.10618702322244644 -1.6060657799243927e-05 -1.6009435057640076e-06 0.0 0.0 0.0 0.0
2.201 -0.8372265696525574 -0.10297124832868576 -2.090074121952057e-05 1.5245750546455383e-05 0.0 0.0 0.0 0.0
2.202 -0.836942732334137 -0.09952742606401443 3.3546239137649536e-06 -3.129243850708008e-06 0.0 0.0 0.0 0.0
2.203 -0.8371052145957947 -0.09764144569635391 -1.7696060240268707e-05 2.3688189685344696e-05 0.0 0.0 0.0 0.0
2.204 -0.8364053964614868 -0.09868673235177994 1.1791475117206573e-05 2.2231601178646088e-05 0.0 0.0 0.0 0.0
2.205 -0.8362500667572021 -0.09389591217041016 -2.2239983081817627e-05 4.009343683719635e-06 0.0 0.0 0.0 0.0
2.206 -0.8360486030578613 -0.08985509723424911 3.160908818244934e-06 2.2753141820430756e-05 0.0 0.0 0.0 0.0
2.207 -0.8360455632209778 -0.08990795165300369 -1.126900315284729e-07 7.159076631069183e-06 0.0 0.0 0.0 0.0
2.208 -0.8356961011886597 -0.08760188519954681 1.1920928955078125e-06 1.8742866814136505e-05 0.0 0.0 0.0 0.0
2.209 -0.8354306221008301 -0.0853767991065979 3.268662840127945e-05 1.3282522559165955e-05 0.0 0.0 0.0 0.0
2.21 -0.8348926305770874 -0.0848894938826561 1.0365620255470276e-05 2.8109177947044373e-05 0.0 0.0 0.0 0.0
2.211 -0.8341848850250244 -0.08464790880680084 3.422051668167114e-05 1.8299557268619537e-05 0.0 0.0 0.0 0.0
2.212 -0.8345140814781189 -0.08017174899578094 1.804996281862259e-05 1.9935891032218933e-05 0.0 0.0 0.0 0.0
2.213 -0.8344829678535461 -0.08153481036424637 3.1925737857818604e-05 1.998618245124817e-05 0.0 0.0 0.0 0.0
2.214 -0.8341736197471619 -0.08063368499279022 6.070826202630997e-05 -1.8039718270301819e-06 0.0 0.0 0.0 0.0
2.215 -0.8345551490783691 -0.07791032642126083 2.5226734578609467e-05 1.1049211025238037e-05 0.0 0.0 0.0 0.0
2.216 -0.8351638913154602 -0.07760068029165268 3.067962825298309e-05 1.4647841453552246e-05 0.0 0.0 0.0 0.0
2.217 -0.8356496691703796 -0.0782490074634552 2.924259752035141e-05 4.501361399888992e-05 0.0 0.0 0.0 0.0
2.218 -0.8367137908935547 -0.07437223941087723 1.58846378326416e-05 2.7548521757125854e-06 0.0 0.0 0.0 0.0
2.219 -0.8370801210403442 -0.07520609349012375 5.3114257752895355e-05 1.4390796422958374e-05 0.0 0.0 0.0 0.0
2.22 -0.8381381630897522 -0.0708262249827385 1.6606412827968597e-05 -9.988434612751007e-06 0.0 0.0 0.0 0.0
2.221 -0.8395841121673584 -0.06944689154624939 1.503434032201767e-05 -3.0207447707653046e-05 0.0 0.0 0.0 0.0
2.222 -0.8402208685874939 -0.06694739311933517 2.4273991584777832e-05 -1.3054348528385162e-05 0.0 0.0 0.0 0.0
2.223 -0.8416935205459595 -0.06177968531847 3.741588443517685e-05 1.4435499906539917e-05 0.0 0.0 0.0 0.0
2.224 -0.8417894244194031 -0.06529603898525238 1.779012382030487e-05 1.0302290320396423e-05 0.0 0.0 0.0 0.0
2.225 -0.8425754308700562 -0.0638144463300705 3.7901103496551514e-05 -5.166977643966675e-06 0.0 0.0 0.0 0.0
2.226 -0.8433863520622253 -0.06079992651939392 3.395508974790573e-05 -2.441275864839554e-05 0.0 0.0 0.0 0.0
2.227 -0.8441396951675415 -0.05941092595458031 2.3463740944862366e-05 -2.6147812604904175e-05 0.0 0.0 0.0 0.0
2.228 -0.8442112803459167 -0.057188481092453 2.5428831577301025e-05 -1.1539086699485779e-05 0.0 0.0 0.0 0.0
2.229 -0.8455808162689209 -0.050533607602119446 1.7078593373298645e-05 -1.760665327310562e-05 0.0 0.0 0.0 0.0
2.23 -0.8461521863937378 -0.055000729858875275 -5.243346095085144e-06 -2.0110979676246643e-05 0.0 0.0 0.0 0.0
2.231 -0.8470544219017029 -0.04673314467072487 4.226434975862503e-05 -1.565460115671158e-05 0.0 0.0 0.0 0.0
2.232 -0.8473994135856628 -0.04857514053583145 2.5425106287002563e-05 2.386234700679779e-05 0.0 0.0 0.0 0.0
2.233 -0.8476458191871643 -0.04111405462026596 2.2531487047672272e-05 -9.777955710887909e-06 0.0 0.0 0.0 0.0
2.234 -0.8477398157119751 -0.044594656676054 3.237277269363403e-05 -2.482440322637558e-05 0.0 0.0 0.0 0.0
2.235 -0.8487362861633301 -0.039979949593544006 4.498288035392761e-05 -1.851096749305725e-05 0.0 0.0 0.0 0.0
2.236 -0.8488056659698486 -0.03975912183523178 2.355314791202545e-05 -3.688689321279526e-05 0.0 0.0 0.0 0.0
2.237 -0.8489821553230286 -0.03542018309235573 2.2638589143753052e-05 -2.967938780784607e-05 0.0 0.0 0.0 0.0
2.238 -0.8495664000511169 -0.03333844244480133 6.598420441150665e-06 7.078051567077637e-07 0.0 0.0 0.0 0.0
2.239 -0.8497679233551025 -0.03290411829948425 1.1876225471496582e-05 -9.384937584400177e-06 0.0 0.0 0.0 0.0
2.24 -0.8499939441680908 -0.028293415904045105 4.285946488380432e-06 -2.4626031517982483e-05 0.0 0.0 0.0 0.0
2.241 -0.8506559133529663 -0.02635078877210617 3.6106444895267487e-05 -1.2600794434547424e-05 0.0 0.0 0.0 0.0
2.242 -0.8509171009063721 -0.024563094601035118 2.2452324628829956e-05 -3.056041896343231e-05 0.0 0.0 0.0 0.0
2.243 -0.8511784076690674 -0.021026000380516052 1.938454806804657e-05 -1.311860978603363e-05 0.0 0.0 0.0 0.0
2.244 -0.851260781288147 -0.022573133930563927 3.31047922372818e-05 2.3972243070602417e-06 0.0 0.0 0.0 0.0
2.245 -0.8510436415672302 -0.016653476282954216 -8.726492524147034e-07 -1.036468893289566e-05 0.0 0.0 0.0 0.0
2.246 -0.8522509336471558 -0.01247064396739006 7.44406133890152e-06 -1.7047859728336334e-05 0.0 0.0 0.0 0.0
2.247 -0.8516992926597595 -0.015385419130325317 -1.583341509103775e-05 -2.6399269700050354e-05 0.0 0.0 0.0 0.0
2.248 -0.8517213463783264 -0.011469393037259579 3.106798976659775e-05 -3.41758131980896e-05 0.0 0.0 0.0 0.0
2.249 -0.8524184823036194 -0.0031546736136078835 1.0198913514614105e-05 -1.4184042811393738e-06 0.0 0.0 0.0 0.0
2.25 -0.8522688746452332 -0.008930177427828312 1.7896294593811035e-05 -2.5583431124687195e-05 0.0 0.0 0.0 0.0
2.251 -0.8523049354553223 -0.005853063426911831 -1.019798219203949e-05 -2.5508925318717957e-05 0.0 0.0 0.0 0.0
2.252 -0.8528359532356262 -0.0006667366251349449 3.8224272429943085e-05 2.6881694793701172e-05 0.0 0.0 0.0 0.0
2.253 -0.8525380492210388 -0.0012211175635457039 -2.2491440176963806e-06 -3.4514814615249634e-05 0.0 0.0 0.0 0.0
2.254 -0.852805495262146 0.002138391137123108 2.0067207515239716e-05 -2.308376133441925e-05 0.0 0.0 0.0 0.0
2.255 -0.8531513214111328 0.0008696941658854485 6.173737347126007e-06 -1.8433667719364166e-05 0.0 0.0 0.0 0.0
2.256 -0.8530125021934509 0.006213494576513767 1.5752390027046204e-05 -2.3661181330680847e-05 0.0 0.0 0.0 0.0
2.257 -0.8535677790641785 0.010221084579825401 -4.470348358154297e-07 -2.967752516269684e-05 0.0 0.0 0.0 0.0
2.258 -0.8536184430122375 0.00909848790615797 3.132876008749008e-05 -3.193505108356476e-06 0.0 0.0 0.0 0.0
2.259 -0.8533186316490173 0.011345920152962208 1.947954297065735e-05 -2.271495759487152e-05 0.0 0.0 0.0 0.0
2.26 -0.8532780408859253 0.013675427064299583 2.3078173398971558e-05 -1.8955208361148834e-05 0.0 0.0 0.0 0.0
2.261 -0.853528618812561 0.018383903428912163 3.1830742955207825e-05 -2.4201348423957825e-05 0.0 0.0 0.0 0.0
2.262 -0.8537300229072571 0.01818324252963066 5.653128027915955e-07 1.6205012798309326e-05 0.0 0.0 0.0 0.0
2.263 -0.8532057404518127 0.022128071635961533 -1.4907680451869965e-05 -4.144385457038879e-06 0.0 0.0 0.0 0.0
2.264 -0.8539045453071594 0.02440863661468029 -1.2320466339588165e-05 -1.1566095054149628e-05 0.0 0.0 0.0 0.0
2.265 -0.8535979986190796 0.026956671848893166 1.195073127746582e-05 1.4071352779865265e-05 0.0 0.0 0.0 0.0
2.266 -0.8540537357330322 0.028838491067290306 -9.06083732843399e-06 -3.8798898458480835e-06 0.0 0.0 0.0 0.0
2.267 -0.8542045950889587 0.028953243046998978 1.3913027942180634e-05 3.8547441363334656e-06 0.0 0.0 0.0 0.0
2.268 -0.8533961772918701 0.03355183079838753 -2.2912397980690002e-05 3.403984010219574e-06 0.0 0.0 0.0 0.0
2.269 -0.8536444306373596 0.0352761410176754 1.6473233699798584e-05 -1.5946105122566223e-05 0.0 0.0 0.0 0.0
2.27 -0.8539478182792664 0.03610462695360184 -5.71180135011673e-06 1.0027550160884857e-05 0.0 0.0 0.0 0.0
2.271 -0.8534258604049683 0.04010019823908806 -1.7937272787094116e-06 2.0178966224193573e-05 0.0 0.0 0.0 0.0
2.272 -0.854289174079895 0.04072980210185051 1.1521391570568085e-05 -2.4798326194286346e-05 0.0 0.0 0.0 0.0
2.273 -0.8541701436042786 0.03948919102549553 2.2853724658489227e-05 1.2349337339401245e-05 0.0 0.0 0.0 0.0
2.274 -0.853702187538147 0.047240618616342545 1.9809231162071228e-05 -2.9850751161575317e-05 0.0 0.0 0.0 0.0
2.275 -0.8539860248565674 0.04543696343898773 -7.805414497852325e-06 1.719314604997635e-05 0.0 0.0 0.0 0.0
2.276 -0.8537015318870544 0.04872690513730049 3.191456198692322e-05 -5.695968866348267e-06 0.0 0.0 0.0 0.0
2.277 -0.8536147475242615 0.05266010761260986 1.3443641364574432e-05 -4.217959940433502e-06 0.0 0.0 0.0 0.0
2.278 -0.8540587425231934 0.05368012189865112 1.022685319185257e-05 -1.5776604413986206e-05 0.0 0.0 0.0 0.0
2.279 -0.8534296154975891 0.05210496485233307 1.7637386918067932e-05 3.933906555175781e-06 0.0 0.0 0.0 0.0
2.28 -0.8532806634902954 0.0601164884865284 9.291805326938629e-06 2.7854926884174347e-05 0.0 0.0 0.0 0.0
2.281 -0.8534278869628906 0.061152711510658264 2.387911081314087e-05 2.2217631340026855e-05 0.0 0.0 0.0 0.0
2.282 -0.8527159094810486 0.06168144568800926 1.221243292093277e-05 -2.3120082914829254e-05 0.0 0.0 0.0 0.0
2.283 -0.8530978560447693 0.06532992422580719 -6.6533684730529785e-06 3.5474076867103577e-06 0.0 0.0 0.0 0.0
2.284 -0.8533821105957031 0.06470339745283127 -2.7278438210487366e-06 9.51811671257019e-07 0.0 0.0 0.0 0.0
2.285 -0.8525030016899109 0.06870260089635849 6.9588422775268555e-06 1.8154270946979523e-05 0.0 0.0 0.0 0.0
2.286 -0.8529298305511475 0.07171446084976196 9.753741323947906e-06 1.2936070561408997e-05 0.0 0.0 0.0 0.0
2.287 -0.8528859615325928 0.07108474522829056 1.5702098608016968e-05 1.1874362826347351e-05 0.0 0.0 0.0 0.0
2.288 -0.8521210551261902 0.07544057071208954 3.6954879760742188e-06 7.875263690948486e-06 0.0 0.0 0.0 0.0
2.289 -0.852824866771698 0.07608693838119507 4.0329061448574066e-05 -1.8347054719924927e-05 0.0 0.0 0.0 0.0
2.29 -0.8522735834121704 0.07784537225961685 2.860371023416519e-05 -1.5744008123874664e-05 0.0 0.0 0.0 0.0
2.291 -0.8521522879600525 0.08212639391422272 1.224130392074585e-05 -3.6079436540603638e-06 0.0 0.0 0.0 0.0
2.292 -0.8521108031272888 0.07923553138971329 1.4103949069976807e-05 2.211146056652069e-05 0.0 0.0 0.0 0.0
2.293 -0.8511026501655579 0.08664701133966446 1.3622455298900604e-05 3.850925713777542e-05 0.0 0.0 0.0 0.0
2.294 -0.8520172834396362 0.0873086228966713 2.029258757829666e-05 2.4335458874702454e-06 0.0 0.0 0.0 0.0
2.295 -0.8511817455291748 0.09138006716966629 5.699694156646729e-07 2.1426938474178314e-05 0.0 0.0 0.0 0.0
2.296 -0.8511716723442078 0.08942156285047531 1.6434118151664734e-05 1.5134923160076141e-05 0.0 0.0 0.0 0.0
2.297 -0.8507422804832458 0.09770072251558304 3.2777898013591766e-05 1.217518001794815e-05 0.0 0.0 0.0 0.0
2.298 -0.8509723544120789 0.09577136486768723 -4.7050416469573975e-06 1.9437633454799652e-05 0.0 0.0 0.0 0.0
2.299 -0.8505344986915588 0.09883788228034973 1.099519431591034e-05 -7.113441824913025e-06 0.0 0.0 0.0 0.0
2.3 -0.850530207157135 0.10084778070449829 3.741774708032608e-05 1.2896955013275146e-05 0.0 0.0 0.0 0.0
2.301 -0.850438117980957 0.10056242346763611 -6.888061761856079e-06 1.2359581887722015e-05 0.0 0.0 0.0 0.0
2.302 -0.8509145975112915 0.10029714554548264 2.0908191800117493e-06 -2.4372711777687073e-06 0.0 0.0 0.0 0.0
2.303 -0.8503599762916565 0.10447520762681961 1.5925616025924683e-05 -1.474376767873764e-05 0.0 0.0 0.0 0.0
2.304 -0.8495112657546997 0.10785890370607376 3.6871060729026794e-06 1.673121005296707e-05 0.0 0.0 0.0 0.0
2.305 -0.8495385646820068 0.1107187420129776 -1.596938818693161e-05 1.387670636177063e-06 0.0 0.0 0.0 0.0
2.306 -0.8491121530532837 0.11153028905391693 2.2780150175094604e-05 -6.623566150665283e-06 0.0 0.0 0.0 0.0
2.307 -0.8489040732383728 0.11303286999464035 1.699291169643402e-05 1.994241029024124e-05 0.0 0.0 0.0 0.0
2.308 -0.8486298322677612 0.11789986491203308 6.183981895446777e-07 -4.7497451305389404e-06 0.0 0.0 0.0 0.0
2.309 -0.8485512733459473 0.11724064499139786 1.3103708624839783e-05 -1.4137476682662964e-06 0.0 0.0 0.0 0.0
2.31 -0.8479847311973572 0.12150423228740692 1.1710450053215027e-05 2.5494955480098724e-05 0.0 0.0 0.0 0.0
2.311 -0.8483761548995972 0.12077883630990982 1.1679716408252716e-05 -2.5826506316661835e-05 0.0 0.0 0.0 0.0
2.312 -0.8478342890739441 0.12236082553863525 -1.7473474144935608e-05 1.3628974556922913e-05 0.0 0.0 0.0 0.0
2.313 -0.8470112085342407 0.12528090178966522 9.036622941493988e-06 -1.6577541828155518e-06 0.0 0.0 0.0 0.0
2.314 -0.8474905490875244 0.12680378556251526 1.1572614312171936e-05 1.931842416524887e-05 0.0 0.0 0.0 0.0
2.315 -0.8467413187026978 0.12890119850635529 1.59386545419693e-05 6.498768925666809e-06 0.0 0.0 0.0 0.0
2.316 -0.8468222618103027 0.13065588474273682 1.5836209058761597e-05 -1.4777295291423798e-05 0.0 0.0 0.0 0.0
2.317 -0.8463004231452942 0.13455669581890106 7.774680852890015e-06 2.1422281861305237e-05 0.0 0.0 0.0 0.0
2.318 -0.8458918929100037 0.13500435650348663 4.699453711509705e-06 1.6237609088420868e-05 0.0 0.0 0.0 0.0
2.319 -0.8457875847816467 0.13657069206237793 2.5372952222824097e-05 -5.103647708892822e-06 0.0 0.0 0.0 0.0
2.32 -0.8454123735427856 0.14003489911556244 1.8835999071598053e-05 2.41938978433609e-05 0.0 0.0 0.0 0.0
2.321 -0.8443587422370911 0.14211608469486237 9.95490700006485e-06 9.082257747650146e-06 0.0 0.0 0.0 0.0
2.322 -0.8447083830833435 0.14263473451137543 1.249462366104126e-05 7.3052942752838135e-06 0.0 0.0 0.0 0.0
2.323 -0.8445574045181274 0.14397218823432922 -1.0400079190731049e-05 7.699243724346161e-06 0.0 0.0 0.0 0.0
2.324 -0.8434402942657471 0.14864912629127502 1.9021332263946533e-05 -1.3981945812702179e-05 0.0 0.0 0.0 0.0
2.325 -0.8440545797348022 0.14971747994422913 2.8396956622600555e-05 -1.2910924851894379e-05 0.0 0.0 0.0 0.0
2.326 -0.843439519405365 0.1530366837978363 2.9958784580230713e-05 -2.5723129510879517e-06 0.0 0.0 0.0 0.0
2.327 -0.8434317111968994 0.15099602937698364 2.366025000810623e-05 1.4018267393112183e-05 0.0 0.0 0.0 0.0
2.328 -0.8426308035850525 0.155986487865448 1.9473955035209656e-05 -1.130625605583191e-06 0.0 0.0 0.0 0.0
2.329 -0.8415707945823669 0.1592048704624176 2.012588083744049e-05 -2.4126842617988586e-05 0.0 0.0 0.0 0.0
2.33 -0.8418018221855164 0.15686649084091187 -7.632188498973846e-06 2.9243528842926025e-05 0.0 0.0 0.0 0.0
2.331 -0.8402819633483887 0.16508610546588898 1.182500272989273e-05 1.9292347133159637e-05 0.0 0.0 0.0 0.0
2.332 -0.8419417142868042 0.1587839424610138 2.139899879693985e-05 3.3248215913772583e-06 0.0 0.0 0.0 0.0
2.333 -0.8404954671859741 0.16348038613796234 2.2909604012966156e-05 1.4740973711013794e-05 0.0 0.0 0.0 0.0
2.334 -0.8402865529060364 0.16756540536880493 -6.631016731262207e-07 1.2264586985111237e-05 0.0 0.0 0.0 0.0
2.335 -0.8404797315597534 0.16581034660339355 3.530830144882202e-05 -1.1702068150043488e-05 0.0 0.0 0.0 0.0
2.336 -0.8393456935882568 0.16860760748386383 2.093147486448288e-05 -4.192814230918884e-06 0.0 0.0 0.0 0.0
2.337 -0.8389472961425781 0.17515994608402252 4.442501813173294e-05 -1.949165016412735e-05 0.0 0.0 0.0 0.0
2.338 -0.838653564453125 0.17355568706989288 8.325092494487762e-06 -1.8705613911151886e-05 0.0 0.0 0.0 0.0
2.339 -0.8382589221000671 0.17537669837474823 4.048645496368408e-05 2.71722674369812e-05 0.0 0.0 0.0 0.0
2.34 -0.8374898433685303 0.17918293178081512 3.82009893655777e-05 -1.0637566447257996e-05 0.0 0.0 0.0 0.0
2.341 -0.8377969264984131 0.17776978015899658 2.061016857624054e-06 -1.4907680451869965e-05 0.0 0.0 0.0 0.0
2.342 -0.8364628553390503 0.18359285593032837 1.6596168279647827e-05 -9.755603969097137e-06 0.0 0.0 0.0 0.0
2.343 -0.835712730884552 0.18552398681640625 2.489425241947174e-05 2.5229528546333313e-05 0.0 0.0 0.0 0.0
2.344 -0.8359523415565491 0.18410593271255493 3.0396506190299988e-05 1.0279938578605652e-05 0.0 0.0 0.0 0.0
2.345 -0.8353732228279114 0.18725349009037018 5.913153290748596e-05 1.229904592037201e-05 0.0 0.0 0.0 0.0
2.346 -0.8354660868644714 0.18955138325691223 4.00301069021225e-05 -1.2081116437911987e-05 0.0 0.0 0.0 0.0
2.347 -0.8348890542984009 0.1901148110628128 3.933161497116089e-05 9.012408554553986e-06 0.0 0.0 0.0 0.0
2.348 -0.833853542804718 0.1940210908651352 7.381662726402283e-06 -7.082708179950714e-06 0.0 0.0 0.0 0.0
2.349 -0.8338122963905334 0.19470956921577454 5.154404789209366e-05 5.346722900867462e-06 0.0 0.0 0.0 0.0
2.35 -0.8329182863235474 0.1944277435541153 3.5315752029418945e-05 1.8234364688396454e-05 0.0 0.0 0.0 0.0
2.351 -0.8324664831161499 0.19868658483028412 2.8077512979507446e-05 1.780688762664795e-06 0.0 0.0 0.0 0.0
2.352 -0.8322374224662781 0.20258012413978577 4.5005232095718384e-05 -1.399405300617218e-05 0.0 0.0 0.0 0.0
2.353 -0.8317395448684692 0.2005421370267868 2.6008114218711853e-05 2.4046748876571655e-05 0.0 0.0 0.0 0.0
2.354 -0.830511212348938 0.20633548498153687 4.399940371513367e-05 7.515773177146912e-07 0.0 0.0 0.0 0.0
2.355 -0.8302612900733948 0.20736604928970337 3.112573176622391e-05 1.7783604562282562e-05 0.0 0.0 0.0 0.0
2.356 -0.8307831287384033 0.20387569069862366 3.578700125217438e-05 -1.766253262758255e-05 0.0 0.0 0.0 0.0
2.357 -0.8279422521591187 0.215485617518425 4.045013338327408e-05 1.9026920199394226e-05 0.0 0.0 0.0 0.0
2.358 -0.8289988040924072 0.2099056988954544 3.0362047255039215e-05 1.8155202269554138e-05 0.0 0.0 0.0 0.0
2.359 -0.8286861181259155 0.21129578351974487 1.6097910702228546e-05 -1.776963472366333e-06 0.0 0.0 0.0 0.0
2.36 -0.8278746604919434 0.21587537229061127 4.6039000153541565e-05 7.0231035351753235e-06 0.0 0.0 0.0 0.0
2.361 -0.827643096446991 0.21560421586036682 3.7049874663352966e-05 1.1787749826908112e-05 0.0 0.0 0.0 0.0
2.362 -0.8261265754699707 0.21987242996692657 1.990329474210739e-05 -2.2854655981063843e-06 0.0 0.0 0.0 0.0
2.363 -0.8264089226722717 0.2203148454427719 7.33397901058197e-05 1.5504658222198486e-05 0.0 0.0 0.0 0.0
2.364 -0.8252335786819458 0.2204558551311493 2.83876433968544e-05 4.997476935386658e-06 0.0 0.0 0.0 0.0
2.365 -0.8247758746147156 0.22422170639038086 1.9855797290802002e-05 1.2769363820552826e-05 0.0 0.0 0.0 0.0
2.366 -0.824914813041687 0.22621960937976837 4.496052861213684e-05 -7.5232237577438354e-06 0.0 0.0 0.0 0.0
2.367 -0.8249838948249817 0.22415776550769806 3.684964030981064e-05 -6.038695573806763e-06 0.0 0.0 0.0 0.0
2.368 -0.8223601579666138 0.2313249260187149 2.122391015291214e-05 -1.675821840763092e-05 0.0 0.0 0.0 0.0
2.369 -0.8227624297142029 0.2312876582145691 5.042273551225662e-05 -9.961426258087158e-06 0.0 0.0 0.0 0.0
2.37 -0.8221791982650757 0.2305200695991516 6.068311631679535e-05 1.5581026673316956e-06 0.0 0.0 0.0 0.0
2.371 -0.8206720352172852 0.2347630113363266 3.530457615852356e-05 -5.048699676990509e-06 0.0 0.0 0.0 0.0
2.372 -0.8200089335441589 0.2375970184803009 3.777630627155304e-05 6.609596312046051e-06 0.0 0.0 0.0 0.0
2.373 -0.8199235796928406 0.23796424269676208 2.4475157260894775e-05 2.1709129214286804e-06 0.0 0.0 0.0 0.0
2.374 -0.818954586982727 0.24124658107757568 4.483945667743683e-05 -6.547197699546814e-06 0.0 0.0 0.0 0.0
2.375 -0.8186876177787781 0.24213673174381256 6.402097642421722e-05 -1.1486932635307312e-05 0.0 0.0 0.0 0.0
2.376 -0.8186604380607605 0.240218386054039 3.192666918039322e-05 2.6971101760864258e-06 0.0 0.0 0.0 0.0
2.377 -0.8162974715232849 0.2460525631904602 2.3691914975643158e-05 -3.353692591190338e-05 0.0 0.0 0.0 0.0
2.378 -0.8164550065994263 0.24783946573734283 2.6221387088298798e-05 -5.941838026046753e-06 0.0 0.0 0.0 0.0
2.379 -0.8166069984436035 0.24574075639247894 1.8724240362644196e-05 -1.2890435755252838e-05 0.0 0.0 0.0 0.0
2.38 -0.8150671124458313 0.249771848320961 2.9519200325012207e-05 2.5741755962371826e-06 0.0 0.0 0.0 0.0
2.381 -0.8140095472335815 0.2526997923851013 3.063678741455078e-05 7.094815373420715e-06 0.0 0.0 0.0 0.0
2.382 -0.8151223063468933 0.24959704279899597 4.2205676436424255e-05 -2.1871179342269897e-05 0.0 0.0 0.0 0.0
2.383 -0.8121232986450195 0.2559966444969177 3.761705011129379e-05 -2.388749271631241e-05 0.0 0.0 0.0 0.0
2.384 -0.8118846416473389 0.2570751905441284 4.3915584683418274e-05 -7.38631933927536e-06 0.0 0.0 0.0 0.0
2.385 -0.8113692402839661 0.2565067410469055 1.3942830264568329e-05 -2.071913331747055e-05 0.0 0.0 0.0 0.0
2.386 -0.809801459312439 0.26064154505729675 2.8205104172229767e-05 -1.6687437891960144e-05 0.0 0.0 0.0 0.0
2.387 -0.8091391921043396 0.2631644010543823 4.970282316207886e-05 -2.0221807062625885e-05 0.0 0.0 0.0 0.0
2.388 -0.8087599277496338 0.26403942704200745 2.136360853910446e-05 -3.691762685775757e-05 0.0 0.0 0.0 0.0
2.389 -0.8071525692939758 0.26383864879608154 3.041233867406845e-05 -1.6711652278900146e-05 0.0 0.0 0.0 0.0
2.39 -0.8064910769462585 0.26652035117149353 -1.03730708360672e-05 -1.7600134015083313e-05 0.0 0.0 0.0 0.0
2.391 -0.8059106469154358 0.2655627131462097 1.7080456018447876e-05 -2.156384289264679e-05 0.0 0.0 0.0 0.0
2.392 -0.8042754530906677 0.26789090037345886 4.177447408437729e-05 -1.1764466762542725e-05 0.0 0.0 0.0 0.0
2.393 -0.8032385110855103 0.27026990056037903 2.253800630569458e-06 -1.8063001334667206e-05 0.0 0.0 0.0 0.0
2.394 -0.8031647205352783 0.2674003839492798 1.83936208486557e-05 -2.3105181753635406e-05 0.0 0.0 0.0 0.0
2.395 -0.8007037043571472 0.2724783420562744 2.192426472902298e-05 -2.7764588594436646e-05 0.0 0.0 0.0 0.0
2.396 -0.8004921078681946 0.27401095628738403 2.455897629261017e-05 -3.4518539905548096e-05 0.0 0.0 0.0 0.0
2.397 -0.7994780540466309 0.27361932396888733 4.989095032215118e-06 -2.0721927285194397e-05 0.0 0.0 0.0 0.0
2.398 -0.7979908585548401 0.2751215398311615 -7.361173629760742e-06 -1.9836239516735077e-05 0.0 0.0 0.0 0.0
2.399 -0.7968659400939941 0.27837321162223816 1.903437077999115e-05 -3.0553899705410004e-05 0.0 0.0 0.0 0.0
2.4 -0.7973016500473022 0.27543678879737854 1.887790858745575e-06 -6.868503987789154e-06 0.0 0.0 0.0 0.0
2.401 -0.7959938645362854 0.27824142575263977 6.599351763725281e-06 -6.582587957382202e-06 0.0 0.0 0.0 0.0
2.402 -0.7965973615646362 0.2781251072883606 -2.2351741790771484e-08 -4.111789166927338e-06 0.0 0.0 0.0 0.0
2.403 -0.7951804399490356 0.27942150831222534 -2.2020190954208374e-05 -1.6316771507263184e-06 0.0 0.0 0.0 0.0
2.404 -0.795132040977478 0.28033000230789185 1.9498169422149658e-05 9.655952453613281e-06 0.0 0.0 0.0 0.0
2.405 -0.7954899668693542 0.2807976007461548 -9.70344990491867e-06 2.0022504031658173e-05 0.0 0.0 0.0 0.0
2.406 -0.7949193716049194 0.2813054025173187 1.7280690371990204e-05 -1.0006129741668701e-05 0.0 0.0 0.0 0.0
2.407 -0.7939152121543884 0.2859078347682953 -1.35740265250206e-05 8.791685104370117e-07 0.0 0.0 0.0 0.0
2.408 -0.7956691980361938 0.28186365962028503 -1.4920718967914581e-05 1.400429755449295e-05 0.0 0.0 0.0 0.0
2.409 -0.79520583152771 0.28455600142478943 1.2579374015331268e-05 1.8061138689517975e-05 0.0 0.0 0.0 0.0
2.41 -0.7946531772613525 0.2861866354942322 2.709869295358658e-05 6.05359673500061e-06 0.0 0.0 0.0 0.0
2.411 -0.7938932180404663 0.28995954990386963 -2.966262400150299e-06 1.925043761730194e-06 0.0 0.0 0.0 0.0
2.412 -0.7940397262573242 0.2855435013771057 1.7695128917694092e-07 9.786337614059448e-06 0.0 0.0 0.0 0.0
2.413 -0.7937127351760864 0.291268914937973 -1.000240445137024e-05 2.7519650757312775e-05 0.0 0.0 0.0 0.0
2.414 -0.7943864464759827 0.2911679744720459 8.642673492431641e-07 3.136228770017624e-05 0.0 0.0 0.0 0.0
2.415 -0.7930989861488342 0.29454004764556885 3.1191855669021606e-05 2.6533380150794983e-06 0.0 0.0 0.0 0.0
2.416 -0.7935436367988586 0.29548901319503784 3.295019268989563e-06 -2.566725015640259e-06 0.0 0.0 0.0 0.0
2.417 -0.7925056219100952 0.299161821603775 2.200063318014145e-05 1.2673437595367432e-05 0.0 0.0 0.0 0.0
2.418 -0.7945725917816162 0.2939772307872772 2.5113113224506378e-05 1.9601546227931976e-05 0.0 0.0 0.0 0.0
2.419 -0.7911942005157471 0.3016313910484314 1.4144927263259888e-05 4.5647844672203064e-05 0.0 0.0 0.0 0.0
2.42 -0.7923486828804016 0.30134034156799316 2.015288919210434e-05 1.004151999950409e-05 0.0 0.0 0.0 0.0
2.421 -0.791688084602356 0.3017236590385437 2.4575740098953247e-05 2.6648864150047302e-05 0.0 0.0 0.0 0.0
2.422 -0.7908331155776978 0.30549949407577515 -1.3709068298339844e-06 2.0094215869903564e-05 0.0 0.0 0.0 0.0
2.423 -0.7909891605377197 0.3060826063156128 3.559235483407974e-05 1.9144266843795776e-05 0.0 0.0 0.0 0.0
2.424 -0.7905718684196472 0.3047618865966797 2.7674250304698944e-05 4.0679238736629486e-05 0.0 0.0 0.0 0.0
2.425 -0.7893848419189453 0.3105887174606323 3.0297785997390747e-05 7.3015689849853516e-06 0.0 0.0 0.0 0.0
2.426 -0.7900717258453369 0.30943763256073 3.764498978853226e-05 -2.853572368621826e-06 0.0 0.0 0.0 0.0
2.427 -0.7884252667427063 0.31134033203125 2.5082379579544067e-05 2.522021532058716e-06 0.0 0.0 0.0 0.0
2.428 -0.7875057458877563 0.31435903906822205 1.2218952178955078e-05 2.897251397371292e-05 0.0 0.0 0.0 0.0
2.429 -0.7880391478538513 0.3134896755218506 2.7545727789402008e-05 8.782371878623962e-06 0.0 0.0 0.0 0.0
2.43 -0.7868028283119202 0.31433844566345215 3.80445271730423e-05 2.2102147340774536e-05 0.0 0.0 0.0 0.0
2.431 -0.7850646376609802 0.321053147315979 2.6858411729335785e-05 3.986060619354248e-07 0.0 0.0 0.0 0.0
2.432 -0.7854470014572144 0.31920021772384644 2.5993213057518005e-05 7.580965757369995e-06 0.0 0.0 0.0 0.0
2.433 -0.7845311164855957 0.3217569589614868 1.8679536879062653e-05 5.752779543399811e-06 0.0 0.0 0.0 0.0
2.434 -0.7845287919044495 0.3219592273235321 3.8632191717624664e-05 1.8244609236717224e-05 0.0 0.0 0.0 0.0
2.435 -0.7840077877044678 0.32248592376708984 4.425179213285446e-05 4.3120235204696655e-06 0.0 0.0 0.0 0.0
2.436 -0.7808326482772827 0.32588690519332886 4.2514875531196594e-05 1.7758458852767944e-05 0.0 0.0 0.0 0.0
2.437 -0.783036470413208 0.32553741335868835 3.683846443891525e-05 2.375338226556778e-05 0.0 0.0 0.0 0.0
2.438 -0.7814574241638184 0.3276865780353546 1.9973143935203552e-05 2.3708678781986237e-05 0.0 0.0 0.0 0.0
2.439 -0.7805387377738953 0.33024224638938904 7.053837180137634e-06 1.1476688086986542e-05 0.0 0.0 0.0 0.0
2.44 -0.7809433937072754 0.33048853278160095 2.928357571363449e-05 1.383759081363678e-05 0.0 0.0 0.0 0.0
2.441 -0.7794672846794128 0.33167794346809387 2.737436443567276e-05 1.8076971173286438e-05 0.0 0.0 0.0 0.0
2.442 -0.7808053493499756 0.3279387950897217 2.8518959879875183e-05 1.5408731997013092e-05 0.0 0.0 0.0 0.0
2.443 -0.777124285697937 0.3376893401145935 3.685988485813141e-05 -9.424984455108643e-07 0.0 0.0 0.0 0.0
2.444 -0.7777424454689026 0.33461594581604004 4.1808001697063446e-05 1.1803582310676575e-05 0.0 0.0 0.0 0.0
2.445 -0.777326762676239 0.3376026153564453 2.9724091291427612e-05 6.843358278274536e-06 0.0 0.0 0.0 0.0
2.446 -0.7785677909851074 0.33474987745285034 1.7437152564525604e-05 2.207234501838684e-06 0.0 0.0 0.0 0.0
2.447 -0.7762208580970764 0.3388400971889496 5.1732175052165985e-05 6.251037120819092e-06 0.0 0.0 0.0 0.0
2.448 -0.7762427926063538 0.340446412563324 4.344712942838669e-05 1.9494444131851196e-05 0.0 0.0 0.0 0.0
2.449 -0.7742857933044434 0.34239017963409424 4.923436790704727e-05 6.455928087234497e-06 0.0 0.0 0.0 0.0
2.45 -0.772589921951294 0.34610119462013245 4.428718239068985e-05 1.4410354197025299e-05 0.0 0.0 0.0 0.0
2.451 -0.7738683819770813 0.3448095917701721 4.467181861400604e-05 3.1268224120140076e-05 0.0 0.0 0.0 0.0
2.452 -0.7730855345726013 0.34487682580947876 2.41696834564209e-05 2.9042363166809082e-05 0.0 0.0 0.0 0.0
2.453 -0.7711144685745239 0.3487999439239502 3.380142152309418e-05 1.6635283827781677e-05 0.0 0.0 0.0 0.0
2.454 -0.7724007964134216 0.3480830490589142 3.609154373407364e-05 -9.387731552124023e-07 0.0 0.0 0.0 0.0
2.455 -0.7711951732635498 0.34820306301116943 4.500150680541992e-05 1.3544224202632904e-05 0.0 0.0 0.0 0.0
2.456 -0.7706402540206909 0.35012274980545044 3.0251219868659973e-05 6.583519279956818e-06 0.0 0.0 0.0 0.0
2.457 -0.76988285779953 0.3514663875102997 4.6475790441036224e-05 1.0346993803977966e-05 0.0 0.0 0.0 0.0
2.458 -0.7679908275604248 0.3554078936576843 2.7975067496299744e-05 8.928589522838593e-06 0.0 0.0 0.0 0.0
2.459 -0.7681679129600525 0.35421591997146606 6.722845137119293e-05 1.8700025975704193e-05 0.0 0.0 0.0 0.0
2.46 -0.7660263776779175 0.3542235493659973 3.033410757780075e-05 1.1426396667957306e-05 0.0 0.0 0.0 0.0
2.461 -0.7672196626663208 0.35609275102615356 4.46811318397522e-05 -4.098750650882721e-06 0.0 0.0 0.0 0.0
2.462 -0.7670115232467651 0.3570093810558319 3.0347146093845367e-05 1.4940276741981506e-05 0.0 0.0 0.0 0.0
2.463 -0.7659941911697388 0.35876885056495667 4.087667912244797e-05 -5.754642188549042e-06 0.0 0.0 0.0 0.0
2.464 -0.7647502422332764 0.36096832156181335 2.474803477525711e-05 6.62636011838913e-06 0.0 0.0 0.0 0.0
2.465 -0.7641568183898926 0.36235880851745605 2.684071660041809e-05 3.4071505069732666e-05 0.0 0.0 0.0 0.0
2.466 -0.7636048793792725 0.36349740624427795 1.9096769392490387e-05 -4.781410098075867e-06 0.0 0.0 0.0 0.0
2.467 -0.763282060623169 0.3625876009464264 3.210548311471939e-05 2.886168658733368e-06 0.0 0.0 0.0 0.0
2.468 -0.7619286179542542 0.36669182777404785 5.280040204524994e-05 1.4764256775379181e-05 0.0 0.0 0.0 0.0
2.469 -0.7635758519172668 0.3632991909980774 4.289951175451279e-05 -2.3769214749336243e-05 0.0 0.0 0.0 0.0
2.47 -0.7617264986038208 0.3653919994831085 5.36525622010231e-05 7.786788046360016e-06 0.0 0.0 0.0 0.0
2.471 -0.7593185901641846 0.37053272128105164 3.739539533853531e-05 4.9620866775512695e-06 0.0 0.0 0.0 0.0
2.472 -0.7611337900161743 0.3668961822986603 8.439086377620697e-05 -1.1594966053962708e-06 0.0 0.0 0.0 0.0
2.473 -0.7593249678611755 0.368848592042923 4.045572131872177e-05 1.5283934772014618e-05 0.0 0.0 0.0 0.0
2.474 -0.7561977505683899 0.3751721680164337 4.559662193059921e-05 1.0856427252292633e-05 0.0 0.0 0.0 0.0
2.475 -0.7585287690162659 0.37088504433631897 2.368725836277008e-05 -6.360001862049103e-06 0.0 0.0 0.0 0.0
2.476 -0.7567414045333862 0.37385642528533936 1.0719522833824158e-05 1.177377998828888e-05 0.0 0.0 0.0 0.0
2.477 -0.756685197353363 0.37416309118270874 2.7915462851524353e-05 9.76957380771637e-07 0.0 0.0 0.0 0.0
2.478 -0.7578876614570618 0.37273770570755005 3.3564865589141846e-05 4.176050424575806e-06 0.0 0.0 0.0 0.0
2.479 -0.7530109882354736 0.3806820213794708 2.7243047952651978e-05 -1.3248063623905182e-05 0.0 0.0 0.0 0.0
2.48 -0.7538900375366211 0.3796759843826294 3.8868747651576996e-05 9.074807167053223e-06 0.0 0.0 0.0 0.0
2.481 -0.7541907429695129 0.37863317131996155 3.634858876466751e-05 -1.944601535797119e-06 0.0 0.0 0.0 0.0
2.482 -0.7546916604042053 0.3778301179409027 4.590023308992386e-05 -5.535781383514404e-06 0.0 0.0 0.0 0.0
2.483 -0.7526983618736267 0.3819323778152466 3.701262176036835e-05 1.529604196548462e-05 0.0 0.0 0.0 0.0
2.484 -0.7503315806388855 0.3814731538295746 3.6502256989479065e-05 1.3345852494239807e-05 0.0 0.0 0.0 0.0
2.485 -0.7527981996536255 0.3818724453449249 5.928985774517059e-05 2.893153578042984e-05 0.0 0.0 0.0 0.0
2.486 -0.7504295110702515 0.3860348165035248 6.708595901727676e-05 2.3478642106056213e-05 0.0 0.0 0.0 0.0
2.487 -0.7514888644218445 0.38281843066215515 5.5383890867233276e-05 4.591420292854309e-06 0.0 0.0 0.0 0.0
2.488 -0.7492550611495972 0.3858911693096161 3.662332892417908e-05 2.0597130060195923e-05 0.0 0.0 0.0 0.0
2.489 -0.7490246891975403 0.386703759431839 4.4329091906547546e-05 4.239380359649658e-06 0.0 0.0 0.0 0.0
2.49 -0.7473006844520569 0.3917143940925598 3.0753202736377716e-05 -1.3850629329681396e-05 0.0 0.0 0.0 0.0
2.491 -0.7477273941040039 0.3882940411567688 5.142204463481903e-05 -3.7979334592819214e-06 0.0 0.0 0.0 0.0
2.492 -0.7462400794029236 0.39225903153419495 3.332924097776413e-05 -2.489611506462097e-05 0.0 0.0 0.0 0.0
2.493 -0.747904896736145 0.3896307349205017 4.2086467146873474e-05 1.6434118151664734e-05 0.0 0.0 0.0 0.0
2.494 -0.7444026470184326 0.3940376043319702 4.8794783651828766e-05 1.021847128868103e-05 0.0 0.0 0.0 0.0
2.495 -0.7446216940879822 0.3943353295326233 2.544466406106949e-05 2.336408942937851e-05 0.0 0.0 0.0 0.0
2.496 -0.7440041303634644 0.39339643716812134 3.7360936403274536e-05 2.868007868528366e-05 0.0 0.0 0.0 0.0
2.497 -0.7440065145492554 0.3958394527435303 4.550069570541382e-05 1.995917409658432e-05 0.0 0.0 0.0 0.0
2.498 -0.743114173412323 0.39752551913261414 2.9838643968105316e-05 -5.3746625781059265e-06 0.0 0.0 0.0 0.0
2.499 -0.7436412572860718 0.3962360620498657 4.398822784423828e-05 -6.256625056266785e-06 0.0 0.0 0.0 0.0
2.5 -0.7421359419822693 0.3976643979549408 4.35318797826767e-05 -1.8905848264694214e-06 0.0 0.0 0.0 0.0
2.501 -0.7415531873703003 0.4003455340862274 5.297921597957611e-05 -4.696659743785858e-06 0.0 0.0 0.0 0.0
2.502 -0.7417370676994324 0.39956071972846985 4.775635898113251e-05 -1.1643394827842712e-05 0.0 0.0 0.0 0.0
2.503 -0.7387629151344299 0.4024741053581238 4.8395246267318726e-05 2.9886141419410706e-06 0.0 0.0 0.0 0.0
2.504 -0.7400879859924316 0.4013235569000244 3.4986063838005066e-05 1.6777776181697845e-05 0.0 0.0 0.0 0.0
2.505 -0.739896297454834 0.401431679725647 4.312768578529358e-05 -4.150904715061188e-06 0.0 0.0 0.0 0.0
2.506 -0.7373851537704468 0.40611329674720764 5.3287483751773834e-05 -2.4158507585525513e-06 0.0 0.0 0.0 0.0
2.507 -0.7385051250457764 0.4048655033111572 6.246846169233322e-05 2.5964342057704926e-05 0.0 0.0 0.0 0.0
2.508 -0.7404864430427551 0.4031151533126831 2.1834857761859894e-05 8.234754204750061e-06 0.0 0.0 0.0 0.0
2.509 -0.7370453476905823 0.4067753851413727 5.69438561797142e-05 6.064772605895996e-06 0.0 0.0 0.0 0.0
2.51 -0.7359977960586548 0.4083417057991028 3.138743340969086e-05 9.25455242395401e-06 0.0 0.0 0.0 0.0
2.511 -0.7366754412651062 0.40661582350730896 5.643349140882492e-05 2.375338226556778e-05 0.0 0.0 0.0 0.0
2.512 -0.7350739240646362 0.40884342789649963 5.500856786966324e-05 1.717638224363327e-05 0.0 0.0 0.0 0.0
2.513 -0.7356495261192322 0.4087062180042267 1.1683441698551178e-05 2.2761523723602295e-06 0.0 0.0 0.0 0.0
2.514 -0.7343109250068665 0.4112641513347626 4.912819713354111e-05 1.4028511941432953e-05 0.0 0.0 0.0 0.0
2.515 -0.733181893825531 0.413735568523407 3.1410716474056244e-05 -8.56257975101471e-06 0.0 0.0 0.0 0.0
2.516 -0.7330109477043152 0.4149084687232971 4.336889833211899e-05 -6.834045052528381e-06 0.0 0.0 0.0 0.0
2.517 -0.7328187823295593 0.4130215644836426 6.861519068479538e-05 8.415430784225464e-06 0.0 0.0 0.0 0.0
2.518 -0.7318797707557678 0.41479888558387756 4.3633393943309784e-05 -1.6666948795318604e-05 0.0 0.0 0.0 0.0
2.519 -0.7312948107719421 0.4161827266216278 3.619398921728134e-05 -1.2895092368125916e-05 0.0 0.0 0.0 0.0
2.52 -0.7321629524230957 0.41491612792015076 5.10653480887413e-05 1.6250647604465485e-05 0.0 0.0 0.0 0.0
2.521 -0.7304428219795227 0.41711029410362244 2.1430663764476776e-05 -2.0505860447883606e-05 0.0 0.0 0.0 0.0
2.522 -0.7276545166969299 0.4206555485725403 5.5079348385334015e-05 -1.0896474123001099e-06 0.0 0.0 0.0 0.0
2.523 -0.7287131547927856 0.4177967309951782 5.2673742175102234e-05 -1.150369644165039e-05 0.0 0.0 0.0 0.0
2.524 -0.7270150184631348 0.42128464579582214 4.7145411372184753e-05 3.3285468816757202e-06 0.0 0.0 0.0 0.0
2.525 -0.7270460724830627 0.4215950071811676 6.11674040555954e-05 1.1515803635120392e-05 0.0 0.0 0.0 0.0
2.526 -0.7268428802490234 0.42103907465934753 3.957189619541168e-05 1.0089948773384094e-05 0.0 0.0 0.0 0.0
2.527 -0.7264189124107361 0.4228206276893616 3.756769001483917e-05 2.5229528546333313e-05 0.0 0.0 0.0 0.0
2.528 -0.7259349226951599 0.4241238832473755 4.319567233324051e-05 9.501352906227112e-06 0.0 0.0 0.0 0.0
2.529 -0.7251192927360535 0.4252544343471527 3.1152740120887756e-05 -1.7632730305194855e-05 0.0 0.0 0.0 0.0
2.53 -0.7231870889663696 0.4271620810031891 4.81950119137764e-05 1.3532117009162903e-05 0.0 0.0 0.0 0.0
2.531 -0.7250954508781433 0.4237285256385803 6.024353206157684e-05 1.0565854609012604e-05 0.0 0.0 0.0 0.0
2.532 -0.7227779030799866 0.4304560422897339 6.0755759477615356e-05 7.624737918376923e-06 0.0 0.0 0.0 0.0
2.533 -0.7202708125114441 0.42957088351249695 2.0666047930717468e-05 8.843839168548584e-06 0.0 0.0 0.0 0.0
2.534 -0.7209201455116272 0.4299870431423187 2.3943372070789337e-05 -2.3147091269493103e-05 0.0 0.0 0.0 0.0
2.535 -0.7213321924209595 0.4308268129825592 5.27501106262207e-05 3.405846655368805e-06 0.0 0.0 0.0 0.0
2.536 -0.7230315208435059 0.42812788486480713 7.388554513454437e-05 -9.805895388126373e-06 0.0 0.0 0.0 0.0
2.537 -0.7194264531135559 0.43412885069847107 3.1536445021629333e-05 -2.3478642106056213e-06 0.0 0.0 0.0 0.0
2.538 -0.7215095162391663 0.4301735758781433 3.98857519030571e-05 -1.576542854309082e-05 0.0 0.0 0.0 0.0
2.539 -0.7200638651847839 0.43282660841941833 2.6926398277282715e-05 -1.1572614312171936e-05 0.0 0.0 0.0 0.0
2.54 -0.718108594417572 0.4350029230117798 5.246791988611221e-05 -2.0060688257217407e-06 0.0 0.0 0.0 0.0
2.541 -0.7210292816162109 0.431787371635437 2.6380643248558044e-05 -2.7235597372055054e-05 0.0 0.0 0.0 0.0
2.542 -0.719997763633728 0.4356658458709717 3.421958535909653e-05 -5.112960934638977e-06 0.0 0.0 0.0 0.0
2.543 -0.7182385921478271 0.4357718825340271 3.962032496929169e-05 7.539056241512299e-06 0.0 0.0 0.0 0.0
2.544 -0.719167172908783 0.43525201082229614 2.137664705514908e-05 2.0663253962993622e-05 0.0 0.0 0.0 0.0
2.545 -0.7169868350028992 0.43774256110191345 3.7643127143383026e-05 -1.174677163362503e-05 0.0 0.0 0.0 0.0
2.546 -0.7152726650238037 0.4396120011806488 2.7497299015522003e-05 -7.150694727897644e-06 0.0 0.0 0.0 0.0
2.547 -0.7150076031684875 0.43825116753578186 6.423704326152802e-05 4.254281520843506e-06 0.0 0.0 0.0 0.0
2.548 -0.7124243974685669 0.4416915774345398 3.984570503234863e-05 -9.268522262573242e-06 0.0 0.0 0.0 0.0
2.549 -0.7121546864509583 0.44509533047676086 4.5030377805233e-05 -6.644055247306824e-06 0.0 0.0 0.0 0.0
2.55 -0.713733434677124 0.4409906566143036 2.7290545403957367e-05 1.158192753791809e-05 0.0 0.0 0.0 0.0
2.551 -0.7129080295562744 0.442445307970047 4.723947495222092e-05 -2.9439106583595276e-06 0.0 0.0 0.0 0.0
2.552 -0.7137724161148071 0.4426957964897156 4.1746534407138824e-05 2.7371570467948914e-06 0.0 0.0 0.0 0.0
2.553 -0.7134119868278503 0.4418606758117676 5.238037556409836e-05 7.870607078075409e-06 0.0 0.0 0.0 0.0
2.554 -0.7094758749008179 0.44552353024482727 2.881232649087906e-05 2.301204949617386e-05 0.0 0.0 0.0 0.0
2.555 -0.7115910053253174 0.4449118375778198 5.3309835493564606e-05 9.993091225624084e-06 0.0 0.0 0.0 0.0
2.556 -0.7109134793281555 0.44310370087623596 4.000309854745865e-05 -1.687556505203247e-06 0.0 0.0 0.0 0.0
2.557 -0.7105740308761597 0.4473840594291687 2.9014423489570618e-05 -5.632638931274414e-06 0.0 0.0 0.0 0.0
2.558 -0.7079398036003113 0.45019257068634033 4.072114825248718e-05 -1.598615199327469e-05 0.0 0.0 0.0 0.0
2.559 -0.7077726721763611 0.4499676525592804 3.319978713989258e-05 -1.8747523427009583e-06 0.0 0.0 0.0 0.0
2.56 -0.7080599069595337 0.44755789637565613 2.2670254111289978e-05 2.30446457862854e-05 0.0 0.0 0.0 0.0
2.561 -0.7072646021842957 0.45116889476776123 4.591420292854309e-05 1.1390075087547302e-06 0.0 0.0 0.0 0.0
2.562 -0.7062886357307434 0.4507666230201721 2.9217451810836792e-05 -2.6496127247810364e-06 0.0 0.0 0.0 0.0
2.563 -0.7085148692131042 0.4502561092376709 1.2218020856380463e-05 1.2024305760860443e-05 0.0 0.0 0.0 0.0
2.564 -0.705440878868103 0.4534701406955719 1.1447817087173462e-05 5.748122930526733e-06 0.0 0.0 0.0 0.0
2.565 -0.7046166062355042 0.45464232563972473 1.5573576092720032e-05 -3.8421712815761566e-05 0.0 0.0 0.0 0.0
2.566 -0.7047494053840637 0.45371195673942566 -4.796311259269714e-07 1.2449920177459717e-05 0.0 0.0 0.0 0.0
2.567 -0.7029634118080139 0.45518165826797485 -4.945322871208191e-07 4.449859261512756e-06 0.0 0.0 0.0 0.0
2.568 -0.7017481923103333 0.4555249512195587 4.531536251306534e-05 1.8315389752388e-05 0.0 0.0 0.0 0.0
2.569 -0.7030171751976013 0.4560041129589081 6.355345249176025e-06 2.4184584617614746e-05 0.0 0.0 0.0 0.0
2.57 -0.7019264698028564 0.45681464672088623 4.411861300468445e-05 5.150213837623596e-06 0.0 0.0 0.0 0.0
2.571 -0.6998741626739502 0.45886000990867615 1.6252510249614716e-05 -8.626841008663177e-06 0.0 0.0 0.0 0.0
2.572 -0.7026181221008301 0.4567064344882965 2.7744099497795105e-06 -1.826416701078415e-05 0.0 0.0 0.0 0.0
2.573 -0.700636625289917 0.45651790499687195 4.021357744932175e-05 3.697443753480911e-05 0.0 0.0 0.0 0.0
2.574 -0.6966123580932617 0.46098580956459045 4.530511796474457e-05 -9.221956133842468e-06 0.0 0.0 0.0 0.0
2.575 -0.701016902923584 0.4569440186023712 1.5742145478725433e-05 1.8309801816940308e-06 0.0 0.0 0.0 0.0
2.576 -0.698896050453186 0.4593523442745209 5.797017365694046e-05 1.6577541828155518e-05 0.0 0.0 0.0 0.0
2.577 -0.6987699866294861 0.4613156318664551 6.568804383277893e-05 2.8360635042190552e-05 0.0 0.0 0.0 0.0
2.578 -0.6973427534103394 0.4588448703289032 4.70457598567009e-05 2.859160304069519e-06 0.0 0.0 0.0 0.0
2.579 -0.6966361999511719 0.462879478931427 3.749784082174301e-05 -1.0849907994270325e-06 0.0 0.0 0.0 0.0
2.58 -0.6978467702865601 0.4585466682910919 2.0789913833141327e-05 1.1541880667209625e-05 0.0 0.0 0.0 0.0
2.581 -0.6939878463745117 0.4640974700450897 3.220047801733017e-05 2.919696271419525e-06 0.0 0.0 0.0 0.0
2.582 -0.6957917809486389 0.46243181824684143 3.652740269899368e-05 1.556146889925003e-05 0.0 0.0 0.0 0.0
2.583 -0.6963615417480469 0.4612417221069336 5.040690302848816e-05 2.8313137590885162e-05 0.0 0.0 0.0 0.0
2.584 -0.6949105858802795 0.46116694808006287 4.454050213098526e-05 4.2304396629333496e-05 0.0 0.0 0.0 0.0
2.585 -0.6952518820762634 0.46407487988471985 2.5892630219459534e-05 2.672150731086731e-05 0.0 0.0 0.0 0.0
2.586 -0.6961310505867004 0.4631393253803253 5.878414958715439e-05 -2.1146610379219055e-05 0.0 0.0 0.0 0.0
2.587 -0.6959239840507507 0.4635505676269531 4.6659260988235474e-05 2.3900531232357025e-05 0.0 0.0 0.0 0.0
2.588 -0.6946901082992554 0.4653106927871704 7.197819650173187e-05 2.9943883419036865e-05 0.0 0.0 0.0 0.0
2.589 -0.6939807534217834 0.462581604719162 4.8675574362277985e-05 -1.6565434634685516e-05 0.0 0.0 0.0 0.0
2.59 -0.6905738711357117 0.4651566445827484 6.158929318189621e-05 -1.5934929251670837e-06 0.0 0.0 0.0 0.0
2.591 -0.6935989260673523 0.46673884987831116 5.586724728345871e-05 1.4565885066986084e-05 0.0 0.0 0.0 0.0
2.592 -0.695814847946167 0.4642602205276489 5.741231143474579e-05 -1.207645982503891e-05 0.0 0.0 0.0 0.0
2.593 -0.6935660243034363 0.46707993745803833 4.688091576099396e-05 2.5155022740364075e-06 0.0 0.0 0.0 0.0
2.594 -0.6952732801437378 0.4662618339061737 3.5208649933338165e-05 8.461065590381622e-06 0.0 0.0 0.0 0.0
2.595 -0.6935180425643921 0.46918851137161255 4.950631409883499e-05 -3.7940219044685364e-05 0.0 0.0 0.0 0.0
2.596 -0.69194495677948 0.47344937920570374 2.952665090560913e-05 6.591901183128357e-06 0.0 0.0 0.0 0.0
2.597 -0.6945896148681641 0.46770909428596497 4.85861673951149e-05 3.918074071407318e-06 0.0 0.0 0.0 0.0
2.598 -0.693550169467926 0.4700866937637329 5.04152849316597e-05 -2.1383166313171387e-05 0.0 0.0 0.0 0.0
2.599 -0.695076048374176 0.4682925045490265 5.4951757192611694e-05 -1.2394040822982788e-05 0.0 0.0 0.0 0.0
2.6 -0.6924949288368225 0.4723992347717285 2.2240914404392242e-05 2.4477951228618622e-05 0.0 0.0 0.0 0.0
2.601 -0.692162036895752 0.4725186824798584 3.959052264690399e-05 9.061768651008606e-07 0.0 0.0 0.0 0.0
2.602 -0.6922951340675354 0.4724230170249939 1.9045546650886536e-05 -2.5408342480659485e-05 0.0 0.0 0.0 0.0
2.603 -0.6941152215003967 0.4726467728614807 5.1672570407390594e-05 -5.029141902923584e-06 0.0 0.0 0.0 0.0
2.604 -0.6887612342834473 0.47554001212120056 2.4003908038139343e-05 4.680827260017395e-06 0.0 0.0 0.0 0.0
2.605 -0.6937415599822998 0.47450703382492065 3.621447831392288e-05 1.0881572961807251e-05 0.0 0.0 0.0 0.0
2.606 -0.6924058794975281 0.4759868085384369 2.7995556592941284e-05 -1.037493348121643e-06 0.0 0.0 0.0 0.0
2.607 -0.691955029964447 0.47679421305656433 3.310013562440872e-05 -1.1195428669452667e-05 0.0 0.0 0.0 0.0
2.608 -0.6922875046730042 0.4787046015262604 4.021544009447098e-05 -1.9458122551441193e-05 0.0 0.0 0.0 0.0
2.609 -0.6920791268348694 0.4784573018550873 4.3973326683044434e-05 2.4650245904922485e-05 0.0 0.0 0.0 0.0
2.61 -0.6899319887161255 0.4830554127693176 3.062281757593155e-05 1.3080425560474396e-05 0.0 0.0 0.0 0.0
2.611 -0.693361222743988 0.4765985906124115 5.066581070423126e-05 -8.52532684803009e-06 0.0 0.0 0.0 0.0
2.612 -0.693122386932373 0.4798468351364136 4.956591874361038e-05 -2.731289714574814e-05 0.0 0.0 0.0 0.0
2.613 -0.69207763671875 0.4822542667388916 2.7783215045928955e-05 -1.4513731002807617e-05 0.0 0.0 0.0 0.0
2.614 -0.6897403597831726 0.4860522150993347 5.716085433959961e-05 3.295019268989563e-06 0.0 0.0 0.0 0.0
2.615 -0.6907702684402466 0.4826864004135132 2.2268854081630707e-05 -5.223788321018219e-06 0.0 0.0 0.0 0.0
2.616 -0.690148651599884 0.4836352467536926 2.4517066776752472e-05 -1.2822449207305908e-05 0.0 0.0 0.0 0.0
2.617 -0.6894358992576599 0.4800703525543213 1.9826926290988922e-05 -1.1721625924110413e-05 0.0 0.0 0.0 0.0
2.618 -0.6896201372146606 0.48560830950737 4.4236890971660614e-05 3.4263357520103455e-06 0.0 0.0 0.0 0.0
2.619 -0.6914911270141602 0.48347294330596924 2.4342909455299377e-05 1.0654330253601074e-06 0.0 0.0 0.0 0.0
2.62 -0.6908363699913025 0.48585712909698486 4.187785089015961e-05 4.7245994210243225e-06 0.0 0.0 0.0 0.0
2.621 -0.6881490349769592 0.48795562982559204 6.337091326713562e-05 1.8279068171977997e-05 0.0 0.0 0.0 0.0
2.622 -0.691343367099762 0.4859561324119568 5.1058828830718994e-05 2.2952444851398468e-05 0.0 0.0 0.0 0.0
2.623 -0.6890266537666321 0.48870694637298584 5.1373615860939026e-05 2.648681402206421e-06 0.0 0.0 0.0 0.0
2.624 -0.6875213980674744 0.48984402418136597 5.0934962928295135e-05 2.3222528398036957e-05 0.0 0.0 0.0 0.0
2.625 -0.6916526556015015 0.4850574731826782 2.8514303267002106e-05 5.078501999378204e-06 0.0 0.0 0.0 0.0
2.626 -0.6854256987571716 0.49089866876602173 3.3600255846977234e-05 -3.322027623653412e-06 0.0 0.0 0.0 0.0
2.627 -0.6880989074707031 0.48966366052627563 3.100745379924774e-05 -1.5906989574432373e-05 0.0 0.0 0.0 0.0
2.628 -0.6921706199645996 0.4927120506763458 1.9681639969348907e-05 3.266148269176483e-06 0.0 0.0 0.0 0.0
2.629 -0.6838254928588867 0.49134355783462524 2.336781471967697e-05 -5.153939127922058e-06 0.0 0.0 0.0 0.0
2.63 -0.6881703734397888 0.49215203523635864 2.3088417947292328e-05 1.2638978660106659e-05 0.0 0.0 0.0 0.0
2.631 -0.6864321827888489 0.4938494563102722 4.0271319448947906e-05 1.1506490409374237e-05 0.0 0.0 0.0 0.0
2.632 -0.6861586570739746 0.4958462119102478 3.959331661462784e-05 7.5874850153923035e-06 0.0 0.0 0.0 0.0
2.633 -0.687395453453064 0.4944925606250763 3.7291087210178375e-05 1.2345612049102783e-05 0.0 0.0 0.0 0.0
2.634 -0.6870609521865845 0.49531522393226624 2.4998560547828674e-05 4.5532360672950745e-06 0.0 0.0 0.0 0.0
2.635 -0.6878693699836731 0.49422475695610046 2.429913729429245e-05 1.7308630049228668e-05 0.0 0.0 0.0 0.0
2.636 -0.6853138208389282 0.49587589502334595 5.4216012358665466e-05 1.8182210624217987e-05 0.0 0.0 0.0 0.0
2.637 -0.6845201849937439 0.49884045124053955 3.7588179111480713e-06 -6.794929504394531e-06 0.0 0.0 0.0 0.0
2.638 -0.6885839700698853 0.5002720355987549 6.104446947574615e-05 -4.302710294723511e-07 0.0 0.0 0.0 0.0
2.639 -0.6857938766479492 0.49744078516960144 5.1857903599739075e-05 2.246350049972534e-06 0.0 0.0 0.0 0.0
2.64 -0.6807950139045715 0.5020155310630798 3.889016807079315e-05 2.8203241527080536e-05 0.0 0.0 0.0 0.0
2.641 -0.6831356287002563 0.4998517334461212 2.5952234864234924e-05 1.822691410779953e-05 0.0 0.0 0.0 0.0
2.642 -0.6846632361412048 0.499653697013855 3.153271973133087e-05 2.0328909158706665e-05 0.0 0.0 0.0 0.0
2.643 -0.6840406656265259 0.5007692575454712 2.6035122573375702e-05 3.378838300704956e-06 0.0 0.0 0.0 0.0
2.644 -0.6838917136192322 0.5050570368766785 4.852470010519028e-05 -2.956204116344452e-05 0.0 0.0 0.0 0.0
2.645 -0.6837936043739319 0.5031940937042236 1.5622936189174652e-05 -2.7185305953025818e-06 0.0 0.0 0.0 0.0
2.646 -0.682686984539032 0.5020169615745544 3.5839155316352844e-05 2.91336327791214e-05 0.0 0.0 0.0 0.0
2.647 -0.6801906228065491 0.5068662762641907 2.0652078092098236e-05 -1.933332532644272e-05 0.0 0.0 0.0 0.0
2.648 -0.6832048296928406 0.5055800080299377 2.00541689991951e-05 2.986285835504532e-05 0.0 0.0 0.0 0.0
2.649 -0.6821439862251282 0.5044835805892944 1.1876225471496582e-05 4.034209996461868e-05 0.0 0.0 0.0 0.0
2.65 -0.682940661907196 0.5027729868888855 5.2990391850471497e-05 3.851950168609619e-06 0.0 0.0 0.0 0.0
2.651 -0.6833544373512268 0.5041149258613586 5.5072829127311707e-05 8.930452167987823e-06 0.0 0.0 0.0 0.0
2.652 -0.6862817406654358 0.5047457218170166 3.9150938391685486e-05 -3.2922253012657166e-06 0.0 0.0 0.0 0.0
2.653 -0.6794062256813049 0.5064479112625122 5.688238888978958e-05 2.8289854526519775e-05 0.0 0.0 0.0 0.0
2.654 -0.6827200055122375 0.5068697929382324 3.830809146165848e-05 2.5908462703227997e-05 0.0 0.0 0.0 0.0
2.655 -0.6841081976890564 0.5063470005989075 3.8644298911094666e-05 1.2078322470188141e-05 0.0 0.0 0.0 0.0
2.656 -0.6786082983016968 0.5088040828704834 5.5291689932346344e-05 1.5106052160263062e-05 0.0 0.0 0.0 0.0
2.657 -0.6858595609664917 0.5051760077476501 3.977399319410324e-05 2.8354115784168243e-05 0.0 0.0 0.0 0.0
2.658 -0.6803607940673828 0.5112001299858093 1.6808509826660156e-05 1.1281110346317291e-05 0.0 0.0 0.0 0.0
2.659 -0.6815896034240723 0.5105156302452087 4.388391971588135e-06 4.0153972804546356e-05 0.0 0.0 0.0 0.0
2.66 -0.6841477751731873 0.5078811049461365 8.649192750453949e-06 1.5183351933956146e-05 0.0 0.0 0.0 0.0
2.661 -0.6782872676849365 0.5140321850776672 2.335570752620697e-05 2.7307309210300446e-05 0.0 0.0 0.0 0.0
2.662 -0.6817301511764526 0.5101507306098938 5.101040005683899e-05 2.0815059542655945e-05 0.0 0.0 0.0 0.0
2.663 -0.6838518977165222 0.5097455382347107 5.1062554121017456e-05 8.398666977882385e-06 0.0 0.0 0.0 0.0
2.664 -0.6801459193229675 0.5112252831459045 1.7486512660980225e-05 2.3992732167243958e-05 0.0 0.0 0.0 0.0
2.665 -0.6769185662269592 0.5153877139091492 3.149546682834625e-05 -8.288770914077759e-06 0.0 0.0 0.0 0.0
2.666 -0.6802620887756348 0.5141084790229797 3.189407289028168e-05 -1.2367963790893555e-06 0.0 0.0 0.0 0.0
2.667 -0.6800437569618225 0.5131661295890808 -1.1915341019630432e-05 2.1085143089294434e-05 0.0 0.0 0.0 0.0
2.668 -0.6790479421615601 0.5153815150260925 2.473406493663788e-05 1.1052936315536499e-05 0.0 0.0 0.0 0.0
2.669 -0.6802356839179993 0.5148013830184937 1.8542632460594177e-06 1.5985220670700073e-05 0.0 0.0 0.0 0.0
2.67 -0.6794825196266174 0.5186748504638672 5.150213837623596e-05 -9.6932053565979e-06 0.0 0.0 0.0 0.0
2.671 -0.6776558756828308 0.5190118551254272 3.2990239560604095e-05 1.3522803783416748e-05 0.0 0.0 0.0 0.0
2.672 -0.6769683361053467 0.5183343887329102 4.8026442527770996e-05 2.356152981519699e-05 0.0 0.0 0.0 0.0
2.673 -0.6761384606361389 0.5197685956954956 5.631707608699799e-06 -2.9161572456359863e-05 0.0 0.0 0.0 0.0
2.674 -0.6767824292182922 0.5156551599502563 1.7189420759677887e-05 -3.0174851417541504e-07 0.0 0.0 0.0 0.0
2.675 -0.6793320775032043 0.518308699131012 3.0897557735443115e-05 4.55416738986969e-05 0.0 0.0 0.0 0.0
2.676 -0.6780043244361877 0.518732488155365 8.029863238334656e-06 3.5390257835388184e-06 0.0 0.0 0.0 0.0
2.677 -0.6735521554946899 0.5172451734542847 3.6777928471565247e-05 3.177206963300705e-05 0.0 0.0 0.0 0.0
2.678 -0.6787141561508179 0.5180957913398743 4.553329199552536e-05 5.553476512432098e-06 0.0 0.0 0.0 0.0
2.679 -0.6773204803466797 0.5217717885971069 5.304533988237381e-05 4.9320049583911896e-05 0.0 0.0 0.0 0.0
2.68 -0.6757907271385193 0.5223736763000488 8.66968184709549e-06 2.1304935216903687e-05 0.0 0.0 0.0 0.0
2.681 -0.6757628321647644 0.5241720080375671 6.156880408525467e-05 8.12578946352005e-06 0.0 0.0 0.0 0.0
2.682 -0.6790962219238281 0.5238478183746338 3.279745578765869e-05 7.982365787029266e-06 0.0 0.0 0.0 0.0
2.683 -0.6755030155181885 0.5258932113647461 1.586414873600006e-05 5.1505863666534424e-05 0.0 0.0 0.0 0.0
2.684 -0.6742214560508728 0.5265331864356995 4.993751645088196e-05 -1.0314397513866425e-05 0.0 0.0 0.0 0.0
2.685 -0.6758627891540527 0.5269951224327087 4.980526864528656e-05 3.0471011996269226e-05 0.0 0.0 0.0 0.0
2.686 -0.6691815257072449 0.5247258543968201 4.078727215528488e-05 2.3682601749897003e-05 0.0 0.0 0.0 0.0
2.687 -0.6780063509941101 0.5212259292602539 7.714889943599701e-05 2.204813063144684e-05 0.0 0.0 0.0 0.0
2.688 -0.6728070974349976 0.5304145216941833 2.5729648768901825e-05 2.6367604732513428e-05 0.0 0.0 0.0 0.0
2.689 -0.6760083436965942 0.524876594543457 1.89952552318573e-05 1.444946974515915e-05 0.0 0.0 0.0 0.0
2.69 -0.672766923904419 0.5296244621276855 5.5497512221336365e-06 1.3513490557670593e-05 0.0 0.0 0.0 0.0
2.691 -0.6787753105163574 0.5234792232513428 7.031671702861786e-05 2.7781352400779724e-06 0.0 0.0 0.0 0.0
2.692 -0.6761943697929382 0.522822916507721 1.4774501323699951e-05 4.592444747686386e-05 0.0 0.0 0.0 0.0
2.693 -0.6764364838600159 0.5268489718437195 3.392063081264496e-05 4.2644329369068146e-05 0.0 0.0 0.0 0.0
2.694 -0.678148627281189 0.5268920660018921 3.941543400287628e-05 -5.1083043217659e-06 0.0 0.0 0.0 0.0
2.695 -0.6723828315734863 0.5358686447143555 9.486451745033264e-06 4.340801388025284e-05 0.0 0.0 0.0 0.0
2.696 -0.674863874912262 0.5298272371292114 4.24850732088089e-05 1.7900019884109497e-05 0.0 0.0 0.0 0.0
2.697 -0.6773551106452942 0.5302531123161316 3.7894584238529205e-05 3.395788371562958e-05 0.0 0.0 0.0 0.0
2.698 -0.6736728549003601 0.5307382941246033 1.6818754374980927e-05 2.3175962269306183e-05 0.0 0.0 0.0 0.0
2.699 -0.6726130843162537 0.5329124927520752 3.656931221485138e-05 2.0886771380901337e-05 0.0 0.0 0.0 0.0
2.7 -0.6756800413131714 0.5373893976211548 2.5599263608455658e-05 9.931623935699463e-06 0.0 0.0 0.0 0.0
2.701 -0.6741171479225159 0.5336285829544067 3.2374635338783264e-05 4.955753684043884e-05 0.0 0.0 0.0 0.0
2.702 -0.6752661466598511 0.5348858833312988 6.454810500144958e-05 4.9930065870285034e-05 0.0 0.0 0.0 0.0
2.703 -0.6753281950950623 0.5337387919425964 4.1631050407886505e-05 2.4318695068359375e-05 0.0 0.0 0.0 0.0
2.704 -0.6742119789123535 0.5326859354972839 1.095607876777649e-05 5.406234413385391e-05 0.0 0.0 0.0 0.0
2.705 -0.6722680330276489 0.5358641743659973 6.974395364522934e-05 3.975164145231247e-05 0.0 0.0 0.0 0.0
2.706 -0.6722902655601501 0.5396314263343811 2.0014122128486633e-05 -1.552235335111618e-05 0.0 0.0 0.0 0.0
2.707 -0.670960545539856 0.535412073135376 2.590194344520569e-05 -9.06921923160553e-06 0.0 0.0 0.0 0.0
2.708 -0.6740583181381226 0.5365354418754578 4.379916936159134e-05 3.449432551860809e-05 0.0 0.0 0.0 0.0
2.709 -0.6731175780296326 0.5354340076446533 2.4712644517421722e-05 3.870297223329544e-05 0.0 0.0 0.0 0.0
2.71 -0.6748165488243103 0.5410221815109253 4.977267235517502e-05 2.1778978407382965e-05 0.0 0.0 0.0 0.0
2.711 -0.6691542863845825 0.5433130860328674 6.759725511074066e-05 3.0083581805229187e-05 0.0 0.0 0.0 0.0
2.712 -0.6733655333518982 0.5366572141647339 3.4528784453868866e-05 6.957165896892548e-05 0.0 0.0 0.0 0.0
2.713 -0.6694465279579163 0.5481076240539551 2.804398536682129e-05 1.8067657947540283e-05 0.0 0.0 0.0 0.0
2.714 -0.6721632480621338 0.5421100854873657 3.82130965590477e-05 5.204882472753525e-05 0.0 0.0 0.0 0.0
2.715 -0.673193097114563 0.5400559306144714 3.2801181077957153e-06 2.713315188884735e-05 0.0 0.0 0.0 0.0
2.716 -0.6704977750778198 0.5420714020729065 7.96876847743988e-05 3.854092210531235e-05 0.0 0.0 0.0 0.0
2.717 -0.6714105606079102 0.5428111553192139 6.33997842669487e-05 3.527943044900894e-05 0.0 0.0 0.0 0.0
2.718 -0.6726562976837158 0.5422266721725464 7.665157318115234e-05 2.4847686290740967e-06 0.0 0.0 0.0 0.0
2.719 -0.6712234616279602 0.54512619972229 5.197152495384216e-05 3.858841955661774e-05 0.0 0.0 0.0 0.0
2.72 -0.6721295118331909 0.5460440516471863 3.3476389944553375e-05 5.6743621826171875e-05 0.0 0.0 0.0 0.0
2.721 -0.6722149848937988 0.5426507592201233 2.1309591829776764e-05 3.867223858833313e-05 0.0 0.0 0.0 0.0
2.722 -0.6649025678634644 0.5479958653450012 6.970390677452087e-05 1.549161970615387e-05 0.0 0.0 0.0 0.0
2.723 -0.6721155643463135 0.5455273985862732 3.876537084579468e-05 3.208126872777939e-05 0.0 0.0 0.0 0.0
2.724 -0.6714209914207458 0.5483006238937378 8.034519851207733e-05 3.235135227441788e-05 0.0 0.0 0.0 0.0
2.725 -0.6633675694465637 0.5482296943664551 2.6061199605464935e-05 3.877468407154083e-05 0.0 0.0 0.0 0.0
2.726 -0.6729575991630554 0.5441076755523682 4.0193088352680206e-05 4.7283247113227844e-05 0.0 0.0 0.0 0.0
2.727 -0.6697558164596558 0.5464717745780945 5.051400512456894e-05 5.7522207498550415e-05 0.0 0.0 0.0 0.0
2.728 -0.6656460762023926 0.5478943586349487 1.9892118871212006e-05 3.5997480154037476e-05 0.0 0.0 0.0 0.0
2.729 -0.6696651577949524 0.5498002171516418 7.473118603229523e-05 3.3867545425891876e-05 0.0 0.0 0.0 0.0
2.73 -0.669433057308197 0.5466235876083374 5.599949508905411e-05 -1.9837170839309692e-07 0.0 0.0 0.0 0.0
2.731 -0.6658432483673096 0.5485405325889587 5.33396378159523e-05 -7.948838174343109e-06 0.0 0.0 0.0 0.0
2.732 -0.6692714691162109 0.5511865019798279 3.8389116525650024e-05 1.5313737094402313e-05 0.0 0.0 0.0 0.0
2.733 -0.6710854768753052 0.5481736660003662 8.484628051519394e-05 4.768744111061096e-05 0.0 0.0 0.0 0.0
2.734 -0.6730666756629944 0.5558675527572632 7.300823926925659e-05 2.1441839635372162e-05 0.0 0.0 0.0 0.0
2.735 -0.6676383018493652 0.554924726486206 4.970189183950424e-05 2.5717541575431824e-05 0.0 0.0 0.0 0.0
2.736 -0.6695839166641235 0.551893949508667 4.477053880691528e-05 2.7385540306568146e-05 0.0 0.0 0.0 0.0
2.737 -0.6701119542121887 0.5499877333641052 7.208902388811111e-05 2.4002976715564728e-05 0.0 0.0 0.0 0.0
2.738 -0.6676790118217468 0.554995596408844 2.3781321942806244e-05 2.531427890062332e-05 0.0 0.0 0.0 0.0
2.739 -0.6667852401733398 0.5531565546989441 8.736737072467804e-06 6.637349724769592e-05 0.0 0.0 0.0 0.0
2.74 -0.6726031303405762 0.5512593388557434 7.169414311647415e-05 3.060605376958847e-05 0.0 0.0 0.0 0.0
2.741 -0.6667089462280273 0.5551176071166992 2.8848648071289062e-05 4.236586391925812e-05 0.0 0.0 0.0 0.0
2.742 -0.6700192093849182 0.5520617365837097 3.5917386412620544e-05 4.5035965740680695e-05 0.0 0.0 0.0 0.0
2.743 -0.6651979088783264 0.5508754849433899 4.296284168958664e-05 3.495626151561737e-05 0.0 0.0 0.0 0.0
2.744 -0.666846752166748 0.5587349534034729 -5.078501999378204e-06 4.5727938413619995e-05 0.0 0.0 0.0 0.0
2.745 -0.6666198968887329 0.5584006309509277 1.5150755643844604e-05 4.310067743062973e-05 0.0 0.0 0.0 0.0
2.746 -0.66895592212677 0.552825391292572 4.4852495193481445e-05 4.076119512319565e-05 0.0 0.0 0.0 0.0
2.747 -0.6675280332565308 0.5575116872787476 2.0170584321022034e-05 3.5830773413181305e-05 0.0 0.0 0.0 0.0
2.748 -0.6665282845497131 0.5550395250320435 3.474671393632889e-05 4.21963632106781e-05 0.0 0.0 0.0 0.0
2.749 -0.6650243401527405 0.5594452619552612 1.1962838470935822e-05 5.414895713329315e-05 0.0 0.0 0.0 0.0
2.75 -0.6659975051879883 0.5595226287841797 4.941131919622421e-05 7.930956780910492e-05 0.0 0.0 0.0 0.0
2.751 -0.6633674502372742 0.560705840587616 3.615859895944595e-05 8.183624595403671e-05 0.0 0.0 0.0 0.0
2.752 -0.6716507077217102 0.5575493574142456 1.96211040019989e-05 3.4646131098270416e-05 0.0 0.0 0.0 0.0
2.753 -0.6654473543167114 0.5607434511184692 5.523208528757095e-05 3.440398722887039e-05 0.0 0.0 0.0 0.0
2.754 -0.6674419641494751 0.5621405839920044 6.488896906375885e-05 5.722884088754654e-05 0.0 0.0 0.0 0.0
2.755 -0.6632481813430786 0.5612229108810425 6.36642798781395e-05 4.2963773012161255e-05 0.0 0.0 0.0 0.0
2.756 -0.6642544269561768 0.5616409182548523 7.785670459270477e-05 2.8595328330993652e-05 0.0 0.0 0.0 0.0
2.757 -0.6657410264015198 0.5618612170219421 6.453506648540497e-05 6.0072168707847595e-05 0.0 0.0 0.0 0.0
2.758 -0.6622571349143982 0.5578368902206421 7.098820060491562e-05 3.228895366191864e-05 0.0 0.0 0.0 0.0
2.759 -0.6652809977531433 0.5631324052810669 6.765592843294144e-05 5.899183452129364e-05 0.0 0.0 0.0 0.0
2.76 -0.668278157711029 0.561336874961853 5.055312067270279e-05 5.7977624237537384e-05 0.0 0.0 0.0 0.0
2.761 -0.6672855615615845 0.5623762607574463 5.037803202867508e-05 6.867665797472e-05 0.0 0.0 0.0 0.0
2.762 -0.6628819704055786 0.5659213662147522 4.5262277126312256e-05 7.082708179950714e-05 0.0 0.0 0.0 0.0
2.763 -0.6680801510810852 0.5591636896133423 8.809845894575119e-05 5.195941776037216e-05 0.0 0.0 0.0 0.0
2.764 -0.666362464427948 0.5619611144065857 1.717638224363327e-05 5.6053511798381805e-05 0.0 0.0 0.0 0.0
2.765 -0.6613569259643555 0.567838728427887 5.7452358305454254e-05 2.68593430519104e-05 0.0 0.0 0.0 0.0
2.766 -0.6695752143859863 0.5616048574447632 3.750436007976532e-05 3.740750253200531e-05 0.0 0.0 0.0 0.0
2.767 -0.6631588935852051 0.5648635625839233 5.276966840028763e-05 2.0257197320461273e-05 0.0 0.0 0.0 0.0
2.768 -0.6623649597167969 0.5670171976089478 6.673205643892288e-05 5.5252574384212494e-05 0.0 0.0 0.0 0.0
2.769 -0.6713845729827881 0.5619581937789917 0.00010473933070898056 2.4121254682540894e-05 0.0 0.0 0.0 0.0
2.77 -0.6652528643608093 0.5719570517539978 3.50121408700943e-05 2.8081238269805908e-05 0.0 0.0 0.0 0.0
2.771 -0.6644783616065979 0.5672778487205505 7.293280214071274e-05 7.878430187702179e-05 0.0 0.0 0.0 0.0
2.772 -0.6668180823326111 0.5675064921379089 0.00010765902698040009 3.237370401620865e-05 0.0 0.0 0.0 0.0
2.773 -0.6623676419258118 0.5695914030075073 -4.752539098262787e-06 1.89170241355896e-05 0.0 0.0 0.0 0.0
2.774 -0.6633886098861694 0.5682392120361328 7.12154433131218e-05 6.035342812538147e-05 0.0 0.0 0.0 0.0
2.775 -0.663821280002594 0.5697261691093445 6.826408207416534e-05 1.984555274248123e-05 0.0 0.0 0.0 0.0
2.776 -0.667490541934967 0.5681881308555603 5.514640361070633e-05 4.1146762669086456e-05 0.0 0.0 0.0 0.0
2.777 -0.6674402952194214 0.5692446231842041 0.0001084664836525917 5.099829286336899e-05 0.0 0.0 0.0 0.0
2.778 -0.6697021722793579 0.568966269493103 9.646918624639511e-05 2.2322870790958405e-05 0.0 0.0 0.0 0.0
2.779 -0.6630896925926208 0.5733245015144348 6.1805360019207e-05 4.759524017572403e-05 0.0 0.0 0.0 0.0
2.78 -0.6666536331176758 0.5700392723083496 0.00010129902511835098 5.508679896593094e-05 0.0 0.0 0.0 0.0
2.781 -0.6690655946731567 0.5670509338378906 5.107372999191284e-05 3.779307007789612e-05 0.0 0.0 0.0 0.0
2.782 -0.6660528182983398 0.5788426995277405 0.00012016203254461288 2.771429717540741e-05 0.0 0.0 0.0 0.0
2.783 -0.6680606007575989 0.5711157321929932 7.35204666852951e-05 4.09809872508049e-05 0.0 0.0 0.0 0.0
2.784 -0.6691369414329529 0.5725589990615845 6.182584911584854e-05 7.50366598367691e-06 0.0 0.0 0.0 0.0
2.785 -0.667326033115387 0.5760778188705444 8.212774991989136e-05 -2.6561319828033447e-06 0.0 0.0 0.0 0.0
2.786 -0.6662353277206421 0.5737079977989197 9.479746222496033e-05 1.19013711810112e-05 0.0 0.0 0.0 0.0
2.787 -0.6676530838012695 0.5711185932159424 4.7451816499233246e-05 1.7491169273853302e-05 0.0 0.0 0.0 0.0
2.788 -0.6687998175621033 0.5773340463638306 0.00011458061635494232 2.5042332708835602e-05 0.0 0.0 0.0 0.0
2.789 -0.6675407886505127 0.5748326778411865 9.551551192998886e-05 8.900649845600128e-06 0.0 0.0 0.0 0.0
2.79 -0.6682392954826355 0.5742299556732178 3.603007644414902e-05 -4.159286618232727e-06 0.0 0.0 0.0 0.0
2.791 -0.6650922894477844 0.5741409659385681 4.228763282299042e-05 3.583729267120361e-05 0.0 0.0 0.0 0.0
2.792 -0.6704721450805664 0.5753946900367737 5.920417606830597e-05 3.770645707845688e-05 0.0 0.0 0.0 0.0
2.793 -0.6646974086761475 0.5781735777854919 6.139930337667465e-05 1.3576820492744446e-05 0.0 0.0 0.0 0.0
2.794 -0.6692423224449158 0.5744307041168213 8.740182965993881e-05 8.014962077140808e-06 0.0 0.0 0.0 0.0
2.795 -0.6662209033966064 0.5804567933082581 5.9915706515312195e-05 -2.910662442445755e-05 0.0 0.0 0.0 0.0
2.796 -0.6687093377113342 0.582227885723114 3.654416650533676e-05 9.840354323387146e-06 0.0 0.0 0.0 0.0
2.797 -0.6693969964981079 0.579345703125 8.88751819729805e-05 6.156042218208313e-06 0.0 0.0 0.0 0.0
2.798 -0.6679003238677979 0.5786122679710388 4.455354064702988e-05 3.102421760559082e-05 0.0 0.0 0.0 0.0
2.799 -0.6684169769287109 0.580420732498169 7.266271859407425e-05 -9.35140997171402e-06 0.0 0.0 0.0 0.0
2.8 -0.6710333228111267 0.5847926735877991 6.806757301092148e-05 1.4882534742355347e-06 0.0 0.0 0.0 0.0
2.801 -0.6703389286994934 0.5815693140029907 1.2650154531002045e-05 3.802590072154999e-05 0.0 0.0 0.0 0.0
2.802 -0.6705660223960876 0.5793453454971313 4.831422120332718e-05 4.853401333093643e-05 0.0 0.0 0.0 0.0
2.803 -0.6658503413200378 0.5838369131088257 5.850102752447128e-05 4.894658923149109e-05 0.0 0.0 0.0 0.0
2.804 -0.6675037145614624 0.5824639797210693 3.555323928594589e-05 -3.0063092708587646e-06 0.0 0.0 0.0 0.0
2.805 -0.6705970764160156 0.5814968943595886 5.94044104218483e-05 5.970709025859833e-06 0.0 0.0 0.0 0.0
2.806 -0.6659267544746399 0.5848941802978516 1.1985190212726593e-05 -1.2333504855632782e-05 0.0 0.0 0.0 0.0
2.807 -0.6690359711647034 0.5844810605049133 7.209461182355881e-05 9.162351489067078e-06 0.0 0.0 0.0 0.0
2.808 -0.6710383892059326 0.5822679996490479 4.9023889005184174e-05 3.091711550951004e-05 0.0 0.0 0.0 0.0
2.809 -0.6652401685714722 0.5844185948371887 6.238184869289398e-05 5.685724318027496e-05 0.0 0.0 0.0 0.0
2.81 -0.6702612638473511 0.5867293477058411 7.189065217971802e-05 4.167389124631882e-05 0.0 0.0 0.0 0.0
2.811 -0.6703549027442932 0.585241973400116 6.84475526213646e-05 1.4836899936199188e-05 0.0 0.0 0.0 0.0
2.812 -0.6678603887557983 0.5865486264228821 4.600454121828079e-05 9.805895388126373e-05 0.0 0.0 0.0 0.0
2.813 -0.6689059138298035 0.5864208936691284 1.8065795302391052e-05 2.2705644369125366e-05 0.0 0.0 0.0 0.0
2.814 -0.6696168780326843 0.5901720523834229 2.9724091291427612e-05 2.2755935788154602e-05 0.0 0.0 0.0 0.0
2.815 -0.6662975549697876 0.590614378452301 6.661470979452133e-05 2.300366759300232e-05 0.0 0.0 0.0 0.0
2.816 -0.6682468056678772 0.5901113152503967 7.301010191440582e-05 3.990344703197479e-05 0.0 0.0 0.0 0.0
2.817 -0.6712597608566284 0.5839341282844543 7.8640878200531e-05 3.1857751309871674e-05 0.0 0.0 0.0 0.0
2.818 -0.6726439595222473 0.5882636904716492 6.710179150104523e-05 3.2123178243637085e-05 0.0 0.0 0.0 0.0
2.819 -0.6716194748878479 0.589623749256134 8.532777428627014e-05 -5.448237061500549e-07 0.0 0.0 0.0 0.0
2.82 -0.667662501335144 0.5903241038322449 8.34483653306961e-05 2.6592984795570374e-05 0.0 0.0 0.0 0.0
2.821 -0.6657524108886719 0.5920042991638184 7.844902575016022e-05 3.6627985537052155e-05 0.0 0.0 0.0 0.0
2.822 -0.6680007576942444 0.5944721102714539 5.336664617061615e-05 4.17390838265419e-05 0.0 0.0 0.0 0.0
2.823 -0.6707708239555359 0.5909538269042969 3.6411918699741364e-05 -1.287553459405899e-05 0.0 0.0 0.0 0.0
2.824 -0.6712178587913513 0.5917616486549377 5.861744284629822e-05 1.8766149878501892e-06 0.0 0.0 0.0 0.0
2.825 -0.6728661060333252 0.5921701788902283 1.680385321378708e-05 -1.385807991027832e-06 0.0 0.0 0.0 0.0
2.826 -0.6686107516288757 0.5950580835342407 6.611738353967667e-05 6.498489528894424e-05 0.0 0.0 0.0 0.0
2.827 -0.6677625775337219 0.5944412350654602 -1.131650060415268e-05 1.6388483345508575e-05 0.0 0.0 0.0 0.0
2.828 -0.6730616688728333 0.5934217572212219 1.5927478671073914e-05 8.009374141693115e-06 0.0 0.0 0.0 0.0
2.829 -0.670502781867981 0.5974400043487549 3.734324127435684e-05 4.407484084367752e-05 0.0 0.0 0.0 0.0
2.83 -0.6739644408226013 0.5937952399253845 2.4032779037952423e-05 5.147513002157211e-05 0.0 0.0 0.0 0.0
2.831 -0.6700647473335266 0.5958862900733948 6.574857980012894e-05 2.760905772447586e-05 0.0 0.0 0.0 0.0
2.832 -0.6718927025794983 0.596014142036438 8.57524573802948e-05 1.1903233826160431e-05 0.0 0.0 0.0 0.0
2.833 -0.6711538434028625 0.5987288355827332 1.3130716979503632e-05 8.868053555488586e-06 0.0 0.0 0.0 0.0
2.834 -0.6710794568061829 0.598471999168396 2.699717879295349e-05 9.259209036827087e-06 0.0 0.0 0.0 0.0
2.835 -0.6703535318374634 0.5963388085365295 5.6399963796138763e-05 2.575572580099106e-05 0.0 0.0 0.0 0.0
2.836 -0.6709639430046082 0.5964872241020203 1.5508383512496948e-05 6.7942775785923e-05 0.0 0.0 0.0 0.0
2.837 -0.6709672808647156 0.6008577346801758 5.0933100283145905e-05 2.8265640139579773e-06 0.0 0.0 0.0 0.0
2.838 -0.6692501306533813 0.6018288731575012 5.4288655519485474e-05 -3.527384251356125e-05 0.0 0.0 0.0 0.0
2.839 -0.6673948764801025 0.6013067960739136 5.233939737081528e-05 8.940696716308594e-07 0.0 0.0 0.0 0.0
2.84 -0.6724838614463806 0.5980478525161743 4.31351363658905e-05 4.927441477775574e-05 0.0 0.0 0.0 0.0
2.841 -0.6692745685577393 0.6001414656639099 -2.0514242351055145e-05 3.237742930650711e-05 0.0 0.0 0.0 0.0
2.842 -0.667142391204834 0.6036646962165833 -9.472481906414032e-06 4.657171666622162e-05 0.0 0.0 0.0 0.0
2.843 -0.6700432896614075 0.6044138669967651 1.660361886024475e-05 2.3224391043186188e-05 0.0 0.0 0.0 0.0
2.844 -0.6711212992668152 0.6002808213233948 8.538365364074707e-06 2.5962479412555695e-05 0.0 0.0 0.0 0.0
2.845 -0.6662478446960449 0.6074599623680115 3.170222043991089e-05 6.05899840593338e-05 0.0 0.0 0.0 0.0
2.846 -0.674394428730011 0.6002073287963867 7.061939686536789e-05 2.9554590582847595e-05 0.0 0.0 0.0 0.0
2.847 -0.6705017685890198 0.6058728694915771 5.2356161177158356e-05 6.487220525741577e-05 0.0 0.0 0.0 0.0
2.848 -0.6732885837554932 0.6013671159744263 7.442198693752289e-06 1.3183802366256714e-05 0.0 0.0 0.0 0.0
2.849 -0.671381950378418 0.6059086322784424 -1.86040997505188e-05 3.053247928619385e-05 0.0 0.0 0.0 0.0
2.85 -0.6670990586280823 0.6114148497581482 4.470907151699066e-05 3.883335739374161e-05 0.0 0.0 0.0 0.0
2.851 -0.6682855486869812 0.6100009679794312 3.0335038900375366e-05 -7.232651114463806e-06 0.0 0.0 0.0 0.0
2.852 -0.6688075065612793 0.6089808344841003 1.1239200830459595e-05 9.443610906600952e-07 0.0 0.0 0.0 0.0
2.853 -0.6714785099029541 0.6088915467262268 1.8699094653129578e-05 4.9091875553131104e-05 0.0 0.0 0.0 0.0
2.854 -0.6742234230041504 0.6126629114151001 1.7632730305194855e-05 2.787075936794281e-05 0.0 0.0 0.0 0.0
2.855 -0.6694921851158142 0.610393762588501 8.39410349726677e-05 3.566872328519821e-05 0.0 0.0 0.0 0.0
2.856 -0.6713118553161621 0.6096814870834351 3.337673842906952e-05 6.725359708070755e-05 0.0 0.0 0.0 0.0
2.857 -0.6749177575111389 0.6109245419502258 -9.499490261077881e-07 1.5057623386383057e-05 0.0 0.0 0.0 0.0
2.858 -0.6706404089927673 0.6105549335479736 9.58424061536789e-06 6.424169987440109e-05 0.0 0.0 0.0 0.0
2.859 -0.6701134443283081 0.6138125061988831 3.200490027666092e-05 2.1539628505706787e-05 0.0 0.0 0.0 0.0
2.86 -0.6736063361167908 0.6079791784286499 4.4498592615127563e-05 3.438163548707962e-05 0.0 0.0 0.0 0.0
2.861 -0.6696210503578186 0.6136094927787781 4.591699689626694e-05 -1.1797063052654266e-05 0.0 0.0 0.0 0.0
2.862 -0.6725305914878845 0.6142169833183289 6.811320781707764e-05 8.062366396188736e-05 0.0 0.0 0.0 0.0
2.863 -0.6716008186340332 0.6112938523292542 3.681611269712448e-05 -2.6794150471687317e-06 0.0 0.0 0.0 0.0
2.864 -0.6689231991767883 0.6181418895721436 6.198137998580933e-05 1.041404902935028e-05 0.0 0.0 0.0 0.0
2.865 -0.6708988547325134 0.6182576417922974 5.138106644153595e-05 6.0362741351127625e-05 0.0 0.0 0.0 0.0
2.866 -0.6740124225616455 0.6100879311561584 5.9633515775203705e-05 6.120558828115463e-05 0.0 0.0 0.0 0.0
2.867 -0.6699489951133728 0.6167508959770203 8.987262845039368e-07 5.081482231616974e-05 0.0 0.0 0.0 0.0
2.868 -0.6725354790687561 0.6117234826087952 1.8979422748088837e-05 3.5836361348629e-05 0.0 0.0 0.0 0.0
2.869 -0.6689201593399048 0.6126075387001038 1.6485340893268585e-05 4.7791749238967896e-05 0.0 0.0 0.0 0.0
2.87 -0.6694917678833008 0.6185451149940491 3.632064908742905e-05 -3.5353004932403564e-06 0.0 0.0 0.0 0.0
2.871 -0.6716195940971375 0.6182872653007507 5.894899368286133e-05 4.404038190841675e-05 0.0 0.0 0.0 0.0
2.872 -0.6739816665649414 0.6185848712921143 3.971997648477554e-05 4.1404739022254944e-05 0.0 0.0 0.0 0.0
2.873 -0.6691104173660278 0.619450569152832 5.094427615404129e-05 2.9589049518108368e-05 0.0 0.0 0.0 0.0
2.874 -0.6719689965248108 0.6210378408432007 7.189344614744186e-05 4.745367914438248e-05 0.0 0.0 0.0 0.0
2.875 -0.671165406703949 0.6176072955131531 3.7933699786663055e-05 4.087202250957489e-05 0.0 0.0 0.0 0.0
2.876 -0.6730006337165833 0.618194580078125 4.8121437430381775e-05 2.7492642402648926e-05 0.0 0.0 0.0 0.0
2.877 -0.6686444282531738 0.6220315098762512 7.401313632726669e-05 3.587920218706131e-05 0.0 0.0 0.0 0.0
2.878 -0.668520450592041 0.6209833025932312 5.142204463481903e-05 1.3222917914390564e-05 0.0 0.0 0.0 0.0
2.879 -0.6703919768333435 0.6233854293823242 3.6306679248809814e-05 4.971679300069809e-05 0.0 0.0 0.0 0.0
2.88 -0.675493597984314 0.6194771528244019 7.64867290854454e-05 6.231199949979782e-05 0.0 0.0 0.0 0.0
2.881 -0.6669633388519287 0.6288961172103882 3.891531378030777e-05 1.689232885837555e-05 0.0 0.0 0.0 0.0
2.882 -0.6712530851364136 0.6237027049064636 9.358860552310944e-06 1.6324222087860107e-05 0.0 0.0 0.0 0.0
2.883 -0.6749159693717957 0.6203204989433289 3.721844404935837e-05 5.6383199989795685e-05 0.0 0.0 0.0 0.0
2.884 -0.6738649606704712 0.6257722973823547 4.9268826842308044e-05 4.0211714804172516e-05 0.0 0.0 0.0 0.0
2.885 -0.6709680557250977 0.625637412071228 2.0098872482776642e-05 8.122529834508896e-05 0.0 0.0 0.0 0.0
2.886 -0.670494019985199 0.6285865902900696 2.7458183467388153e-05 4.049483686685562e-05 0.0 0.0 0.0 0.0
2.887 -0.6772539019584656 0.6219592690467834 9.754672646522522e-05 5.0309114158153534e-05 0.0 0.0 0.0 0.0
2.888 -0.6728751063346863 0.6265420913696289 1.6207806766033173e-05 6.493832916021347e-05 0.0 0.0 0.0 0.0
2.889 -0.671606719493866 0.6284934282302856 3.6618672311306e-05 3.0210241675376892e-05 0.0 0.0 0.0 0.0
2.89 -0.6750379800796509 0.622290313243866 6.283260881900787e-05 7.256865501403809e-06 0.0 0.0 0.0 0.0
2.891 -0.6729459762573242 0.6264703273773193 4.907045513391495e-05 1.4025717973709106e-05 0.0 0.0 0.0 0.0
2.892 -0.6732028126716614 0.6209661960601807 6.986409425735474e-05 4.436913877725601e-05 0.0 0.0 0.0 0.0
2.893 -0.6743853092193604 0.6281540989875793 8.090771734714508e-05 5.2500516176223755e-05 0.0 0.0 0.0 0.0
2.894 -0.6727805137634277 0.629140317440033 3.276299685239792e-05 2.4555251002311707e-05 0.0 0.0 0.0 0.0
2.895 -0.6726818680763245 0.6295447945594788 5.341414362192154e-05 4.598218947649002e-05 0.0 0.0 0.0 0.0
2.896 -0.6766643524169922 0.6272878050804138 3.1016767024993896e-05 7.233116775751114e-05 0.0 0.0 0.0 0.0
2.897 -0.6729490756988525 0.6296270489692688 6.541609764099121e-05 3.1752511858940125e-05 0.0 0.0 0.0 0.0
2.898 -0.6720024347305298 0.6332929730415344 5.6004151701927185e-05 7.043778896331787e-05 0.0 0.0 0.0 0.0
2.899 -0.6768061518669128 0.6296948194503784 -1.552421599626541e-05 5.1573850214481354e-05 0.0 0.0 0.0 0.0
2.9 -0.6716486215591431 0.6308540105819702 3.009103238582611e-05 5.946215242147446e-05 0.0 0.0 0.0 0.0
2.901 -0.673564612865448 0.6319793462753296 5.645770579576492e-05 5.005672574043274e-05 0.0 0.0 0.0 0.0
2.902 -0.6753015518188477 0.6300685405731201 2.63238325715065e-05 5.776621401309967e-05 0.0 0.0 0.0 0.0
2.903 -0.6740627288818359 0.6324838399887085 2.0123086869716644e-05 5.132146179676056e-05 0.0 0.0 0.0 0.0
2.904 -0.6720324158668518 0.6336941123008728 4.463177174329758e-05 1.0872259736061096e-05 0.0 0.0 0.0 0.0
2.905 -0.6707026958465576 0.6341063976287842 4.2567960917949677e-05 4.092510789632797e-05 0.0 0.0 0.0 0.0
2.906 -0.6703348755836487 0.6374833583831787 6.437953561544418e-05 8.112937211990356e-05 0.0 0.0 0.0 0.0
2.907 -0.6744452118873596 0.6360951662063599 6.323214620351791e-05 4.3431296944618225e-05 0.0 0.0 0.0 0.0
2.908 -0.6736240983009338 0.6380416750907898 4.100799560546875e-05 6.386730819940567e-05 0.0 0.0 0.0 0.0
2.909 -0.6726399064064026 0.6375805735588074 7.467623800039291e-05 6.218906491994858e-05 0.0 0.0 0.0 0.0
2.91 -0.6758410334587097 0.632950484752655 5.984306335449219e-05 6.13238662481308e-05 0.0 0.0 0.0 0.0
2.911 -0.6739349961280823 0.6353349089622498 6.0146674513816833e-05 6.097927689552307e-05 0.0 0.0 0.0 0.0
2.912 -0.6712237596511841 0.6387059688568115 5.3470954298973083e-05 9.731296449899673e-05 0.0 0.0 0.0 0.0
2.913 -0.6701940298080444 0.6383228898048401 5.3767114877700806e-05 5.6658871471881866e-05 0.0 0.0 0.0 0.0
2.914 -0.6733191013336182 0.6385801434516907 1.628231257200241e-05 6.90557062625885e-05 0.0 0.0 0.0 0.0
2.915 -0.6737683415412903 0.6394640207290649 7.325876504182816e-05 4.365481436252594e-05 0.0 0.0 0.0 0.0
2.916 -0.6689271926879883 0.6360759139060974 3.4283846616744995e-05 6.905756890773773e-05 0.0 0.0 0.0 0.0
2.917 -0.6771594882011414 0.6397891640663147 4.1540712118148804e-05 0.00010096002370119095 0.0 0.0 0.0 0.0
2.918 -0.6758841276168823 0.6374749541282654 7.718056440353394e-05 0.00010074581950902939 0.0 0.0 0.0 0.0
2.919 -0.6737022995948792 0.6408748626708984 3.0484981834888458e-05 6.453413516283035e-05 0.0 0.0 0.0 0.0
2.92 -0.6751942038536072 0.6378292441368103 2.1955929696559906e-05 5.8453530073165894e-05 0.0 0.0 0.0 0.0
2.921 -0.6724193692207336 0.6416184306144714 2.9964372515678406e-05 8.20579007267952e-05 0.0 0.0 0.0 0.0
2.922 -0.6702057719230652 0.6444001197814941 4.9132853746414185e-05 5.783885717391968e-05 0.0 0.0 0.0 0.0
2.923 -0.6769707798957825 0.6359683871269226 2.028048038482666e-05 4.060007631778717e-05 0.0 0.0 0.0 0.0
2.924 -0.6662232279777527 0.6496901512145996 1.9803643226623535e-05 9.186659008264542e-05 0.0 0.0 0.0 0.0
2.925 -0.6771003603935242 0.641340970993042 5.29242679476738e-05 7.174909114837646e-05 0.0 0.0 0.0 0.0
2.926 -0.6770288348197937 0.645376443862915 6.12996518611908e-05 3.625825047492981e-05 0.0 0.0 0.0 0.0
2.927 -0.6734136939048767 0.6442594528198242 5.002133548259735e-05 9.387452155351639e-05 0.0 0.0 0.0 0.0
2.928 -0.6759612560272217 0.6456927061080933 3.606639802455902e-05 5.126837641000748e-05 0.0 0.0 0.0 0.0
2.929 -0.6746969819068909 0.640185534954071 3.2057054340839386e-05 6.081629544496536e-05 0.0 0.0 0.0 0.0
2.93 -0.6727264523506165 0.6472395658493042 4.706904292106628e-06 9.112805128097534e-05 0.0 0.0 0.0 0.0
2.931 -0.675672173500061 0.6455520987510681 3.429502248764038e-05 5.3880736231803894e-05 0.0 0.0 0.0 0.0
2.932 -0.6753115653991699 0.6427180767059326 1.226179301738739e-05 4.589185118675232e-05 0.0 0.0 0.0 0.0
2.933 -0.671317458152771 0.6481772065162659 1.3930723071098328e-05 5.01805916428566e-05 0.0 0.0 0.0 0.0
2.934 -0.672343909740448 0.6467494964599609 6.550643593072891e-05 0.00011289771646261215 0.0 0.0 0.0 0.0
2.935 -0.6741101145744324 0.6430574059486389 7.883645594120026e-05 5.581323057413101e-05 0.0 0.0 0.0 0.0
2.936 -0.6735638380050659 0.6470772624015808 7.53495842218399e-05 0.00011182203888893127 0.0 0.0 0.0 0.0
2.937 -0.6732969880104065 0.6483333706855774 6.066262722015381e-05 8.696969598531723e-05 0.0 0.0 0.0 0.0
2.938 -0.6772361397743225 0.6479355692863464 5.9363432228565216e-05 5.386117845773697e-05 0.0 0.0 0.0 0.0
2.939 -0.6757042407989502 0.6460890173912048 2.9314309358596802e-05 6.666313856840134e-05 0.0 0.0 0.0 0.0
2.94 -0.6672792434692383 0.6528792381286621 5.777180194854736e-05 4.873611032962799e-05 0.0 0.0 0.0 0.0
2.941 -0.6741754412651062 0.6496322751045227 7.425807416439056e-05 8.650682866573334e-05 0.0 0.0 0.0 0.0
2.942 -0.6757376790046692 0.6489061117172241 5.180947482585907e-05 2.862047404050827e-05 0.0 0.0 0.0 0.0
2.943 -0.6701040863990784 0.6537192463874817 1.1377036571502686e-05 0.00010747835040092468 0.0 0.0 0.0 0.0
2.944 -0.6759936809539795 0.646263837814331 6.070826202630997e-05 5.339551717042923e-05 0.0 0.0 0.0 0.0
2.945 -0.6740667223930359 0.6489722728729248 5.3437426686286926e-05 7.628556340932846e-05 0.0 0.0 0.0 0.0
2.946 -0.67377769947052 0.6540035009384155 6.314273923635483e-05 0.00013382826000452042 0.0 0.0 0.0 0.0
2.947 -0.6741232872009277 0.6497421860694885 8.658412843942642e-05 8.718296885490417e-05 0.0 0.0 0.0 0.0
2.948 -0.6766844987869263 0.6493107676506042 9.316392242908478e-05 3.7731602787971497e-05 0.0 0.0 0.0 0.0
2.949 -0.6739758849143982 0.6514005064964294 5.6549906730651855e-05 0.00010740477591753006 0.0 0.0 0.0 0.0
2.95 -0.6734503507614136 0.6573981046676636 9.10349190235138e-05 7.104035466909409e-05 0.0 0.0 0.0 0.0
2.951 -0.6793996095657349 0.6480997800827026 4.805717617273331e-05 0.00010482873767614365 0.0 0.0 0.0 0.0
2.952 -0.6748600006103516 0.6538745760917664 9.655673056840897e-05 8.701719343662262e-05 0.0 0.0 0.0 0.0
2.953 -0.6778355240821838 0.6509303450584412 7.87246972322464e-05 7.599964737892151e-05 0.0 0.0 0.0 0.0
2.954 -0.6791539788246155 0.6509272456169128 0.00011247768998146057 6.03310763835907e-05 0.0 0.0 0.0 0.0
2.955 -0.6764829754829407 0.6533558964729309 0.00011838693171739578 6.06020912528038e-05 0.0 0.0 0.0 0.0
2.956 -0.6748977899551392 0.6548567414283752 4.821363836526871e-05 2.892967313528061e-05 0.0 0.0 0.0 0.0
2.957 -0.6747144460678101 0.655639111995697 7.653888314962387e-05 6.0711055994033813e-05 0.0 0.0 0.0 0.0
2.958 -0.6791408658027649 0.6526967883110046 5.385838449001312e-05 8.651986718177795e-05 0.0 0.0 0.0 0.0
2.959 -0.6792206764221191 0.6548938751220703 6.400886923074722e-05 6.773881614208221e-05 0.0 0.0 0.0 0.0
2.96 -0.6770485639572144 0.6569711565971375 8.107442408800125e-05 6.841495633125305e-06 0.0 0.0 0.0 0.0
2.961 -0.6769415140151978 0.6565485596656799 8.97357240319252e-05 7.11977481842041e-05 0.0 0.0 0.0 0.0
2.962 -0.6823540329933167 0.6525973081588745 7.542502135038376e-05 6.906315684318542e-05 0.0 0.0 0.0 0.0
2.963 -0.6815447211265564 0.6555994749069214 0.0001056380569934845 8.216872811317444e-05 0.0 0.0 0.0 0.0
2.964 -0.6745250821113586 0.6630251407623291 7.437076419591904e-05 4.351232200860977e-05 0.0 0.0 0.0 0.0
2.965 -0.6847265362739563 0.6560941338539124 4.31109219789505e-05 7.310137152671814e-05 0.0 0.0 0.0 0.0
2.966 -0.6793376207351685 0.6602433919906616 7.362477481365204e-05 8.310936391353607e-05 0.0 0.0 0.0 0.0
2.967 -0.6809828877449036 0.658059298992157 6.345007568597794e-05 4.1775405406951904e-05 0.0 0.0 0.0 0.0
2.968 -0.6820486187934875 0.6610215902328491 4.872400313615799e-05 3.997422754764557e-05 0.0 0.0 0.0 0.0
2.969 -0.6806250214576721 0.6607332229614258 6.705522537231445e-05 9.006168693304062e-05 0.0 0.0 0.0 0.0
2.97 -0.6792839765548706 0.6620255708694458 5.9274956583976746e-05 7.448717951774597e-06 0.0 0.0 0.0 0.0
2.971 -0.6822665333747864 0.6624389886856079 8.08965414762497e-05 3.286637365818024e-05 0.0 0.0 0.0 0.0
2.972 -0.680976927280426 0.6634141802787781 3.223586827516556e-05 4.8493966460227966e-05 0.0 0.0 0.0 0.0
2.973 -0.6813449263572693 0.6646772027015686 6.771832704544067e-05 2.842303365468979e-05 0.0 0.0 0.0 0.0
2.974 -0.6857629418373108 0.6638490557670593 7.62399286031723e-05 5.3396448493003845e-05 0.0 0.0 0.0 0.0
2.975 -0.6803109049797058 0.6640095114707947 4.8104673624038696e-05 3.881845623254776e-05 0.0 0.0 0.0 0.0
2.976 -0.6795629858970642 0.6687086820602417 8.961092680692673e-05 1.6587786376476288e-05 0.0 0.0 0.0 0.0
2.977 -0.6855425238609314 0.6630635261535645 2.586282789707184e-05 1.537241041660309e-05 0.0 0.0 0.0 0.0
2.978 -0.6817463636398315 0.6652924418449402 8.875597268342972e-05 4.536472260951996e-05 0.0 0.0 0.0 0.0
2.979 -0.6817329525947571 0.6664860248565674 7.246062159538269e-05 1.8523074686527252e-05 0.0 0.0 0.0 0.0
2.98 -0.683180570602417 0.6608295440673828 5.549285560846329e-05 3.753788769245148e-05 0.0 0.0 0.0 0.0
2.981 -0.6767184734344482 0.6723375916481018 3.62638384103775e-05 3.9293430745601654e-05 0.0 0.0 0.0 0.0
2.982 -0.6847832202911377 0.6641091704368591 5.077756941318512e-05 8.852221071720123e-06 0.0 0.0 0.0 0.0
2.983 -0.6797772645950317 0.6742261648178101 2.0196661353111267e-05 7.173139601945877e-05 0.0 0.0 0.0 0.0
2.984 -0.6853769421577454 0.6669360995292664 8.845888078212738e-05 0.00010079052299261093 0.0 0.0 0.0 0.0
2.985 -0.6803566217422485 0.6721898317337036 1.7452053725719452e-05 3.134831786155701e-05 0.0 0.0 0.0 0.0
2.986 -0.6830465197563171 0.6699395775794983 2.547912299633026e-05 8.305627852678299e-05 0.0 0.0 0.0 0.0
2.987 -0.6770093441009521 0.6754758358001709 6.668455898761749e-05 1.4847144484519958e-05 0.0 0.0 0.0 0.0
2.988 -0.6865747570991516 0.660103976726532 4.045665264129639e-05 -3.343448042869568e-07 0.0 0.0 0.0 0.0
2.989 -0.6854974627494812 0.6703349351882935 0.00010666064918041229 6.19133934378624e-05 0.0 0.0 0.0 0.0
2.99 -0.6812276840209961 0.6743242144584656 4.5643188059329987e-05 5.89834526181221e-05 0.0 0.0 0.0 0.0
2.991 -0.6804195046424866 0.6750238537788391 6.864033639431e-05 4.839897155761719e-05 0.0 0.0 0.0 0.0
2.992 -0.6875169277191162 0.6733537912368774 8.260831236839294e-07 6.9122761487960815e-06 0.0 0.0 0.0 0.0
2.993 -0.6829875111579895 0.6740918755531311 5.179084837436676e-05 2.347305417060852e-05 0.0 0.0 0.0 0.0
2.994 -0.6859580278396606 0.6707444190979004 5.738716572523117e-05 8.325651288032532e-05 0.0 0.0 0.0 0.0
2.995 -0.6835924386978149 0.6765519380569458 2.736598253250122e-05 4.861317574977875e-05 0.0 0.0 0.0 0.0
2.996 -0.680982232093811 0.677652895450592 2.535339444875717e-05 5.813129246234894e-05 0.0 0.0 0.0 0.0
2.997 -0.6839707493782043 0.6757471561431885 6.157997995615005e-05 9.199883788824081e-05 0.0 0.0 0.0 0.0
2.998 -0.6795620322227478 0.6790041327476501 6.957165896892548e-05 0.00011174753308296204 0.0 0.0 0.0 0.0
2.999 -0.6818107962608337 0.6792435050010681 5.4333359003067017e-05 2.926494926214218e-05 0.0 0.0 0.0 0.0
3.0 -0.6836433410644531 0.6780346035957336 2.5194138288497925e-05 0.00010479241609573364 0.0 0.0 0.0 0.0
3.001 -0.6874046921730042 0.6768624782562256 2.0617619156837463e-05 5.512963980436325e-05 0.0 0.0 0.0 0.0
3.002 -0.6853039860725403 0.6777650713920593 8.202344179153442e-05 7.312186062335968e-05 0.0 0.0 0.0 0.0
3.003 -0.6869369745254517 0.6776890754699707 7.918849587440491e-05 5.642790347337723e-05 0.0 0.0 0.0 0.0
3.004 -0.6847768425941467 0.677186131477356 1.3809651136398315e-05 9.827315807342529e-05 0.0 0.0 0.0 0.0
3.005 -0.6826388239860535 0.6823457479476929 1.884065568447113e-05 5.9157609939575195e-06 0.0 0.0 0.0 0.0
3.006 -0.6827940344810486 0.6809328198432922 4.963669925928116e-05 1.997966319322586e-05 0.0 0.0 0.0 0.0
3.007 -0.683562695980072 0.6827749609947205 2.402905374765396e-05 6.956607103347778e-05 0.0 0.0 0.0 0.0
3.008 -0.6844706535339355 0.6824771165847778 6.519816815853119e-05 8.921977132558823e-05 0.0 0.0 0.0 0.0
3.009 -0.6873806715011597 0.6806772351264954 2.8364360332489014e-05 6.498116999864578e-05 0.0 0.0 0.0 0.0
3.01 -0.6776260137557983 0.6857805252075195 3.272946923971176e-05 4.339497536420822e-05 0.0 0.0 0.0 0.0
3.011 -0.6830793619155884 0.6842706799507141 5.6181102991104126e-05 0.00011853687465190887 0.0 0.0 0.0 0.0
3.012 -0.6894873380661011 0.6879467964172363 -4.403293132781982e-06 5.476176738739014e-05 0.0 0.0 0.0 0.0
3.013 -0.6819239854812622 0.6843467354774475 4.556681960821152e-05 5.755480378866196e-05 0.0 0.0 0.0 0.0
3.014 -0.6825239658355713 0.6867372393608093 4.282314330339432e-05 6.013084203004837e-05 0.0 0.0 0.0 0.0
3.015 -0.6850386261940002 0.6853370666503906 5.221273750066757e-05 3.1084753572940826e-05 0.0 0.0 0.0 0.0
3.016 -0.6837745904922485 0.6867977380752563 6.297975778579712e-05 7.826276123523712e-05 0.0 0.0 0.0 0.0
3.017 -0.6812414526939392 0.6909396052360535 3.9025209844112396e-05 4.969444125890732e-05 0.0 0.0 0.0 0.0
3.018 -0.6852038502693176 0.6877102255821228 0.00010804738849401474 5.9274956583976746e-05 0.0 0.0 0.0 0.0
3.019 -0.6858094930648804 0.6844881772994995 2.675037831068039e-05 3.345124423503876e-05 0.0 0.0 0.0 0.0
3.02 -0.6810042858123779 0.6902238726615906 5.703326314687729e-05 5.886796861886978e-05 0.0 0.0 0.0 0.0
3.021 -0.6843610405921936 0.6912868022918701 3.892369568347931e-05 7.087551057338715e-05 0.0 0.0 0.0 0.0
3.022 -0.6865786910057068 0.6935295462608337 8.587725460529327e-06 7.880572229623795e-05 0.0 0.0 0.0 0.0
3.023 -0.6859350800514221 0.6911468505859375 6.941612809896469e-05 6.6341832280159e-05 0.0 0.0 0.0 0.0
3.024 -0.6902768611907959 0.6875273585319519 1.3284385204315186e-05 8.43321904540062e-05 0.0 0.0 0.0 0.0
3.025 -0.6863565444946289 0.6926984190940857 3.651529550552368e-05 7.816683501005173e-05 0.0 0.0 0.0 0.0
3.026 -0.6842806935310364 0.6934064030647278 2.7058646082878113e-05 9.765569120645523e-05 0.0 0.0 0.0 0.0
3.027 -0.6827589273452759 0.6941336989402771 7.70939514040947e-05 6.999820470809937e-05 0.0 0.0 0.0 0.0
3.028 -0.6845462322235107 0.69024258852005 3.2609328627586365e-05 6.193108856678009e-05 0.0 0.0 0.0 0.0
3.029 -0.6817536354064941 0.6959995031356812 6.765499711036682e-05 2.087559551000595e-05 0.0 0.0 0.0 0.0
3.03 -0.6851897239685059 0.695444643497467 7.411185652017593e-05 7.666274905204773e-05 0.0 0.0 0.0 0.0
3.031 -0.6855903267860413 0.6954318284988403 9.064096957445145e-05 6.445497274398804e-05 0.0 0.0 0.0 0.0
3.032 -0.6808594465255737 0.6980547904968262 2.8090551495552063e-05 2.7552247047424316e-05 0.0 0.0 0.0 0.0
3.033 -0.6825759410858154 0.6968193650245667 6.542913615703583e-05 6.67991116642952e-05 0.0 0.0 0.0 0.0
3.034 -0.6861910820007324 0.6933454275131226 9.161420166492462e-05 5.501881241798401e-05 0.0 0.0 0.0 0.0
3.035 -0.6839229464530945 0.6970643997192383 3.4837983548641205e-05 3.76356765627861e-05 0.0 0.0 0.0 0.0
3.036 -0.6869955658912659 0.7022782564163208 8.464790880680084e-05 8.465256541967392e-05 0.0 0.0 0.0 0.0
3.037 -0.6859423518180847 0.6979130506515503 6.393063813447952e-05 7.121264934539795e-05 0.0 0.0 0.0 0.0
3.038 -0.6844832301139832 0.6978086829185486 8.756760507822037e-05 9.759608656167984e-05 0.0 0.0 0.0 0.0
3.039 -0.6848968863487244 0.6989181637763977 7.165689021348953e-05 6.573088467121124e-05 0.0 0.0 0.0 0.0
3.04 -0.6836909651756287 0.6986563801765442 5.0259754061698914e-05 6.716139614582062e-05 0.0 0.0 0.0 0.0
3.041 -0.6822318434715271 0.7008308172225952 6.0848891735076904e-05 7.332116365432739e-05 0.0 0.0 0.0 0.0
3.042 -0.6856645941734314 0.7006790041923523 0.00011716317385435104 3.2532960176467896e-05 0.0 0.0 0.0 0.0
3.043 -0.6847818493843079 0.6974372863769531 4.629325121641159e-05 7.132533937692642e-05 0.0 0.0 0.0 0.0
3.044 -0.686506450176239 0.701539158821106 8.838251233100891e-05 6.322842091321945e-05 0.0 0.0 0.0 0.0
3.045 -0.6858575940132141 0.7040648460388184 7.182173430919647e-05 2.8743408620357513e-05 0.0 0.0 0.0 0.0
3.046 -0.6875671148300171 0.6984059810638428 3.492273390293121e-05 4.08664345741272e-05 0.0 0.0 0.0 0.0
3.047 -0.6847697496414185 0.7028220295906067 5.599111318588257e-05 1.824367791414261e-05 0.0 0.0 0.0 0.0
3.048 -0.6869696378707886 0.7031558752059937 5.227513611316681e-06 2.6489607989788055e-05 0.0 0.0 0.0 0.0
3.049 -0.6842821836471558 0.7036517262458801 6.079860031604767e-05 7.077213376760483e-05 0.0 0.0 0.0 0.0
3.05 -0.6864815354347229 0.7019356489181519 5.1042065024375916e-05 4.3956562876701355e-05 0.0 0.0 0.0 0.0
3.051 -0.6846988201141357 0.7052828669548035 4.6473927795886993e-05 6.502121686935425e-05 0.0 0.0 0.0 0.0
3.052 -0.6846281290054321 0.7072237730026245 4.045385867357254e-05 6.090756505727768e-05 0.0 0.0 0.0 0.0
3.053 -0.6834099292755127 0.7063720226287842 5.2568502724170685e-05 -4.32133674621582e-06 0.0 0.0 0.0 0.0
3.054 -0.6821198463439941 0.7101417183876038 8.830148726701736e-05 8.621625602245331e-05 0.0 0.0 0.0 0.0
3.055 -0.6846961379051208 0.705659031867981 4.5146793127059937e-05 6.953347474336624e-05 0.0 0.0 0.0 0.0
3.056 -0.6787388324737549 0.7118475437164307 1.8916092813014984e-05 1.4175660908222198e-05 0.0 0.0 0.0 0.0
3.057 -0.6899070143699646 0.704679012298584 9.600725024938583e-05 2.197176218032837e-05 0.0 0.0 0.0 0.0
3.058 -0.6857926845550537 0.711549699306488 6.0335732996463776e-05 2.230517566204071e-06 0.0 0.0 0.0 0.0
3.059 -0.6834825277328491 0.709988534450531 2.991408109664917e-05 3.513507544994354e-05 0.0 0.0 0.0 0.0
3.06 -0.6826034784317017 0.7158036231994629 0.00010819360613822937 3.1381845474243164e-05 0.0 0.0 0.0 0.0
3.061 -0.684423565864563 0.7098717093467712 4.2562372982501984e-05 1.1517666280269623e-05 0.0 0.0 0.0 0.0
3.062 -0.6820785999298096 0.7125939130783081 0.00010759662836790085 2.94465571641922e-05 0.0 0.0 0.0 0.0
3.063 -0.6833144426345825 0.7121244072914124 7.955636829137802e-05 2.523604780435562e-05 0.0 0.0 0.0 0.0
3.064 -0.6859248876571655 0.7105018496513367 3.091059625148773e-05 2.119503915309906e-05 0.0 0.0 0.0 0.0
3.065 -0.683073878288269 0.712355375289917 1.9344501197338104e-05 4.148762673139572e-05 0.0 0.0 0.0 0.0
3.066 -0.6809127330780029 0.7129111886024475 6.038788706064224e-05 3.832392394542694e-05 0.0 0.0 0.0 0.0
3.067 -0.6844637393951416 0.7111226916313171 7.664784789085388e-05 1.889001578092575e-05 0.0 0.0 0.0 0.0
3.068 -0.685564398765564 0.7129207849502563 3.832858055830002e-05 6.570480763912201e-05 0.0 0.0 0.0 0.0
3.069 -0.6843145489692688 0.7148855328559875 6.194692105054855e-05 5.6558288633823395e-05 0.0 0.0 0.0 0.0
3.07 -0.6897949576377869 0.712034285068512 3.1305477023124695e-05 3.062654286623001e-05 0.0 0.0 0.0 0.0
3.071 -0.6841707825660706 0.7151619791984558 3.942195326089859e-05 9.13906842470169e-06 0.0 0.0 0.0 0.0
3.072 -0.6832618713378906 0.7193582653999329 7.23525881767273e-05 5.02709299325943e-05 0.0 0.0 0.0 0.0
3.073 -0.6843872666358948 0.7160100936889648 5.896110087633133e-05 5.7246536016464233e-05 0.0 0.0 0.0 0.0
3.074 -0.6822052597999573 0.7186480760574341 3.837328404188156e-05 6.120745092630386e-05 0.0 0.0 0.0 0.0
3.075 -0.6824622750282288 0.7167631983757019 7.025524973869324e-05 5.9587880969047546e-05 0.0 0.0 0.0 0.0
3.076 -0.6788681149482727 0.7188233137130737 1.383759081363678e-05 4.3050386011600494e-05 0.0 0.0 0.0 0.0
3.077 -0.6829192638397217 0.7177015542984009 3.968831151723862e-05 -1.0253861546516418e-06 0.0 0.0 0.0 0.0
3.078 -0.6834991574287415 0.7200903296470642 3.890134394168854e-06 3.906898200511932e-06 0.0 0.0 0.0 0.0
3.079 -0.684380292892456 0.7152306437492371 7.428042590618134e-05 1.3227574527263641e-05 0.0 0.0 0.0 0.0
3.08 -0.6844696998596191 0.7184891104698181 6.032269448041916e-05 3.7979334592819214e-06 0.0 0.0 0.0 0.0
3.081 -0.6814998984336853 0.7208160758018494 6.804894655942917e-05 -1.334119588136673e-05 0.0 0.0 0.0 0.0
3.082 -0.6822072267532349 0.7195013761520386 7.470790296792984e-05 5.020108073949814e-05 0.0 0.0 0.0 0.0
3.083 -0.6817846894264221 0.7224782109260559 2.4032779037952423e-05 4.0140002965927124e-07 0.0 0.0 0.0 0.0
3.084 -0.6827147006988525 0.7221096158027649 2.7854926884174347e-05 -3.5436823964118958e-06 0.0 0.0 0.0 0.0
3.085 -0.6842838525772095 0.7188162803649902 5.061086267232895e-05 5.366932600736618e-05 0.0 0.0 0.0 0.0
3.086 -0.6814306378364563 0.7236401438713074 7.769092917442322e-06 -8.009374141693115e-08 0.0 0.0 0.0 0.0
3.087 -0.6842758059501648 0.7203198671340942 5.278177559375763e-05 3.262609243392944e-05 0.0 0.0 0.0 0.0
3.088 -0.6808926463127136 0.7221531867980957 1.6697682440280914e-05 5.357898771762848e-06 0.0 0.0 0.0 0.0
3.089 -0.6804389357566833 0.7275059819221497 4.1705556213855743e-05 8.153729140758514e-06 0.0 0.0 0.0 0.0
3.09 -0.6849015951156616 0.7253280878067017 1.032557338476181e-05 -1.4705583453178406e-06 0.0 0.0 0.0 0.0
3.091 -0.6866078972816467 0.7216944694519043 1.8238089978694916e-05 -6.5229833126068115e-06 0.0 0.0 0.0 0.0
3.092 -0.6802986860275269 0.7276415228843689 4.802737385034561e-05 1.7587095499038696e-05 0.0 0.0 0.0 0.0
3.093 -0.683651864528656 0.724667489528656 1.5000812709331512e-05 -9.441748261451721e-06 0.0 0.0 0.0 0.0
3.094 -0.6776420474052429 0.7250500917434692 5.289912223815918e-06 -8.725561201572418e-06 0.0 0.0 0.0 0.0
3.095 -0.6811673641204834 0.7277503609657288 2.2044405341148376e-06 2.549402415752411e-05 0.0 0.0 0.0 0.0
3.096 -0.6822541356086731 0.7303912043571472 1.7129816114902496e-05 -2.3786909878253937e-05 0.0 0.0 0.0 0.0
3.097 -0.6854676008224487 0.7281176447868347 2.1502375602722168e-05 -3.38088721036911e-05 0.0 0.0 0.0 0.0
3.098 -0.681540846824646 0.7285079956054688 -2.182088792324066e-06 4.0636397898197174e-05 0.0 0.0 0.0 0.0
3.099 -0.6829624176025391 0.7281380295753479 1.837126910686493e-05 6.301328539848328e-05 0.0 0.0 0.0 0.0
3.1 -0.6827856302261353 0.7282438278198242 -3.8671307265758514e-05 -4.7460198402404785e-06 0.0 0.0 0.0 0.0
3.101 -0.6809598803520203 0.7310483455657959 2.0083971321582794e-05 8.786097168922424e-06 0.0 0.0 0.0 0.0
3.102 -0.6815714240074158 0.7298683524131775 -3.672577440738678e-05 -2.1709129214286804e-06 0.0 0.0 0.0 0.0
3.103 -0.6844409108161926 0.7266048192977905 4.21423465013504e-05 5.3600408136844635e-05 0.0 0.0 0.0 0.0
3.104 -0.6806148290634155 0.7307601571083069 2.718903124332428e-05 0.00011163484305143356 0.0 0.0 0.0 0.0
3.105 -0.6772248148918152 0.7344114184379578 -4.179682582616806e-05 -4.163011908531189e-07 0.0 0.0 0.0 0.0
3.106 -0.6834883093833923 0.7296815514564514 4.634540528059006e-05 1.5230849385261536e-05 0.0 0.0 0.0 0.0
3.107 -0.6777756810188293 0.7344632744789124 3.13539057970047e-05 9.725987911224365e-05 0.0 0.0 0.0 0.0
3.108 -0.6729939579963684 0.7304279208183289 4.8228539526462555e-05 9.29487869143486e-05 0.0 0.0 0.0 0.0
3.109 -0.6835960149765015 0.7297152280807495 9.385868906974792e-06 7.3499977588653564e-06 0.0 0.0 0.0 0.0
3.11 -0.6812149882316589 0.7318864464759827 1.119077205657959e-05 3.6971643567085266e-05 0.0 0.0 0.0 0.0
3.111 -0.6757975220680237 0.7380571365356445 4.045385867357254e-05 9.347684681415558e-05 0.0 0.0 0.0 0.0
3.112 -0.6822662949562073 0.7309496998786926 -7.586181163787842e-05 6.004888564348221e-05 0.0 0.0 0.0 0.0
3.113 -0.6823689937591553 0.7321736812591553 -7.25938007235527e-05 9.574834257364273e-05 0.0 0.0 0.0 0.0
3.114 -0.6785955429077148 0.7364414930343628 -5.1145441830158234e-05 2.7727335691452026e-05 0.0 0.0 0.0 0.0
3.115 -0.684983491897583 0.7303462028503418 -5.133450031280518e-06 4.973728209733963e-05 0.0 0.0 0.0 0.0
3.116 -0.6781964302062988 0.7368137240409851 1.0581687092781067e-05 7.478706538677216e-05 0.0 0.0 0.0 0.0
3.117 -0.6801312565803528 0.7348145842552185 -1.5834346413612366e-05 0.00011464301496744156 0.0 0.0 0.0 0.0
3.118 -0.683371365070343 0.733299970626831 -3.367476165294647e-05 2.1501444280147552e-05 0.0 0.0 0.0 0.0
3.119 -0.6810722947120667 0.7340105175971985 -3.4918077290058136e-05 5.45429065823555e-05 0.0 0.0 0.0 0.0
3.12 -0.6786476373672485 0.7357510924339294 1.963786780834198e-05 9.305495768785477e-05 0.0 0.0 0.0 0.0
3.121 -0.6808314919471741 0.7346422672271729 -4.5252032577991486e-05 0.0001142304390668869 0.0 0.0 0.0 0.0
3.122 -0.6789453625679016 0.7364635467529297 6.426125764846802e-08 8.580554276704788e-05 0.0 0.0 0.0 0.0
3.123 -0.6796568036079407 0.7371155023574829 6.988644599914551e-06 6.025843322277069e-05 0.0 0.0 0.0 0.0
3.124 -0.6789542436599731 0.7366066575050354 -2.992246299982071e-05 7.838662713766098e-05 0.0 0.0 0.0 0.0
3.125 -0.6777812838554382 0.7387892007827759 -5.5565498769283295e-05 0.00010059494525194168 0.0 0.0 0.0 0.0
3.126 -0.6779825091362 0.7391537427902222 -2.001877874135971e-05 6.270967423915863e-05 0.0 0.0 0.0 0.0
3.127 -0.6797424554824829 0.7378364205360413 -2.1791085600852966e-05 0.00014831498265266418 0.0 0.0 0.0 0.0
3.128 -0.6797733306884766 0.7363488078117371 -3.7843361496925354e-05 0.00011923722922801971 0.0 0.0 0.0 0.0
3.129 -0.6792324781417847 0.7394258975982666 2.4576671421527863e-05 0.00010426715016365051 0.0 0.0 0.0 0.0
3.13 -0.6801512241363525 0.7383274435997009 1.4794059097766876e-05 0.0001798681914806366 0.0 0.0 0.0 0.0
3.131 -0.6809919476509094 0.7376651763916016 4.715286195278168e-06 0.00016803760081529617 0.0 0.0 0.0 0.0
3.132 -0.6742837429046631 0.7428088784217834 -4.7161243855953217e-05 7.040426135063171e-05 0.0 0.0 0.0 0.0
3.133 -0.677838921546936 0.7421907186508179 3.5470351576805115e-05 0.00017183832824230194 0.0 0.0 0.0 0.0
3.134 -0.6816323399543762 0.7378206849098206 -8.952803909778595e-06 0.00015138741582632065 0.0 0.0 0.0 0.0
3.135 -0.6765733957290649 0.7441853880882263 -5.3620897233486176e-05 0.0001213960349559784 0.0 0.0 0.0 0.0
3.136 -0.6795201301574707 0.7403703331947327 -5.267467349767685e-05 0.00014901813119649887 0.0 0.0 0.0 0.0
3.137 -0.6814313530921936 0.7398906350135803 3.595929592847824e-05 0.00012869108468294144 0.0 0.0 0.0 0.0
3.138 -0.6802579164505005 0.7408401966094971 -5.2109360694885254e-05 0.00011021643877029419 0.0 0.0 0.0 0.0
3.139 -0.6805583238601685 0.7429820895195007 7.781200110912323e-05 0.00011506583541631699 0.0 0.0 0.0 0.0
3.14 -0.6809665560722351 0.7414416670799255 4.898104816675186e-05 0.00015667732805013657 0.0 0.0 0.0 0.0
3.141 -0.6773251295089722 0.7440581321716309 -8.886680006980896e-06 0.0001241760328412056 0.0 0.0 0.0 0.0
3.142 -0.679362952709198 0.7455878853797913 -1.1642463505268097e-05 0.00016080867499113083 0.0 0.0 0.0 0.0
3.143 -0.6825370788574219 0.7421780824661255 5.152728408575058e-05 3.901217132806778e-05 0.0 0.0 0.0 0.0
3.144 -0.6829338669776917 0.7428621053695679 -1.2382864952087402e-05 0.0001523178070783615 0.0 0.0 0.0 0.0
3.145 -0.6835508346557617 0.7418560981750488 -8.90437513589859e-06 7.784739136695862e-05 0.0 0.0 0.0 0.0
3.146 -0.6827542781829834 0.7432684302330017 -5.96512109041214e-06 2.363976091146469e-05 0.0 0.0 0.0 0.0
3.147 -0.680000901222229 0.7449362277984619 -4.482828080654144e-05 9.803380817174911e-05 0.0 0.0 0.0 0.0
3.148 -0.6814219355583191 0.7462736368179321 -1.6771256923675537e-05 3.42000275850296e-05 0.0 0.0 0.0 0.0
3.149 -0.6841130256652832 0.7450808882713318 1.0287389159202576e-05 8.337665349245071e-05 0.0 0.0 0.0 0.0
3.15 -0.6797879934310913 0.7483410239219666 7.325597107410431e-05 7.866509258747101e-05 0.0 0.0 0.0 0.0
3.151 -0.6809088587760925 0.7479540705680847 5.16669824719429e-05 4.556868225336075e-05 0.0 0.0 0.0 0.0
3.152 -0.6846789121627808 0.7447885274887085 -7.271580398082733e-05 8.516106754541397e-05 0.0 0.0 0.0 0.0
3.153 -0.6803463101387024 0.7492017149925232 -3.8174912333488464e-05 0.00013553164899349213 0.0 0.0 0.0 0.0
3.154 -0.6801779866218567 0.7507272362709045 3.092922270298004e-06 3.6728568375110626e-05 0.0 0.0 0.0 0.0
3.155 -0.6816611289978027 0.7500693798065186 3.766361624002457e-05 9.510572999715805e-05 0.0 0.0 0.0 0.0
3.156 -0.6872637867927551 0.7450059056282043 -3.534182906150818e-05 0.00014197174459695816 0.0 0.0 0.0 0.0
3.157 -0.6796562075614929 0.7524399161338806 1.0192394256591797e-05 0.00010530836880207062 0.0 0.0 0.0 0.0
3.158 -0.6801071763038635 0.7537330389022827 7.816590368747711e-06 7.772538810968399e-05 0.0 0.0 0.0 0.0
3.159 -0.6851760745048523 0.7481203675270081 3.740191459655762e-05 0.00015311874449253082 0.0 0.0 0.0 0.0
3.16 -0.6829374432563782 0.7525194883346558 -7.3034316301345825e-06 6.151944398880005e-05 0.0 0.0 0.0 0.0
3.161 -0.6826181411743164 0.7524827122688293 6.152316927909851e-06 5.348585546016693e-05 0.0 0.0 0.0 0.0
3.162 -0.6847079992294312 0.7505932450294495 3.879517316818237e-05 0.0001343199983239174 0.0 0.0 0.0 0.0
3.163 -0.680128276348114 0.7550990581512451 -1.9966624677181244e-05 0.00013237632811069489 0.0 0.0 0.0 0.0
3.164 -0.6798632740974426 0.7560566663742065 -3.7931837141513824e-05 9.712111204862595e-05 0.0 0.0 0.0 0.0
3.165 -0.6836681962013245 0.7542774677276611 7.997453212738037e-05 5.470309406518936e-05 0.0 0.0 0.0 0.0
3.166 -0.6812102198600769 0.7555503249168396 -2.6627443730831146e-05 0.00011252053081989288 0.0 0.0 0.0 0.0
3.167 -0.6790892481803894 0.7588279843330383 -7.086433470249176e-06 0.00015956442803144455 0.0 0.0 0.0 0.0
3.168 -0.6851181983947754 0.7560314536094666 -1.9713304936885834e-05 7.374398410320282e-05 0.0 0.0 0.0 0.0
3.169 -0.6825734972953796 0.755330502986908 2.369564026594162e-05 0.00010072439908981323 0.0 0.0 0.0 0.0
3.17 -0.6817464232444763 0.75698322057724 2.6117078959941864e-05 0.00011475291103124619 0.0 0.0 0.0 0.0
3.171 -0.6838884353637695 0.7560588717460632 -5.249679088592529e-05 9.941402822732925e-05 0.0 0.0 0.0 0.0
3.172 -0.6835166811943054 0.7560914158821106 1.3909302651882172e-05 0.00011343695223331451 0.0 0.0 0.0 0.0
3.173 -0.6799654364585876 0.7612079977989197 2.2890977561473846e-05 7.982458919286728e-05 0.0 0.0 0.0 0.0
3.174 -0.6835768818855286 0.7578957080841064 -3.315042704343796e-05 0.00011872872710227966 0.0 0.0 0.0 0.0
3.175 -0.6845262050628662 0.7573189735412598 4.7536566853523254e-05 7.024966180324554e-05 0.0 0.0 0.0 0.0
3.176 -0.6804705262184143 0.7616718411445618 6.886199116706848e-06 7.946603000164032e-05 0.0 0.0 0.0 0.0
3.177 -0.6801326870918274 0.761553168296814 -2.316012978553772e-05 2.6769936084747314e-05 0.0 0.0 0.0 0.0
3.178 -0.6856552958488464 0.7579634785652161 -7.963739335536957e-06 3.168080002069473e-05 0.0 0.0 0.0 0.0
3.179 -0.6806343793869019 0.7617393136024475 4.946999251842499e-05 0.00011805538088083267 0.0 0.0 0.0 0.0
3.18 -0.6764911413192749 0.7590100765228271 6.071943789720535e-05 0.00014626607298851013 0.0 0.0 0.0 0.0
3.181 -0.6828885674476624 0.7627872824668884 -4.168599843978882e-06 4.9783848226070404e-05 0.0 0.0 0.0 0.0
3.182 -0.6828075647354126 0.7614892721176147 -3.1245872378349304e-05 0.00016004033386707306 0.0 0.0 0.0 0.0
3.183 -0.6778097152709961 0.7656995058059692 3.877747803926468e-05 0.0001694299280643463 0.0 0.0 0.0 0.0
3.184 -0.6811631321907043 0.7632208466529846 -3.154389560222626e-05 7.33034685254097e-05 0.0 0.0 0.0 0.0
3.185 -0.6817977428436279 0.7627537846565247 4.93144616484642e-05 0.00010121706873178482 0.0 0.0 0.0 0.0
3.186 -0.6784086227416992 0.7669570446014404 -3.7364661693573e-05 7.277261465787888e-05 0.0 0.0 0.0 0.0
3.187 -0.6807886958122253 0.7671001553535461 5.882512778043747e-05 8.196569979190826e-05 0.0 0.0 0.0 0.0
3.188 -0.68087238073349 0.7662244439125061 -5.934759974479675e-05 8.321460336446762e-05 0.0 0.0 0.0 0.0
3.189 -0.6807876229286194 0.7677721381187439 9.035691618919373e-06 0.00016230903565883636 0.0 0.0 0.0 0.0
3.19 -0.6806545257568359 0.7676044702529907 4.455447196960449e-06 0.00015014968812465668 0.0 0.0 0.0 0.0
3.191 -0.6818815469741821 0.766731858253479 3.838632255792618e-05 6.19860365986824e-05 0.0 0.0 0.0 0.0
3.192 -0.6809762716293335 0.7684539556503296 8.033588528633118e-06 7.583945989608765e-05 0.0 0.0 0.0 0.0
3.193 -0.6819828748703003 0.7681166529655457 -2.588517963886261e-05 6.541237235069275e-05 0.0 0.0 0.0 0.0
3.194 -0.6800826787948608 0.7698677778244019 -4.911329597234726e-05 7.955171167850494e-05 0.0 0.0 0.0 0.0
3.195 -0.6784985661506653 0.7714722752571106 1.2092292308807373e-05 0.00012218207120895386 0.0 0.0 0.0 0.0
3.196 -0.6801913380622864 0.7698785662651062 -4.12454828619957e-05 0.00012849830090999603 0.0 0.0 0.0 0.0
3.197 -0.68195641040802 0.7678418755531311 -3.437604755163193e-05 6.144028156995773e-05 0.0 0.0 0.0 0.0
3.198 -0.6798282265663147 0.7710636258125305 -5.845911800861359e-06 0.0001527871936559677 0.0 0.0 0.0 0.0
3.199 -0.6800685524940491 0.7726675868034363 -3.404449671506882e-05 7.890071719884872e-05 0.0 0.0 0.0 0.0
3.2 -0.6783168911933899 0.7727741003036499 2.650730311870575e-05 7.319077849388123e-05 0.0 0.0 0.0 0.0
3.201 -0.6767403483390808 0.7745983004570007 1.155119389295578e-05 0.00016132555902004242 0.0 0.0 0.0 0.0
3.202 -0.6788732409477234 0.7745767831802368 -4.4685788452625275e-05 0.00011520739644765854 0.0 0.0 0.0 0.0
3.203 -0.6807527542114258 0.7720872163772583 3.722682595252991e-05 0.00014946702867746353 0.0 0.0 0.0 0.0
3.204 -0.6726391911506653 0.7712382674217224 -2.153497189283371e-05 0.00015474949032068253 0.0 0.0 0.0 0.0
3.205 -0.6789499521255493 0.7753535509109497 -1.2842938303947449e-06 0.00011919252574443817 0.0 0.0 0.0 0.0
3.206 -0.6799197793006897 0.7747792601585388 -2.1194107830524445e-05 7.25816935300827e-05 0.0 0.0 0.0 0.0
3.207 -0.6768344044685364 0.7767037749290466 5.8239325881004333e-05 9.578187018632889e-05 0.0 0.0 0.0 0.0
3.208 -0.6767421364784241 0.7780671119689941 -2.4339184165000916e-05 0.00012917816638946533 0.0 0.0 0.0 0.0
3.209 -0.6773751378059387 0.7793153524398804 5.7299621403217316e-05 9.596534073352814e-05 0.0 0.0 0.0 0.0
3.21 -0.6773945093154907 0.7771296501159668 1.293141394853592e-05 0.00010047387331724167 0.0 0.0 0.0 0.0
3.211 -0.6775566935539246 0.7805476188659668 1.5875324606895447e-05 4.5678578317165375e-05 0.0 0.0 0.0 0.0
3.212 -0.6792480945587158 0.7773085832595825 4.522595554590225e-05 0.00012019835412502289 0.0 0.0 0.0 0.0
3.213 -0.6760835647583008 0.779545247554779 -8.800998330116272e-06 0.00013919081538915634 0.0 0.0 0.0 0.0
3.214 -0.6787323951721191 0.7801800966262817 -2.5043264031410217e-06 3.431551158428192e-05 0.0 0.0 0.0 0.0
3.215 -0.6775246858596802 0.7813884019851685 3.434251993894577e-05 7.397029548883438e-05 0.0 0.0 0.0 0.0
3.216 -0.6789023876190186 0.7817049622535706 5.5056996643543243e-05 8.240900933742523e-05 0.0 0.0 0.0 0.0
3.217 -0.6779235601425171 0.7817380428314209 -1.666136085987091e-06 0.0001605479046702385 0.0 0.0 0.0 0.0
3.218 -0.6820225119590759 0.7786717414855957 -4.989001899957657e-05 8.038338273763657e-05 0.0 0.0 0.0 0.0
3.219 -0.679032564163208 0.7816557884216309 5.4570846259593964e-05 9.247660636901855e-05 0.0 0.0 0.0 0.0
3.22 -0.6734279990196228 0.7878567576408386 4.829186946153641e-05 0.00010047852993011475 0.0 0.0 0.0 0.0
3.221 -0.6820937395095825 0.7802141308784485 -4.0520913898944855e-05 0.00013207178562879562 0.0 0.0 0.0 0.0
3.222 -0.6751553416252136 0.7854206562042236 -2.488028258085251e-05 8.148327469825745e-05 0.0 0.0 0.0 0.0
3.223 -0.6752043962478638 0.7871707677841187 3.799702972173691e-05 0.00014017615467309952 0.0 0.0 0.0 0.0
3.224 -0.6803075671195984 0.7828924059867859 -3.9878301322460175e-05 0.00013882946223020554 0.0 0.0 0.0 0.0
3.225 -0.6754408478736877 0.7861047387123108 -8.978042751550674e-05 8.798390626907349e-05 0.0 0.0 0.0 0.0
3.226 -0.6736778616905212 0.788556694984436 4.8949383199214935e-05 0.00010046083480119705 0.0 0.0 0.0 0.0
3.227 -0.6757336854934692 0.7876551151275635 5.077943205833435e-05 0.00013161171227693558 0.0 0.0 0.0 0.0
3.228 -0.6811655163764954 0.7906810641288757 1.6699545085430145e-05 0.00011845957487821579 0.0 0.0 0.0 0.0
3.229 -0.676335334777832 0.7887353301048279 -8.773058652877808e-07 4.608090966939926e-05 0.0 0.0 0.0 0.0
3.23 -0.674079418182373 0.7907322645187378 -1.2004747986793518e-06 6.626825779676437e-05 0.0 0.0 0.0 0.0
3.231 -0.674618661403656 0.7880152463912964 -3.4992583096027374e-05 0.00014446955174207687 0.0 0.0 0.0 0.0
3.232 -0.6744592189788818 0.7897684574127197 2.355314791202545e-05 3.909692168235779e-05 0.0 0.0 0.0 0.0
3.233 -0.676884651184082 0.7891326546669006 3.42121347784996e-05 0.00012546870857477188 0.0 0.0 0.0 0.0
3.234 -0.6757664680480957 0.7905600666999817 8.995644748210907e-06 3.5259872674942017e-05 0.0 0.0 0.0 0.0
3.235 -0.6735119223594666 0.7924004793167114 -3.758911043405533e-05 9.301677346229553e-05 0.0 0.0 0.0 0.0
3.236 -0.675218403339386 0.7918170690536499 -1.0382384061813354e-05 5.944445729255676e-05 0.0 0.0 0.0 0.0
3.237 -0.677001953125 0.7898579835891724 -5.203951150178909e-05 7.469300180673599e-05 0.0 0.0 0.0 0.0
3.238 -0.6723552346229553 0.7944077849388123 4.440639168024063e-05 8.086208254098892e-05 0.0 0.0 0.0 0.0
3.239 -0.6758572459220886 0.7925091981887817 -6.164610385894775e-05 6.265006959438324e-05 0.0 0.0 0.0 0.0
3.24 -0.6736830472946167 0.7924694418907166 -6.643589586019516e-05 0.0001428406685590744 0.0 0.0 0.0 0.0
3.241 -0.6735889315605164 0.7957568168640137 5.080364644527435e-06 6.214436143636703e-05 0.0 0.0 0.0 0.0
3.242 -0.6696733832359314 0.8000699281692505 3.822054713964462e-05 7.548462599515915e-05 0.0 0.0 0.0 0.0
3.243 -0.6757010221481323 0.795503556728363 3.286730498075485e-05 0.00012695137411355972 0.0 0.0 0.0 0.0
3.244 -0.6716758012771606 0.7973077893257141 -5.2158720791339874e-05 6.71902671456337e-05 0.0 0.0 0.0 0.0
3.245 -0.6706663370132446 0.8008666634559631 5.734153091907501e-06 0.0001615164801478386 0.0 0.0 0.0 0.0
3.246 -0.6736555695533752 0.7981667518615723 -6.0253776609897614e-05 3.3175572752952576e-05 0.0 0.0 0.0 0.0
3.247 -0.6726388931274414 0.7982073426246643 -3.296881914138794e-05 6.607081741094589e-05 0.0 0.0 0.0 0.0
3.248 -0.6716880798339844 0.7995166778564453 -1.0981224477291107e-05 0.00011712778359651566 0.0 0.0 0.0 0.0
3.249 -0.6726530194282532 0.8004496693611145 -5.561579018831253e-05 0.0001210952177643776 0.0 0.0 0.0 0.0
3.25 -0.6712691783905029 0.8008394241333008 -4.523713141679764e-05 8.060038089752197e-05 0.0 0.0 0.0 0.0
3.251 -0.6695581674575806 0.8025476336479187 2.3019500076770782e-05 0.00012104678899049759 0.0 0.0 0.0 0.0
3.252 -0.666086733341217 0.8067506551742554 -8.898787200450897e-06 0.0001418478786945343 0.0 0.0 0.0 0.0
3.253 -0.6752462387084961 0.7996624112129211 3.582797944545746e-05 0.00010795705020427704 0.0 0.0 0.0 0.0
3.254 -0.6680309176445007 0.8059015274047852 1.2410804629325867e-05 4.202406853437424e-05 0.0 0.0 0.0 0.0
3.255 -0.6702115535736084 0.8030760288238525 1.417938619852066e-05 0.00014677364379167557 0.0 0.0 0.0 0.0
3.256 -0.6746323108673096 0.8019772171974182 2.0274892449378967e-06 4.6771951019763947e-05 0.0 0.0 0.0 0.0
3.257 -0.667534351348877 0.8074648976325989 -2.064742147922516e-06 2.8663314878940582e-05 0.0 0.0 0.0 0.0
3.258 -0.6695523262023926 0.8062827587127686 5.410797894001007e-05 7.275398820638657e-05 0.0 0.0 0.0 0.0
3.259 -0.6676432490348816 0.806779682636261 -2.15945765376091e-05 0.00013801082968711853 0.0 0.0 0.0 0.0
3.26 -0.66806560754776 0.8079386949539185 7.20098614692688e-06 0.00012234412133693695 0.0 0.0 0.0 0.0
3.261 -0.669295608997345 0.8078271150588989 -5.8154575526714325e-05 3.175158053636551e-05 0.0 0.0 0.0 0.0
3.262 -0.6682990193367004 0.8080476522445679 -1.0875985026359558e-05 0.00012439675629138947 0.0 0.0 0.0 0.0
3.263 -0.6644561886787415 0.8120893239974976 -9.150989353656769e-05 4.916638135910034e-05 0.0 0.0 0.0 0.0
3.264 -0.6739984154701233 0.8038713932037354 -1.5300698578357697e-05 0.00011616945266723633 0.0 0.0 0.0 0.0
3.265 -0.6702584624290466 0.8082386255264282 -7.82497227191925e-06 4.067365080118179e-05 0.0 0.0 0.0 0.0
3.266 -0.66720050573349 0.8117511868476868 -5.0856731832027435e-05 4.280172288417816e-05 0.0 0.0 0.0 0.0
3.267 -0.666968822479248 0.8126065731048584 -5.258806049823761e-05 6.602611392736435e-05 0.0 0.0 0.0 0.0
3.268 -0.6666560173034668 0.810893177986145 -1.0107643902301788e-05 2.447236329317093e-05 0.0 0.0 0.0 0.0
3.269 -0.662894070148468 0.816242516040802 4.642922431230545e-05 0.00011659599840641022 0.0 0.0 0.0 0.0
3.27 -0.6686767935752869 0.8108850717544556 -6.857328116893768e-06 0.00012518372386693954 0.0 0.0 0.0 0.0
3.271 -0.6686950922012329 0.8117668628692627 -3.199651837348938e-05 0.00011113006621599197 0.0 0.0 0.0 0.0
3.272 -0.663838267326355 0.8158143758773804 -3.0158087611198425e-05 0.00013929419219493866 0.0 0.0 0.0 0.0
3.273 -0.6667875051498413 0.8141309022903442 -2.8740614652633667e-05 0.0001267269253730774 0.0 0.0 0.0 0.0
3.274 -0.6633792519569397 0.8153836727142334 -7.786042988300323e-05 0.00010670069605112076 0.0 0.0 0.0 0.0
3.275 -0.6665361523628235 0.8149023056030273 -3.449711948633194e-05 0.00013821106404066086 0.0 0.0 0.0 0.0
3.276 -0.6604746580123901 0.8167682886123657 -3.53250652551651e-06 4.712119698524475e-05 0.0 0.0 0.0 0.0
3.277 -0.6636638045310974 0.8177038431167603 -8.15102830529213e-05 5.381181836128235e-05 0.0 0.0 0.0 0.0
3.278 -0.6634683609008789 0.8197828531265259 7.186830043792725e-05 6.971042603254318e-05 0.0 0.0 0.0 0.0
3.279 -0.6675171256065369 0.8161584138870239 -9.473413228988647e-06 5.127862095832825e-05 0.0 0.0 0.0 0.0
3.28 -0.6657238602638245 0.8176240921020508 -7.648766040802002e-05 6.942451000213623e-05 0.0 0.0 0.0 0.0
3.281 -0.6612457036972046 0.8207001090049744 8.139759302139282e-07 6.017275154590607e-05 0.0 0.0 0.0 0.0
3.282 -0.6632390022277832 0.8197129964828491 3.536883741617203e-05 2.6317313313484192e-05 0.0 0.0 0.0 0.0
3.283 -0.663297176361084 0.8196427822113037 9.456649422645569e-06 8.507072925567627e-05 0.0 0.0 0.0 0.0
3.284 -0.6600951552391052 0.8215728998184204 -6.643589586019516e-05 5.688238888978958e-05 0.0 0.0 0.0 0.0
3.285 -0.6593518257141113 0.8264067769050598 -2.468656748533249e-05 6.042420864105225e-06 0.0 0.0 0.0 0.0
3.286 -0.6624171733856201 0.8202932476997375 -1.8268823623657227e-05 0.00010683108121156693 0.0 0.0 0.0 0.0
3.287 -0.6582351922988892 0.8247277736663818 -3.696419298648834e-05 0.00014076661318540573 0.0 0.0 0.0 0.0
3.288 -0.6596685647964478 0.8247877955436707 2.2378750145435333e-05 4.1116029024124146e-05 0.0 0.0 0.0 0.0
3.289 -0.6628104448318481 0.8234220147132874 3.1752511858940125e-05 4.6854838728904724e-05 0.0 0.0 0.0 0.0
3.29 -0.6584430932998657 0.825827419757843 -1.4593824744224548e-05 7.054675370454788e-05 0.0 0.0 0.0 0.0
3.291 -0.6628888845443726 0.8222269415855408 3.939494490623474e-05 0.00010665319859981537 0.0 0.0 0.0 0.0
3.292 -0.6607563495635986 0.8236355781555176 -5.756504833698273e-06 0.00010575540363788605 0.0 0.0 0.0 0.0
3.293 -0.656851053237915 0.8284657597541809 -7.213838398456573e-05 5.309097468852997e-05 0.0 0.0 0.0 0.0
3.294 -0.6611015200614929 0.8250818848609924 -1.9848346710205078e-05 0.00010606367141008377 0.0 0.0 0.0 0.0
3.295 -0.6558202505111694 0.8291142582893372 -5.2776187658309937e-05 5.7831406593322754e-05 0.0 0.0 0.0 0.0
3.296 -0.6584261655807495 0.8272556066513062 -6.0294754803180695e-05 0.00011342670768499374 0.0 0.0 0.0 0.0
3.297 -0.6579651832580566 0.8275937438011169 -7.732771337032318e-05 -1.7423182725906372e-05 0.0 0.0 0.0 0.0
3.298 -0.6562116146087646 0.8286227583885193 8.204951882362366e-07 9.554624557495117e-05 0.0 0.0 0.0 0.0
3.299 -0.6554751992225647 0.8306540846824646 -8.267350494861603e-06 8.716713637113571e-05 0.0 0.0 0.0 0.0
3.3 -0.6542319655418396 0.8280357718467712 -0.00010413210839033127 5.36823645234108e-05 0.0 0.0 0.0 0.0
3.301 -0.6522343158721924 0.8322883248329163 -3.4086406230926514e-07 -2.6794150471687317e-06 0.0 0.0 0.0 0.0
3.302 -0.6547876596450806 0.8333311676979065 -3.4539029002189636e-05 1.6930513083934784e-05 0.0 0.0 0.0 0.0
3.303 -0.6565747857093811 0.8322558403015137 2.9867514967918396e-05 -1.117028295993805e-05 0.0 0.0 0.0 0.0
3.304 -0.6525377035140991 0.8311862945556641 -5.399901419878006e-05 5.854759365320206e-05 0.0 0.0 0.0 0.0
3.305 -0.6521781086921692 0.8334528803825378 -8.756015449762344e-05 7.388275116682053e-05 0.0 0.0 0.0 0.0
3.306 -0.6547747254371643 0.833036482334137 -1.9601546227931976e-05 -5.898997187614441e-05 0.0 0.0 0.0 0.0
3.307 -0.6498032212257385 0.8356990814208984 -2.3243948817253113e-05 9.156204760074615e-05 0.0 0.0 0.0 0.0
3.308 -0.6519169807434082 0.8360770344734192 2.515781670808792e-05 2.999044954776764e-05 0.0 0.0 0.0 0.0
3.309 -0.6544257402420044 0.834212601184845 -0.0001186048611998558 4.8119574785232544e-05 0.0 0.0 0.0 0.0
3.31 -0.6502220034599304 0.8356096148490906 6.300397217273712e-06 4.542618989944458e-05 0.0 0.0 0.0 0.0
3.311 -0.650336503982544 0.8376985788345337 1.477077603340149e-06 1.1743046343326569e-05 0.0 0.0 0.0 0.0
3.312 -0.6530081629753113 0.8314771056175232 -1.100543886423111e-05 7.865205407142639e-05 0.0 0.0 0.0 0.0
3.313 -0.6483795642852783 0.8391932249069214 -0.00011043623089790344 1.625996083021164e-05 0.0 0.0 0.0 0.0
3.314 -0.6510206460952759 0.8379887342453003 -4.4908374547958374e-05 -1.2463890016078949e-05 0.0 0.0 0.0 0.0
3.315 -0.6509935855865479 0.8383287787437439 5.014240741729736e-06 3.9215199649333954e-05 0.0 0.0 0.0 0.0
3.316 -0.6496411561965942 0.8396545052528381 -8.497480303049088e-05 2.50963494181633e-05 0.0 0.0 0.0 0.0
3.317 -0.643470287322998 0.843753457069397 -5.783233791589737e-05 8.6943618953228e-05 0.0 0.0 0.0 0.0
3.318 -0.6464412808418274 0.8418166041374207 -3.847852349281311e-05 -2.1657906472682953e-05 0.0 0.0 0.0 0.0
3.319 -0.648264467716217 0.8409860134124756 -2.812221646308899e-05 5.9874728322029114e-05 0.0 0.0 0.0 0.0
3.32 -0.6472784280776978 0.8423624634742737 3.3481046557426453e-06 5.507189780473709e-05 0.0 0.0 0.0 0.0
3.321 -0.6467899084091187 0.8412054777145386 -0.0001264745369553566 -3.834255039691925e-06 0.0 0.0 0.0 0.0
3.322 -0.6458484530448914 0.8449664115905762 -5.7260505855083466e-05 -2.9426999390125275e-05 0.0 0.0 0.0 0.0
3.323 -0.6480256915092468 0.8434373140335083 -6.566476076841354e-05 -3.16007062792778e-05 0.0 0.0 0.0 0.0
3.324 -0.6473969221115112 0.8396130204200745 -2.1637417376041412e-05 4.9416907131671906e-05 0.0 0.0 0.0 0.0
3.325 -0.6434813141822815 0.8463950753211975 -0.000170266255736351 1.6582198441028595e-05 0.0 0.0 0.0 0.0
3.326 -0.6449813842773438 0.8459218144416809 -9.167846292257309e-05 6.779376417398453e-05 0.0 0.0 0.0 0.0
3.327 -0.6496535539627075 0.8436696529388428 -0.00011263508349657059 7.163733243942261e-05 0.0 0.0 0.0 0.0
3.328 -0.6451734900474548 0.8462233543395996 -0.00011751055717468262 -3.644358366727829e-05 0.0 0.0 0.0 0.0
3.329 -0.6448242664337158 0.8491964936256409 -0.00011470075696706772 -7.502268999814987e-05 0.0 0.0 0.0 0.0
3.33 -0.6467894315719604 0.8444902300834656 -0.0001450488343834877 -1.3445504009723663e-05 0.0 0.0 0.0 0.0
3.331 -0.6438177824020386 0.8483880162239075 -7.311627268791199e-05 1.782551407814026e-05 0.0 0.0 0.0 0.0
3.332 -0.6465464234352112 0.8469489216804504 -8.418876677751541e-05 5.9534795582294464e-05 0.0 0.0 0.0 0.0
3.333 -0.6453879475593567 0.8491966724395752 -0.000143333338201046 2.7531757950782776e-05 0.0 0.0 0.0 0.0
3.334 -0.6383756995201111 0.8544379472732544 -2.8286129236221313e-05 3.7476420402526855e-06 0.0 0.0 0.0 0.0
3.335 -0.6455051302909851 0.8490721583366394 -8.265860378742218e-05 7.678009569644928e-05 0.0 0.0 0.0 0.0
3.336 -0.6404464244842529 0.8506084084510803 -0.00016557145863771439 6.217602640390396e-05 0.0 0.0 0.0 0.0
3.337 -0.64034104347229 0.855431854724884 -7.276888936758041e-05 -7.515773177146912e-07 0.0 0.0 0.0 0.0
3.338 -0.6406888365745544 0.8539413213729858 -4.634074866771698e-05 1.8495135009288788e-05 0.0 0.0 0.0 0.0
3.339 -0.6410426497459412 0.8525307774543762 -0.00015794672071933746 -1.251325011253357e-05 0.0 0.0 0.0 0.0
3.34 -0.6369941234588623 0.8580003380775452 -0.00014162249863147736 -1.6242265701293945e-06 0.0 0.0 0.0 0.0
3.341 -0.6391019225120544 0.8566215634346008 -0.00014739204198122025 7.186830043792725e-05 0.0 0.0 0.0 0.0
3.342 -0.6400050520896912 0.856255054473877 -4.421547055244446e-05 3.6961399018764496e-05 0.0 0.0 0.0 0.0
3.343 -0.6388260126113892 0.8579639196395874 -0.0001100301742553711 4.856102168560028e-05 0.0 0.0 0.0 0.0
3.344 -0.6352775692939758 0.8619194626808167 -0.00017220992594957352 -3.354810178279877e-05 0.0 0.0 0.0 0.0
3.345 -0.6417538523674011 0.8535848259925842 -0.00014230050146579742 6.782729178667068e-05 0.0 0.0 0.0 0.0
3.346 -0.6368560194969177 0.8592763543128967 -0.00012706220149993896 -1.999828964471817e-05 0.0 0.0 0.0 0.0
3.347 -0.6363958716392517 0.8621068000793457 -0.0001300005242228508 -7.461570203304291e-05 0.0 0.0 0.0 0.0
3.348 -0.6370952129364014 0.8543744683265686 -0.0001346813514828682 0.00010406225919723511 0.0 0.0 0.0 0.0
3.349 -0.636440098285675 0.8607990145683289 -0.00020433031022548676 7.15227797627449e-05 0.0 0.0 0.0 0.0
3.35 -0.6344905495643616 0.8633346557617188 -0.0002060960978269577 -2.1727755665779114e-05 0.0 0.0 0.0 0.0
3.351 -0.6363964080810547 0.8603033423423767 -0.00014605000615119934 -2.554524689912796e-05 0.0 0.0 0.0 0.0
3.352 -0.6309448480606079 0.8644068837165833 -0.0001360476016998291 3.655441105365753e-05 0.0 0.0 0.0 0.0
3.353 -0.6330505013465881 0.8660411834716797 -0.00015857722610235214 -4.247855395078659e-05 0.0 0.0 0.0 0.0
3.354 -0.6335118412971497 0.8661989569664001 -0.00013048946857452393 -1.0447576642036438e-05 0.0 0.0 0.0 0.0
3.355 -0.633029580116272 0.864321768283844 -0.00011259224265813828 6.735417991876602e-05 0.0 0.0 0.0 0.0
3.356 -0.6314160227775574 0.8687663674354553 -9.242445230484009e-05 4.075467586517334e-06 0.0 0.0 0.0 0.0
3.357 -0.6322850584983826 0.8654207587242126 -0.0001890687271952629 -1.400243490934372e-05 0.0 0.0 0.0 0.0
3.358 -0.6321157813072205 0.866592288017273 -7.069390267133713e-05 3.66969034075737e-05 0.0 0.0 0.0 0.0
3.359 -0.6280389428138733 0.8704516887664795 -7.738545536994934e-05 -1.7610378563404083e-05 0.0 0.0 0.0 0.0
3.36 -0.6256324052810669 0.8686687350273132 -0.00012370850890874863 5.4243020713329315e-05 0.0 0.0 0.0 0.0
3.361 -0.6258952021598816 0.8709693551063538 -0.0002405848354101181 8.326955139636993e-06 0.0 0.0 0.0 0.0
3.362 -0.628088116645813 0.8724988102912903 -0.00016893260180950165 1.115165650844574e-05 0.0 0.0 0.0 0.0
3.363 -0.6294194459915161 0.8710610866546631 -9.838119149208069e-05 2.2050924599170685e-05 0.0 0.0 0.0 0.0
3.364 -0.6272297501564026 0.8723738789558411 -0.00020511914044618607 1.5312805771827698e-05 0.0 0.0 0.0 0.0
3.365 -0.6220127940177917 0.8757385611534119 -0.00018360745161771774 7.30929896235466e-05 0.0 0.0 0.0 0.0
3.366 -0.6274337768554688 0.8735888600349426 -0.00023316871374845505 4.0347687900066376e-05 0.0 0.0 0.0 0.0
3.367 -0.6238193511962891 0.8762235641479492 -0.0001860475167632103 6.712693721055984e-05 0.0 0.0 0.0 0.0
3.368 -0.6290827989578247 0.872782289981842 -0.00011176150292158127 9.125936776399612e-05 0.0 0.0 0.0 0.0
3.369 -0.6242607235908508 0.8761920928955078 -0.0002844249829649925 -3.6302953958511353e-06 0.0 0.0 0.0 0.0
3.37 -0.6210457682609558 0.8786222338676453 -0.000141010619699955 6.440095603466034e-06 0.0 0.0 0.0 0.0
3.371 -0.6243149042129517 0.8774929046630859 -0.00024652574211359024 -2.9872171580791473e-05 0.0 0.0 0.0 0.0
3.372 -0.622271716594696 0.880221962928772 -0.00013144779950380325 0.00010657403618097305 0.0 0.0 0.0 0.0
3.373 -0.6203792691230774 0.8790165781974792 -0.00012803729623556137 5.615409463644028e-05 0.0 0.0 0.0 0.0
3.374 -0.6179308891296387 0.8818745017051697 -0.00023009534925222397 8.866749703884125e-05 0.0 0.0 0.0 0.0
3.375 -0.6181042194366455 0.8801974058151245 -0.00026198383420705795 -6.397347897291183e-05 0.0 0.0 0.0 0.0
3.376 -0.6158215999603271 0.8815029263496399 -0.00013831909745931625 1.7384067177772522e-05 0.0 0.0 0.0 0.0
3.377 -0.615584135055542 0.8846239447593689 -0.00014879461377859116 2.864748239517212e-06 0.0 0.0 0.0 0.0
3.378 -0.6165363192558289 0.8814510107040405 -0.00017876923084259033 0.00011391937732696533 0.0 0.0 0.0 0.0
3.379 -0.61229407787323 0.886528491973877 -0.00019980594515800476 -2.9890798032283783e-05 0.0 0.0 0.0 0.0
3.38 -0.6133923530578613 0.8858532905578613 -0.00014958437532186508 5.960743874311447e-05 0.0 0.0 0.0 0.0
3.381 -0.6162049174308777 0.885336697101593 -8.96817073225975e-05 6.0078687965869904e-05 0.0 0.0 0.0 0.0
3.382 -0.6112353801727295 0.8870602250099182 -0.00017876643687486649 0.00010560918599367142 0.0 0.0 0.0 0.0
3.383 -0.6115481853485107 0.8864755034446716 -0.00021232757717370987 9.799376130104065e-05 0.0 0.0 0.0 0.0
3.384 -0.6098337173461914 0.8870364427566528 -0.00014482345432043076 6.731878966093063e-05 0.0 0.0 0.0 0.0
3.385 -0.609644889831543 0.8891050815582275 -0.0001383814960718155 3.3212825655937195e-05 0.0 0.0 0.0 0.0
3.386 -0.6095149517059326 0.8882202506065369 -0.0002842256799340248 3.1614676117897034e-05 0.0 0.0 0.0 0.0
3.387 -0.6138874888420105 0.8870006203651428 -0.00016475748270750046 5.98561018705368e-06 0.0 0.0 0.0 0.0
3.388 -0.6043769121170044 0.8921006917953491 -0.00022163242101669312 0.00011544767767190933 0.0 0.0 0.0 0.0
3.389 -0.6070373058319092 0.8893293738365173 -0.0002192361280322075 9.168870747089386e-05 0.0 0.0 0.0 0.0
3.39 -0.6062545776367188 0.8919408321380615 -0.0002819374203681946 8.596107363700867e-06 0.0 0.0 0.0 0.0
3.391 -0.6048495769500732 0.8925877213478088 -0.00016806460916996002 -1.0580755770206451e-05 0.0 0.0 0.0 0.0
3.392 -0.6031912565231323 0.8935470581054688 -0.00022643618285655975 5.111098289489746e-06 0.0 0.0 0.0 0.0
3.393 -0.6027979850769043 0.8945359587669373 -0.00017155520617961884 8.634477853775024e-05 0.0 0.0 0.0 0.0
3.394 -0.6033266186714172 0.8935210108757019 -0.0002569630742073059 -3.703124821186066e-05 0.0 0.0 0.0 0.0
3.395 -0.6027752161026001 0.8947615027427673 -0.00023980718106031418 -5.7938508689403534e-05 0.0 0.0 0.0 0.0
3.396 -0.5978047251701355 0.888577938079834 -0.00021990668028593063 -5.6655146181583405e-05 0.0 0.0 0.0 0.0
3.397 -0.6010518074035645 0.895361602306366 -0.00016917474567890167 3.9703212678432465e-05 0.0 0.0 0.0 0.0
3.398 -0.5996296405792236 0.8957937955856323 -0.000259939581155777 1.1164695024490356e-05 0.0 0.0 0.0 0.0
3.399 -0.5980987548828125 0.8976460099220276 -0.00019529927521944046 -3.1793490052223206e-05 0.0 0.0 0.0 0.0
3.4 -0.5974154472351074 0.8995019197463989 -0.00021055899560451508 0.00011390913277864456 0.0 0.0 0.0 0.0
3.401 -0.5980068445205688 0.897430419921875 -0.00016857869923114777 0.00010567251592874527 0.0 0.0 0.0 0.0
3.402 -0.5952023267745972 0.8985191583633423 -0.0003186343237757683 1.3476237654685974e-06 0.0 0.0 0.0 0.0
3.403 -0.596304178237915 0.898646354675293 -0.0002100309357047081 -3.0520372092723846e-05 0.0 0.0 0.0 0.0
3.404 -0.5972428321838379 0.8982057571411133 -0.0001836596056818962 -2.566445618867874e-05 0.0 0.0 0.0 0.0
3.405 -0.5934497117996216 0.8990969657897949 -0.00021635089069604874 4.89354133605957e-05 0.0 0.0 0.0 0.0
3.406 -0.5900728702545166 0.9025463461875916 -0.00029579736292362213 -2.7582980692386627e-05 0.0 0.0 0.0 0.0
3.407 -0.5921011567115784 0.902184009552002 -0.0003504818305373192 -5.566980689764023e-05 0.0 0.0 0.0 0.0
3.408 -0.5885410904884338 0.903465211391449 -0.0002300618216395378 -1.9136816263198853e-05 0.0 0.0 0.0 0.0
3.409 -0.5877033472061157 0.903930127620697 -0.0003087269142270088 8.597411215305328e-05 0.0 0.0 0.0 0.0
3.41 -0.5927101969718933 0.9010120034217834 -0.0002339836210012436 0.00010343734174966812 0.0 0.0 0.0 0.0
3.411 -0.5880714058876038 0.9032189249992371 -0.0003716330975294113 -4.572700709104538e-05 0.0 0.0 0.0 0.0
3.412 -0.5884925723075867 0.904994010925293 -0.00021050125360488892 6.592180579900742e-05 0.0 0.0 0.0 0.0
3.413 -0.5874379277229309 0.9045487642288208 -0.00016828253865242004 1.7617829144001007e-05 0.0 0.0 0.0 0.0
3.414 -0.5859044790267944 0.9049829244613647 -0.0001667151227593422 -3.015901893377304e-05 0.0 0.0 0.0 0.0
3.415 -0.5837947130203247 0.9077545404434204 -0.00031995121389627457 -1.3637356460094452e-05 0.0 0.0 0.0 0.0
3.416 -0.5829254388809204 0.906636655330658 -0.0003324681892991066 2.964399755001068e-05 0.0 0.0 0.0 0.0
3.417 -0.5821466445922852 0.909667432308197 -0.0003055604174733162 -1.6371719539165497e-05 0.0 0.0 0.0 0.0
3.418 -0.5806628465652466 0.9105294942855835 -0.00020562577992677689 -2.434849739074707e-05 0.0 0.0 0.0 0.0
3.419 -0.5792239308357239 0.9092012047767639 -0.0003672214224934578 -7.545854896306992e-05 0.0 0.0 0.0 0.0
3.42 -0.5796751379966736 0.9112259149551392 -0.00019623152911663055 3.964453935623169e-05 0.0 0.0 0.0 0.0
3.421 -0.5783901214599609 0.9088816046714783 -0.0002920757979154587 7.870234549045563e-05 0.0 0.0 0.0 0.0
3.422 -0.575904905796051 0.9113543629646301 -0.00036156270653009415 -1.8719583749771118e-06 0.0 0.0 0.0 0.0
3.423 -0.5750613212585449 0.9122001528739929 -0.00036177318543195724 -7.059890776872635e-05 0.0 0.0 0.0 0.0
3.424 -0.5728252530097961 0.9116960763931274 -0.0002900538966059685 0.00014440994709730148 0.0 0.0 0.0 0.0
3.425 -0.5725149512290955 0.9125624895095825 -0.00021931063383817673 0.00011336710304021835 0.0 0.0 0.0 0.0
3.426 -0.5796493291854858 0.9021450281143188 -0.0002285689115524292 3.511272370815277e-05 0.0 0.0 0.0 0.0
3.427 -0.5743849277496338 0.9054903388023376 -0.0003721378743648529 8.285976946353912e-05 0.0 0.0 0.0 0.0
3.428 -0.5780870318412781 0.9030295014381409 -0.00038114748895168304 5.250424146652222e-05 0.0 0.0 0.0 0.0
3.429 -0.5778005123138428 0.9046122431755066 -0.0003197258338332176 -7.449835538864136e-05 0.0 0.0 0.0 0.0
3.43 -0.575254499912262 0.9034583568572998 -0.0003529852256178856 -9.120255708694458e-05 0.0 0.0 0.0 0.0
3.431 -0.573779284954071 0.9055315852165222 -0.00023739971220493317 4.203338176012039e-05 0.0 0.0 0.0 0.0
3.432 -0.5754149556159973 0.9086249470710754 -0.00026035401970148087 -5.037616938352585e-05 0.0 0.0 0.0 0.0
3.433 -0.5710880160331726 0.9064229130744934 -0.0003138100728392601 8.512195199728012e-05 0.0 0.0 0.0 0.0
3.434 -0.5715814232826233 0.9060660600662231 -0.0003245426341891289 8.67452472448349e-05 0.0 0.0 0.0 0.0
3.435 -0.5653091073036194 0.9081888794898987 -0.00025821104645729065 -4.9874186515808105e-05 0.0 0.0 0.0 0.0
3.436 -0.565381646156311 0.9110069870948792 -0.00026866234838962555 -8.334964513778687e-05 0.0 0.0 0.0 0.0
3.437 -0.5686990022659302 0.9072682857513428 -0.0003383178263902664 7.80448317527771e-05 0.0 0.0 0.0 0.0
3.438 -0.5730394124984741 0.9046177864074707 -0.0002915281802415848 -4.2339786887168884e-05 0.0 0.0 0.0 0.0
3.439 -0.5566007494926453 0.9173688292503357 -0.00034691765904426575 -6.143096834421158e-05 0.0 0.0 0.0 0.0
3.44 -0.5660460591316223 0.9111027717590332 -0.0004588710144162178 -9.105633944272995e-05 0.0 0.0 0.0 0.0
3.441 -0.564733624458313 0.9117693305015564 -0.00030534528195858 -0.00010723620653152466 0.0 0.0 0.0 0.0
3.442 -0.5634510517120361 0.9120388627052307 -0.0003476925194263458 -6.506405770778656e-05 0.0 0.0 0.0 0.0
3.443 -0.5611720085144043 0.9119694232940674 -0.00041066668927669525 6.974022835493088e-05 0.0 0.0 0.0 0.0
3.444 -0.568086564540863 0.9121429920196533 -0.0003383047878742218 2.6780180633068085e-05 0.0 0.0 0.0 0.0
3.445 -0.5588467717170715 0.9144951701164246 -0.0003956379368901253 -5.1917508244514465e-05 0.0 0.0 0.0 0.0
3.446 -0.5611056685447693 0.9136159420013428 -0.0003857221454381943 -4.734378308057785e-05 0.0 0.0 0.0 0.0
3.447 -0.5628213286399841 0.9110214114189148 -0.00033108144998550415 -5.0856731832027435e-05 0.0 0.0 0.0 0.0
3.448 -0.5553968548774719 0.9157604575157166 -0.0003864942118525505 0.00010643340647220612 0.0 0.0 0.0 0.0
3.449 -0.5564587712287903 0.9146335124969482 -0.0003919443115592003 0.00010378658771514893 0.0 0.0 0.0 0.0
3.45 -0.5568199157714844 0.9139025211334229 -0.00045389216393232346 -5.526375025510788e-05 0.0 0.0 0.0 0.0
3.451 -0.5485674142837524 0.9193218350410461 -0.000334310345351696 -8.904188871383667e-05 0.0 0.0 0.0 0.0
3.452 -0.555091381072998 0.9143108129501343 -0.00030973367393016815 -0.00011326093226671219 0.0 0.0 0.0 0.0
3.453 -0.5515687465667725 0.9149439930915833 -0.0003203805536031723 2.4718232452869415e-05 0.0 0.0 0.0 0.0
3.454 -0.5466761589050293 0.9189324975013733 -0.0004963669925928116 -4.3760985136032104e-05 0.0 0.0 0.0 0.0
3.455 -0.5518612265586853 0.9158799648284912 -0.00045889150351285934 4.01204451918602e-05 0.0 0.0 0.0 0.0
3.456 -0.5483018159866333 0.9203284978866577 -0.0004793945699930191 -3.2871030271053314e-05 0.0 0.0 0.0 0.0
3.457 -0.5461321473121643 0.9192932844161987 -0.0003209114074707031 7.804855704307556e-05 0.0 0.0 0.0 0.0
3.458 -0.5489340424537659 0.9175867438316345 -0.0003005834296345711 4.07462939620018e-05 0.0 0.0 0.0 0.0
3.459 -0.5421472191810608 0.9199074506759644 -0.00044071488082408905 9.756535291671753e-05 0.0 0.0 0.0 0.0
3.46 -0.5416397452354431 0.9237150549888611 -0.00040475744754076004 -0.00010702945291996002 0.0 0.0 0.0 0.0
3.461 -0.5447357892990112 0.9199830889701843 -0.0003143949434161186 -7.627904415130615e-05 0.0 0.0 0.0 0.0
3.462 -0.5451909899711609 0.9180195927619934 -0.0004421751946210861 -0.00011739786714315414 0.0 0.0 0.0 0.0
3.463 -0.5416020154953003 0.9196629524230957 -0.00047732144594192505 9.905081242322922e-05 0.0 0.0 0.0 0.0
3.464 -0.5415576100349426 0.9208776950836182 -0.00041938479989767075 0.00012787990272045135 0.0 0.0 0.0 0.0
3.465 -0.5336825251579285 0.9234927892684937 -0.0005483143031597137 5.0613656640052795e-05 0.0 0.0 0.0 0.0
3.466 -0.5357295274734497 0.9246578812599182 -0.00039436668157577515 -1.9531697034835815e-05 0.0 0.0 0.0 0.0
3.467 -0.5335482954978943 0.9238061904907227 -0.00034842267632484436 4.4811517000198364e-05 0.0 0.0 0.0 0.0
3.468 -0.537128746509552 0.9222517609596252 -0.0004048040136694908 0.00012807827442884445 0.0 0.0 0.0 0.0
3.469 -0.5345637798309326 0.9226309061050415 -0.00035141222178936005 3.4594908356666565e-05 0.0 0.0 0.0 0.0
3.47 -0.53621506690979 0.9206671118736267 -0.0005141003057360649 0.00011850148439407349 0.0 0.0 0.0 0.0
3.471 -0.530301034450531 0.9243059158325195 -0.0003684433177113533 -1.1994503438472748e-05 0.0 0.0 0.0 0.0
3.472 -0.5309173464775085 0.9266497492790222 -0.0005874503403902054 2.870522439479828e-05 0.0 0.0 0.0 0.0
3.473 -0.5295060873031616 0.9232996106147766 -0.0005256021395325661 0.00011002644896507263 0.0 0.0 0.0 0.0
3.474 -0.5236761569976807 0.9270102977752686 -0.000472445972263813 0.00011263135820627213 0.0 0.0 0.0 0.0
3.475 -0.5251452326774597 0.9268040060997009 -0.0005590403452515602 -2.6496127247810364e-06 0.0 0.0 0.0 0.0
3.476 -0.5265040397644043 0.9255644679069519 -0.0004284000024199486 8.410122245550156e-05 0.0 0.0 0.0 0.0
3.477 -0.523761510848999 0.9265049695968628 -0.0004440871998667717 -4.172883927822113e-05 0.0 0.0 0.0 0.0
3.478 -0.5230966806411743 0.9255672693252563 -0.00044941995292901993 8.539669215679169e-05 0.0 0.0 0.0 0.0
3.479 -0.5226069092750549 0.9256489276885986 -0.0005028806626796722 9.60230827331543e-05 0.0 0.0 0.0 0.0
3.48 -0.5214126110076904 0.9297162294387817 -0.0006369967013597488 0.00015975814312696457 0.0 0.0 0.0 0.0
3.481 -0.5190173387527466 0.928871750831604 -0.0006237337365746498 5.053449422121048e-05 0.0 0.0 0.0 0.0
3.482 -0.5205996632575989 0.926017701625824 -0.00047569721937179565 8.307583630084991e-05 0.0 0.0 0.0 0.0
3.483 -0.5118764042854309 0.9295019507408142 -0.0004453463479876518 0.00016444362699985504 0.0 0.0 0.0 0.0
3.484 -0.5169090628623962 0.9298351407051086 -0.0006385669112205505 6.621517241001129e-05 0.0 0.0 0.0 0.0
3.485 -0.5191437602043152 0.9254094958305359 -0.000664418563246727 7.953587919473648e-05 0.0 0.0 0.0 0.0
3.486 -0.5142312049865723 0.9278314113616943 -0.0006065843626856804 0.0002012336626648903 0.0 0.0 0.0 0.0
3.487 -0.5114840269088745 0.9299194812774658 -0.0005084006115794182 0.00015916023403406143 0.0 0.0 0.0 0.0
3.488 -0.5136780142784119 0.9292647838592529 -0.0005229562520980835 -5.938299000263214e-05 0.0 0.0 0.0 0.0
3.489 -0.51067715883255 0.9313026070594788 -0.000452178530395031 0.0001058848574757576 0.0 0.0 0.0 0.0
3.49 -0.5081261992454529 0.9307711124420166 -0.0006175665184855461 -4.5923516154289246e-06 0.0 0.0 0.0 0.0
3.491 -0.5105982422828674 0.9281705617904663 -0.0006397981196641922 6.8265944719314575e-06 0.0 0.0 0.0 0.0
3.492 -0.507682740688324 0.9268789291381836 -0.0006794296205043793 4.8362649977207184e-05 0.0 0.0 0.0 0.0
3.493 -0.5064202547073364 0.9318137168884277 -0.0004819286987185478 0.00017609819769859314 0.0 0.0 0.0 0.0
3.494 -0.5108591914176941 0.9285672307014465 -0.0005198577418923378 8.347537368535995e-05 0.0 0.0 0.0 0.0
3.495 -0.5036503076553345 0.9316246509552002 -0.0005297884345054626 0.00026417989283800125 0.0 0.0 0.0 0.0
3.496 -0.5032218098640442 0.932052731513977 -0.0004846351221203804 2.5488436222076416e-05 0.0 0.0 0.0 0.0
3.497 -0.5028619766235352 0.9294165968894958 -0.0006180740892887115 2.0381994545459747e-05 0.0 0.0 0.0 0.0
3.498 -0.4989757835865021 0.932261049747467 -0.0005248598754405975 0.00018563028424978256 0.0 0.0 0.0 0.0
3.499 -0.5012156963348389 0.9314091801643372 -0.0006125001236796379 8.251238614320755e-05 0.0 0.0 0.0 0.0
3.5 -0.4993474781513214 0.9305773973464966 -0.0006567491218447685 0.00014843884855508804 0.0 0.0 0.0 0.0
3.501 -0.5032020807266235 0.928982675075531 -0.0005254987627267838 0.0002524014562368393 0.0 0.0 0.0 0.0
3.502 -0.49531567096710205 0.9340848326683044 -0.0004726545885205269 0.00011977460235357285 0.0 0.0 0.0 0.0
3.503 -0.4915273189544678 0.9345546960830688 -0.0006260592490434647 0.00035956408828496933 0.0 0.0 0.0 0.0
3.504 -0.49738287925720215 0.9341983199119568 -0.0006878618150949478 0.0001800181344151497 0.0 0.0 0.0 0.0
3.505 -0.4955872893333435 0.9322126507759094 -0.0007010186091065407 -1.8145889043807983e-05 0.0 0.0 0.0 0.0
3.506 -0.496933251619339 0.9300640225410461 -0.000628235749900341 0.00012259744107723236 0.0 0.0 0.0 0.0
3.507 -0.48943471908569336 0.9349284172058105 -0.0005671270191669464 0.00021158438175916672 0.0 0.0 0.0 0.0
3.508 -0.48995280265808105 0.9356608986854553 -0.0007446715608239174 0.00021055061370134354 0.0 0.0 0.0 0.0
3.509 -0.4899628162384033 0.9338001012802124 -0.0007017003372311592 0.00012695696204900742 0.0 0.0 0.0 0.0
3.51 -0.4864594638347626 0.9341500997543335 -0.0006532138213515282 0.00045698415488004684 0.0 0.0 0.0 0.0
3.511 -0.48340409994125366 0.936121940612793 -0.0005066003650426865 0.000268460251390934 0.0 0.0 0.0 0.0
3.512 -0.4887988865375519 0.9334951043128967 -0.0006292164325714111 0.00041796453297138214 0.0 0.0 0.0 0.0
3.513 -0.48430296778678894 0.9374008774757385 -0.000760386697947979 0.0002479963004589081 0.0 0.0 0.0 0.0
3.514 -0.48046109080314636 0.9393399357795715 -0.0007472094148397446 0.00020064692944288254 0.0 0.0 0.0 0.0
3.515 -0.4835500419139862 0.9371268153190613 -0.0007092505693435669 0.00023881439119577408 0.0 0.0 0.0 0.0
3.516 -0.47660160064697266 0.9395559430122375 -0.0008375141769647598 0.0004099896177649498 0.0 0.0 0.0 0.0
3.517 -0.4782398045063019 0.938876211643219 -0.0006625782698392868 0.00026872381567955017 0.0 0.0 0.0 0.0
3.518 -0.47972753643989563 0.936947762966156 -0.0005587805062532425 0.00042166654020547867 0.0 0.0 0.0 0.0
3.519 -0.4731855094432831 0.9407854080200195 -0.0007239868864417076 0.0002641109749674797 0.0 0.0 0.0 0.0
3.52 -0.4817638099193573 0.9404814839363098 -0.0006074123084545135 0.00020578224211931229 0.0 0.0 0.0 0.0
3.521 -0.4808037281036377 0.937802791595459 -0.0008233999833464622 0.0003844974562525749 0.0 0.0 0.0 0.0
3.522 -0.47461485862731934 0.941114604473114 -0.000738123431801796 0.0003102310001850128 0.0 0.0 0.0 0.0
3.523 -0.4773082733154297 0.9388613104820251 -0.0006755376234650612 0.0002760188654065132 0.0 0.0 0.0 0.0
3.524 -0.4726981520652771 0.9412513971328735 -0.0007495814934372902 0.0002866499125957489 0.0 0.0 0.0 0.0
3.525 -0.4743577241897583 0.940597414970398 -0.0005602473393082619 0.00048067234456539154 0.0 0.0 0.0 0.0
3.526 -0.4661533236503601 0.9457494616508484 -0.0008563278242945671 0.00031698402017354965 0.0 0.0 0.0 0.0
3.527 -0.4673817753791809 0.9426976442337036 -0.0008446099236607552 0.0003945548087358475 0.0 0.0 0.0 0.0
3.528 -0.47508591413497925 0.9378184676170349 -0.0008403854444622993 0.0004505300894379616 0.0 0.0 0.0 0.0
3.529 -0.4711683690547943 0.9409676194190979 -0.0007983297109603882 0.0004660319536924362 0.0 0.0 0.0 0.0
3.53 -0.4686080813407898 0.9418879747390747 -0.0008929511532187462 0.00039842166006565094 0.0 0.0 0.0 0.0
3.531 -0.4652581512928009 0.9452452659606934 -0.0007956987246870995 0.0002780109643936157 0.0 0.0 0.0 0.0
3.532 -0.4651215076446533 0.943788468837738 -0.0008718660101294518 0.00038845278322696686 0.0 0.0 0.0 0.0
3.533 -0.4625951647758484 0.9447190165519714 -0.0006797639653086662 0.00039037689566612244 0.0 0.0 0.0 0.0
3.534 -0.4650174677371979 0.9445692300796509 -0.0007031401619315147 0.00045215804129838943 0.0 0.0 0.0 0.0
3.535 -0.4621966481208801 0.9435126781463623 -0.0008534984663128853 0.0003852192312479019 0.0 0.0 0.0 0.0
3.536 -0.46357256174087524 0.9440320730209351 -0.0007482711225748062 0.00028943270444869995 0.0 0.0 0.0 0.0
3.537 -0.46122923493385315 0.946779727935791 -0.0006193742156028748 0.0003014504909515381 0.0 0.0 0.0 0.0
3.538 -0.46220633387565613 0.9445759057998657 -0.0007223095744848251 0.0003011757507920265 0.0 0.0 0.0 0.0
3.539 -0.4556303024291992 0.9470440149307251 -0.0008540377020835876 0.000407978892326355 0.0 0.0 0.0 0.0
3.54 -0.46511363983154297 0.9512324929237366 -0.0005821594968438148 0.0003386475145816803 0.0 0.0 0.0 0.0
3.541 -0.4577738344669342 0.9467474818229675 -0.0007293615490198135 0.0005191201344132423 0.0 0.0 0.0 0.0
3.542 -0.45172321796417236 0.9483965039253235 -0.0008803075179457664 0.00048350635915994644 0.0 0.0 0.0 0.0
3.543 -0.4543715715408325 0.9475892782211304 -0.0008794320747256279 0.00043591298162937164 0.0 0.0 0.0 0.0
3.544 -0.45314058661460876 0.9463996291160583 -0.0007718214765191078 0.0004105381667613983 0.0 0.0 0.0 0.0
3.545 -0.4526229202747345 0.9448285698890686 -0.0008464958518743515 0.0005702506750822067 0.0 0.0 0.0 0.0
3.546 -0.44807228446006775 0.9501082301139832 -0.0007778070867061615 0.00036439020186662674 0.0 0.0 0.0 0.0
3.547 -0.44756293296813965 0.9498828053474426 -0.0007677841931581497 0.0005024438723921776 0.0 0.0 0.0 0.0
3.548 -0.44620180130004883 0.9470998644828796 -0.0007364712655544281 0.0005071964114904404 0.0 0.0 0.0 0.0
3.549 -0.44550609588623047 0.9503583312034607 -0.0008204430341720581 0.00029886234551668167 0.0 0.0 0.0 0.0
3.55 -0.44734495878219604 0.9475915431976318 -0.000690096989274025 0.0004993854090571404 0.0 0.0 0.0 0.0
3.551 -0.44433310627937317 0.9483934640884399 -0.0006923200562596321 0.0006509777158498764 0.0 0.0 0.0 0.0
3.552 -0.4457380771636963 0.9465965628623962 -0.000889340415596962 0.00039124302566051483 0.0 0.0 0.0 0.0
3.553 -0.44456732273101807 0.9484127759933472 -0.0007385844364762306 0.00037256255745887756 0.0 0.0 0.0 0.0
3.554 -0.4450646638870239 0.9473046064376831 -0.0007793940603733063 0.0006474433466792107 0.0 0.0 0.0 0.0
3.555 -0.4356957972049713 0.9509530663490295 -0.000852975994348526 0.0005524260923266411 0.0 0.0 0.0 0.0
3.556 -0.43702393770217896 0.9515867829322815 -0.0007444098591804504 0.0004035681486129761 0.0 0.0 0.0 0.0
3.557 -0.43525534868240356 0.9521796703338623 -0.0008591916412115097 0.0003722943365573883 0.0 0.0 0.0 0.0
3.558 -0.43137964606285095 0.9522205591201782 -0.0007630474865436554 0.0006002085283398628 0.0 0.0 0.0 0.0
3.559 -0.4310333728790283 0.9512966871261597 -0.000988493673503399 0.0005085980519652367 0.0 0.0 0.0 0.0
3.56 -0.4326610267162323 0.950709879398346 -0.0009968755766749382 0.0005551977083086967 0.0 0.0 0.0 0.0
3.561 -0.4333629608154297 0.9483127593994141 -0.0009768037125468254 0.0004279743880033493 0.0 0.0 0.0 0.0
3.562 -0.4274090528488159 0.9502956867218018 -0.0010435879230499268 0.0005704117938876152 0.0 0.0 0.0 0.0
3.563 -0.426127552986145 0.9527516961097717 -0.0009667770937085152 0.0005164090543985367 0.0 0.0 0.0 0.0
3.564 -0.4342925548553467 0.9548579454421997 -0.0008945763111114502 0.0004484737291932106 0.0 0.0 0.0 0.0
3.565 -0.426029771566391 0.9528776407241821 -0.0008301520720124245 0.00039967894554138184 0.0 0.0 0.0 0.0
3.566 -0.43234387040138245 0.9500191807746887 -0.0007209870964288712 0.00042525678873062134 0.0 0.0 0.0 0.0
3.567 -0.4260192811489105 0.9531306028366089 -0.000728224404156208 0.0004398804157972336 0.0 0.0 0.0 0.0
3.568 -0.42477232217788696 0.9516590237617493 -0.0008340217173099518 0.00043004564940929413 0.0 0.0 0.0 0.0
3.569 -0.4169232249259949 0.9549833536148071 -0.0008872523903846741 0.0005886172875761986 0.0 0.0 0.0 0.0
3.57 -0.4290003478527069 0.9500777125358582 -0.0007496001198887825 0.0003712363541126251 0.0 0.0 0.0 0.0
3.571 -0.42096054553985596 0.9517337083816528 -0.0007417779415845871 0.0005684802308678627 0.0 0.0 0.0 0.0
3.572 -0.4163060784339905 0.9543195366859436 -0.0008170567452907562 0.0006230100989341736 0.0 0.0 0.0 0.0
3.573 -0.41795477271080017 0.9540043473243713 -0.0009466595947742462 0.0004946961998939514 0.0 0.0 0.0 0.0
3.574 -0.41415587067604065 0.954966127872467 -0.0008621066808700562 0.0006520943716168404 0.0 0.0 0.0 0.0
3.575 -0.41512545943260193 0.9550234079360962 -0.0007935920730233192 0.0006407275795936584 0.0 0.0 0.0 0.0
3.576 -0.41560065746307373 0.9514883160591125 -0.0009604673832654953 0.0005591604858636856 0.0 0.0 0.0 0.0
3.577 -0.410795658826828 0.9529245495796204 -0.0009930338710546494 0.0004956498742103577 0.0 0.0 0.0 0.0
3.578 -0.40955445170402527 0.954771876335144 -0.0008974559605121613 0.0004449896514415741 0.0 0.0 0.0 0.0
3.579 -0.4083612561225891 0.9548674821853638 -0.0008540106937289238 0.0006608180701732635 0.0 0.0 0.0 0.0
3.58 -0.4119012653827667 0.95176762342453 -0.0008249292150139809 0.0004967004060745239 0.0 0.0 0.0 0.0
3.581 -0.4063073694705963 0.9547916650772095 -0.0009872764348983765 0.0005663167685270309 0.0 0.0 0.0 0.0
3.582 -0.40577325224876404 0.95500648021698 -0.0010333014652132988 0.000577789731323719 0.0 0.0 0.0 0.0
3.583 -0.4034918248653412 0.95649254322052 -0.000941387377679348 0.0004896903410553932 0.0 0.0 0.0 0.0
3.584 -0.4012506604194641 0.9538389444351196 -0.0010170107707381248 0.0006153592839837074 0.0 0.0 0.0 0.0
3.585 -0.3985320031642914 0.9579173922538757 -0.0007821833714842796 0.0005851145833730698 0.0 0.0 0.0 0.0
3.586 -0.4021822512149811 0.95367830991745 -0.0008977064862847328 0.0007101614028215408 0.0 0.0 0.0 0.0
3.587 -0.3987848162651062 0.9554670453071594 -0.0009651472792029381 0.000761399045586586 0.0 0.0 0.0 0.0
3.588 -0.40369540452957153 0.949901819229126 -0.001049877144396305 0.0007051434367895126 0.0 0.0 0.0 0.0
3.589 -0.39729368686676025 0.9548056721687317 -0.0008142627775669098 0.000750415027141571 0.0 0.0 0.0 0.0
3.59 -0.39669090509414673 0.9541983604431152 -0.0009359586983919144 0.0007828464731574059 0.0 0.0 0.0 0.0
3.591 -0.38997435569763184 0.9559316635131836 -0.0008607571944594383 0.0007597468793392181 0.0 0.0 0.0 0.0
3.592 -0.3963172435760498 0.9539915323257446 -0.0009584976360201836 0.0005334755405783653 0.0 0.0 0.0 0.0
3.593 -0.38966652750968933 0.9570127129554749 -0.0009177103638648987 0.0005834745243191719 0.0 0.0 0.0 0.0
3.594 -0.3893061876296997 0.9564598202705383 -0.0007699709385633469 0.0007389523088932037 0.0 0.0 0.0 0.0
3.595 -0.39022544026374817 0.9541017413139343 -0.00083934236317873 0.0007346412166953087 0.0 0.0 0.0 0.0
3.596 -0.3902307152748108 0.9560207724571228 -0.0009992299601435661 0.0005381740629673004 0.0 0.0 0.0 0.0
3.597 -0.38841840624809265 0.9559913873672485 -0.0010136337950825691 0.0006678644567728043 0.0 0.0 0.0 0.0
3.598 -0.3835380971431732 0.9567795395851135 -0.0008423915132880211 0.0006922176107764244 0.0 0.0 0.0 0.0
3.599 -0.38238775730133057 0.9575498104095459 -0.0009001726284623146 0.0006672851741313934 0.0 0.0 0.0 0.0
3.6 -0.3781835734844208 0.959679901599884 -0.001000160351395607 0.0006764112040400505 0.0 0.0 0.0 0.0
3.601 -0.3700283169746399 0.9651511311531067 -0.0008102143183350563 0.0007053222507238388 0.0 0.0 0.0 0.0
3.602 -0.3713562786579132 0.9663625955581665 -0.0010134754702448845 0.0006982032209634781 0.0 0.0 0.0 0.0
3.603 -0.374555766582489 0.9634335041046143 -0.0010073157027363777 0.0008056284859776497 0.0 0.0 0.0 0.0
3.604 -0.37698817253112793 0.9601595401763916 -0.0009739268571138382 0.0008013863116502762 0.0 0.0 0.0 0.0
3.605 -0.36631691455841064 0.9641252160072327 -0.0009841807186603546 0.0009001912549138069 0.0 0.0 0.0 0.0
3.606 -0.3702101409435272 0.96390700340271 -0.00112216267734766 0.0008033532649278641 0.0 0.0 0.0 0.0
3.607 -0.3663257360458374 0.9642775058746338 -0.0010729432106018066 0.0008110757917165756 0.0 0.0 0.0 0.0
3.608 -0.3703189194202423 0.9640219807624817 -0.0007383162155747414 0.0008910484611988068 0.0 0.0 0.0 0.0
3.609 -0.3617197871208191 0.9643059372901917 -0.0009297002106904984 0.0009533986449241638 0.0 0.0 0.0 0.0
3.61 -0.36550846695899963 0.9626147150993347 -0.0008155126124620438 0.0007955776527523994 0.0 0.0 0.0 0.0
3.611 -0.35758286714553833 0.9653949737548828 -0.000906934030354023 0.0009924331679940224 0.0 0.0 0.0 0.0
3.612 -0.3588885962963104 0.9642535448074341 -0.0008658347651362419 0.0009231576696038246 0.0 0.0 0.0 0.0
3.613 -0.35513266921043396 0.966143012046814 -0.0010464377701282501 0.0008310507982969284 0.0 0.0 0.0 0.0
3.614 -0.3647819459438324 0.9628457427024841 -0.0009742751717567444 0.0008363006636500359 0.0 0.0 0.0 0.0
3.615 -0.35801219940185547 0.9637144804000854 -0.0010066144168376923 0.0007453765720129013 0.0 0.0 0.0 0.0
3.616 -0.3517734408378601 0.9646254181861877 -0.0010296683758497238 0.0009496491402387619 0.0 0.0 0.0 0.0
3.617 -0.3508097529411316 0.9688237905502319 -0.0008953539654612541 0.000879497267305851 0.0 0.0 0.0 0.0
3.618 -0.355173796415329 0.9646061658859253 -0.000882323831319809 0.0007705101743340492 0.0 0.0 0.0 0.0
3.619 -0.3496510684490204 0.9643791317939758 -0.0009771110489964485 0.0010199612006545067 0.0 0.0 0.0 0.0
3.62 -0.35034704208374023 0.9653777480125427 -0.0008461950346827507 0.0009881090372800827 0.0 0.0 0.0 0.0
3.621 -0.3488941192626953 0.9635860323905945 -0.0008112033829092979 0.0008385507389903069 0.0 0.0 0.0 0.0
3.622 -0.34741294384002686 0.9655289649963379 -0.0009215474128723145 0.0009557027369737625 0.0 0.0 0.0 0.0
3.623 -0.34819450974464417 0.9634813070297241 -0.0009060092270374298 0.000992925837635994 0.0 0.0 0.0 0.0
3.624 -0.34125351905822754 0.9623270630836487 -0.000993555411696434 0.0008671311661601067 0.0 0.0 0.0 0.0
3.625 -0.34205904603004456 0.9657570123672485 -0.0009088162332773209 0.0009625833481550217 0.0 0.0 0.0 0.0
3.626 -0.3399515748023987 0.9653106331825256 -0.0009082527831196785 0.0011629518121480942 0.0 0.0 0.0 0.0
3.627 -0.34374406933784485 0.9637855887413025 -0.0009871087968349457 0.0009389715269207954 0.0 0.0 0.0 0.0
3.628 -0.3422413468360901 0.9630882740020752 -0.0010170703753829002 0.0008831275627017021 0.0 0.0 0.0 0.0
3.629 -0.3379400968551636 0.9651045799255371 -0.0007370291277766228 0.0009801313281059265 0.0 0.0 0.0 0.0
3.63 -0.3390975296497345 0.9626408815383911 -0.0008819028735160828 0.0011063124984502792 0.0 0.0 0.0 0.0
3.631 -0.3347819745540619 0.9645922183990479 -0.000832543708384037 0.0010399743914604187 0.0 0.0 0.0 0.0
3.632 -0.33482077717781067 0.9650840163230896 -0.0008273189887404442 0.0010454710572957993 0.0 0.0 0.0 0.0
3.633 -0.32994771003723145 0.9656630158424377 -0.0008537527173757553 0.0012283260002732277 0.0 0.0 0.0 0.0
3.634 -0.3299836218357086 0.9661198854446411 -0.0008136993274092674 0.0009135939180850983 0.0 0.0 0.0 0.0
3.635 -0.334747314453125 0.962405264377594 -0.0008863816037774086 0.0011435691267251968 0.0 0.0 0.0 0.0
3.636 -0.3301176130771637 0.9649396538734436 -0.0008149463683366776 0.0010689813643693924 0.0 0.0 0.0 0.0
3.637 -0.32575833797454834 0.9650803208351135 -0.0010542245581746101 0.0009500300511717796 0.0 0.0 0.0 0.0
3.638 -0.3271103501319885 0.9651246666908264 -0.0008082045242190361 0.000926620326936245 0.0 0.0 0.0 0.0
3.639 -0.32916778326034546 0.9632789492607117 -0.0007892483845353127 0.0009021013975143433 0.0 0.0 0.0 0.0
3.64 -0.3241702914237976 0.9651861190795898 -0.0008394233882427216 0.001061510294675827 0.0 0.0 0.0 0.0
3.641 -0.32150766253471375 0.9646931886672974 -0.0008931988850235939 0.001090802252292633 0.0 0.0 0.0 0.0
3.642 -0.3195658326148987 0.963885486125946 -0.0006984863430261612 0.0011478383094072342 0.0 0.0 0.0 0.0
3.643 -0.3180917203426361 0.9644787907600403 -0.0008679768070578575 0.0010572662577033043 0.0 0.0 0.0 0.0
3.644 -0.31920766830444336 0.9639965295791626 -0.00073954276740551 0.0012242794036865234 0.0 0.0 0.0 0.0
3.645 -0.31447580456733704 0.9653772711753845 -0.0008470239117741585 0.0009895944967865944 0.0 0.0 0.0 0.0
3.646 -0.31305304169654846 0.9634515643119812 -0.0007369657978415489 0.0011552264913916588 0.0 0.0 0.0 0.0
3.647 -0.314860075712204 0.9634492993354797 -0.0008194688707590103 0.0011224495247006416 0.0 0.0 0.0 0.0
3.648 -0.3147450089454651 0.9571888446807861 -0.0008451109752058983 0.0012149745598435402 0.0 0.0 0.0 0.0
3.649 -0.30980411171913147 0.9637607932090759 -0.0007441304624080658 0.0010663121938705444 0.0 0.0 0.0 0.0
3.65 -0.3136255443096161 0.9616960287094116 -0.000824781134724617 0.0010542487725615501 0.0 0.0 0.0 0.0
3.651 -0.3100808262825012 0.9637470245361328 -0.0007005240768194199 0.0011190269142389297 0.0 0.0 0.0 0.0
3.652 -0.3058222830295563 0.963285505771637 -0.0009223148226737976 0.0010627852752804756 0.0 0.0 0.0 0.0
3.653 -0.3094139099121094 0.9624822735786438 -0.000814683735370636 0.0010636961087584496 0.0 0.0 0.0 0.0
3.654 -0.3080297112464905 0.9610884189605713 -0.0007004300132393837 0.0012040464207530022 0.0 0.0 0.0 0.0
3.655 -0.30426716804504395 0.9635383486747742 -0.0006138309836387634 0.0010652467608451843 0.0 0.0 0.0 0.0
3.656 -0.3087838292121887 0.960566520690918 -0.0008704764768481255 0.001211279071867466 0.0 0.0 0.0 0.0
3.657 -0.2999917268753052 0.9627643823623657 -0.0006984146311879158 0.0011899247765541077 0.0 0.0 0.0 0.0
3.658 -0.3009044826030731 0.9603208303451538 -0.0006831111386418343 0.0012728022411465645 0.0 0.0 0.0 0.0
3.659 -0.29743048548698425 0.9614185690879822 -0.0006752507761120796 0.001261507160961628 0.0 0.0 0.0 0.0
3.66 -0.2977721691131592 0.9587083458900452 -0.0007629925385117531 0.0012010633945465088 0.0 0.0 0.0 0.0
3.661 -0.2958798408508301 0.9609160423278809 -0.0008060187101364136 0.0012741843238472939 0.0 0.0 0.0 0.0
3.662 -0.29794546961784363 0.9605352282524109 -0.0006897160783410072 0.001177564263343811 0.0 0.0 0.0 0.0
3.663 -0.29382482171058655 0.961881160736084 -0.0007613077759742737 0.0012960201129317284 0.0 0.0 0.0 0.0
3.664 -0.29154959321022034 0.9620307087898254 -0.0006991298869252205 0.0012057805433869362 0.0 0.0 0.0 0.0
3.665 -0.2942366600036621 0.9594354629516602 -0.0008090101182460785 0.0013170139864087105 0.0 0.0 0.0 0.0
3.666 -0.29029354453086853 0.9597216248512268 -0.0006693229079246521 0.001350264996290207 0.0 0.0 0.0 0.0
3.667 -0.2848331332206726 0.961587131023407 -0.0007367813959717751 0.0012410013005137444 0.0 0.0 0.0 0.0
3.668 -0.28885355591773987 0.9598734974861145 -0.0006756260991096497 0.001392037607729435 0.0 0.0 0.0 0.0
3.669 -0.2878319025039673 0.957876980304718 -0.0006537456065416336 0.001274608075618744 0.0 0.0 0.0 0.0
3.67 -0.281648188829422 0.9594905376434326 -0.0007002456113696098 0.0012395791709423065 0.0 0.0 0.0 0.0
3.671 -0.2896355390548706 0.9581826329231262 -0.0005947276949882507 0.0012945951893925667 0.0 0.0 0.0 0.0
3.672 -0.27745768427848816 0.9587422013282776 -0.000548037700355053 0.0012768078595399857 0.0 0.0 0.0 0.0
3.673 -0.27630412578582764 0.9630314707756042 -0.0006114272400736809 0.0012007420882582664 0.0 0.0 0.0 0.0
3.674 -0.2811361849308014 0.9584553837776184 -0.0006349058821797371 0.0013472633436322212 0.0 0.0 0.0 0.0
3.675 -0.28096815943717957 0.9582183957099915 -0.0006808675825595856 0.001265721395611763 0.0 0.0 0.0 0.0
3.676 -0.26859545707702637 0.9619330763816833 -0.0007230937480926514 0.0014388607814908028 0.0 0.0 0.0 0.0
3.677 -0.27424612641334534 0.9592500925064087 -0.0006290460005402565 0.001317800022661686 0.0 0.0 0.0 0.0
3.678 -0.2730914056301117 0.9571585059165955 -0.000657377764582634 0.0013573672622442245 0.0 0.0 0.0 0.0
3.679 -0.26978978514671326 0.9581851363182068 -0.0004910891875624657 0.0012692036107182503 0.0 0.0 0.0 0.0
3.68 -0.27185750007629395 0.9577123522758484 -0.0005555804818868637 0.0013630082830786705 0.0 0.0 0.0 0.0
3.681 -0.2714429497718811 0.9566319584846497 -0.0006215544417500496 0.0014275051653385162 0.0 0.0 0.0 0.0
3.682 -0.2657976746559143 0.9571323990821838 -0.0007618404924869537 0.0013780100271105766 0.0 0.0 0.0 0.0
3.683 -0.2706870436668396 0.9559935927391052 -0.0006431872025132179 0.0014015240594744682 0.0 0.0 0.0 0.0
3.684 -0.268225759267807 0.9508441686630249 -0.000538763590157032 0.0012420173734426498 0.0 0.0 0.0 0.0
3.685 -0.25956153869628906 0.9595769643783569 -0.0004903282970190048 0.0014146892353892326 0.0 0.0 0.0 0.0
3.686 -0.26486873626708984 0.9559116363525391 -0.0006109857931733131 0.0014125742018222809 0.0 0.0 0.0 0.0
3.687 -0.2651379406452179 0.9538905024528503 -0.0005300454795360565 0.0013445792719721794 0.0 0.0 0.0 0.0
3.688 -0.26252472400665283 0.9564768075942993 -0.0004446720704436302 0.001551339402794838 0.0 0.0 0.0 0.0
3.689 -0.2610595226287842 0.9562353491783142 -0.0004989616572856903 0.0014961035922169685 0.0 0.0 0.0 0.0
3.69 -0.2572178840637207 0.9546477198600769 -0.0005693221464753151 0.001373819075524807 0.0 0.0 0.0 0.0
3.691 -0.26274651288986206 0.9537412524223328 -0.0004899566993117332 0.0014350926503539085 0.0 0.0 0.0 0.0
3.692 -0.25632286071777344 0.9537267684936523 -0.0004487428814172745 0.001416393555700779 0.0 0.0 0.0 0.0
3.693 -0.24920476973056793 0.9579483866691589 -0.0005526049062609673 0.0014835763722658157 0.0 0.0 0.0 0.0
3.694 -0.25661012530326843 0.9524330496788025 -0.0004756217822432518 0.001508820801973343 0.0 0.0 0.0 0.0
3.695 -0.257760226726532 0.9513822197914124 -0.0005111536011099815 0.0014880215749144554 0.0 0.0 0.0 0.0
3.696 -0.2458380162715912 0.9532280564308167 -0.0005736872553825378 0.0014820294454693794 0.0 0.0 0.0 0.0
3.697 -0.25457116961479187 0.9520507454872131 -0.00038072001188993454 0.0016619674861431122 0.0 0.0 0.0 0.0
3.698 -0.2480001002550125 0.9520847201347351 -0.0005954355001449585 0.0014807023108005524 0.0 0.0 0.0 0.0
3.699 -0.2492278814315796 0.953469455242157 -0.0004812655970454216 0.0015404177829623222 0.0 0.0 0.0 0.0
3.7 -0.24986609816551208 0.9514858722686768 -0.0004630358889698982 0.00157143734395504 0.0 0.0 0.0 0.0
3.701 -0.24980229139328003 0.9504854679107666 -0.00039980653673410416 0.0016043931245803833 0.0 0.0 0.0 0.0
3.702 -0.2406419962644577 0.9523187279701233 -0.0003032982349395752 0.0016342531889677048 0.0 0.0 0.0 0.0
3.703 -0.2488093078136444 0.9505890607833862 -0.00030162371695041656 0.001566316932439804 0.0 0.0 0.0 0.0
3.704 -0.24380573630332947 0.9501108527183533 -0.0003133537247776985 0.0016424385830760002 0.0 0.0 0.0 0.0
3.705 -0.24375677108764648 0.9500424265861511 -0.0002693282440304756 0.0016798973083496094 0.0 0.0 0.0 0.0
3.706 -0.24115890264511108 0.949938952922821 -0.000363178551197052 0.0016094688326120377 0.0 0.0 0.0 0.0
3.707 -0.2411988079547882 0.9497928619384766 -0.00029472820460796356 0.0017481613904237747 0.0 0.0 0.0 0.0
3.708 -0.2337016761302948 0.9547412991523743 -0.00029752589762210846 0.001679975539445877 0.0 0.0 0.0 0.0
3.709 -0.24215029180049896 0.9477730989456177 -0.00021916255354881287 0.0018385518342256546 0.0 0.0 0.0 0.0
3.71 -0.2403494268655777 0.9491663575172424 -0.0002522468566894531 0.0017976239323616028 0.0 0.0 0.0 0.0
3.711 -0.2354763299226761 0.9468950033187866 -0.00019191112369298935 0.0016326280310750008 0.0 0.0 0.0 0.0
3.712 -0.23249144852161407 0.9507595300674438 -0.00017972569912672043 0.0019014421850442886 0.0 0.0 0.0 0.0
3.713 -0.23423516750335693 0.9479871988296509 -0.0001840386539697647 0.0018392009660601616 0.0 0.0 0.0 0.0
3.714 -0.23201385140419006 0.9489679932594299 -0.00032861437648534775 0.001713540405035019 0.0 0.0 0.0 0.0
3.715 -0.23491203784942627 0.9479866027832031 9.636394679546356e-06 0.0016605043783783913 0.0 0.0 0.0 0.0
3.716 -0.22992604970932007 0.9487498998641968 -0.0001725759357213974 0.0019569946452975273 0.0 0.0 0.0 0.0
3.717 -0.2245171219110489 0.9480888247489929 -3.502890467643738e-05 0.0018451567739248276 0.0 0.0 0.0 0.0
3.718 -0.22706560790538788 0.9475862383842468 -1.7809681594371796e-05 0.0016039730980992317 0.0 0.0 0.0 0.0
3.719 -0.22693824768066406 0.9487606883049011 3.625825047492981e-05 0.0018749544396996498 0.0 0.0 0.0 0.0
3.72 -0.2215525060892105 0.9473519325256348 -1.0281801223754883e-05 0.0016233474016189575 0.0 0.0 0.0 0.0
3.721 -0.22634734213352203 0.9470512270927429 1.9931234419345856e-05 0.0018295850604772568 0.0 0.0 0.0 0.0
3.722 -0.228193461894989 0.9484214782714844 1.9059516489505768e-05 0.0017290692776441574 0.0 0.0 0.0 0.0
3.723 -0.22076353430747986 0.9480789303779602 2.353731542825699e-05 0.0018624374642968178 0.0 0.0 0.0 0.0
3.724 -0.21944564580917358 0.9472135305404663 0.0003026379272341728 0.0020606210455298424 0.0 0.0 0.0 0.0
3.725 -0.22436963021755219 0.9470743536949158 8.55419784784317e-06 0.0018177488818764687 0.0 0.0 0.0 0.0
3.726 -0.2210935354232788 0.947048008441925 0.00015892833471298218 0.0018619829788804054 0.0 0.0 0.0 0.0
3.727 -0.21507404744625092 0.9472237229347229 7.415749132633209e-05 0.0017534978687763214 0.0 0.0 0.0 0.0
3.728 -0.21582601964473724 0.9480339288711548 0.00017540622502565384 0.001713460311293602 0.0 0.0 0.0 0.0
3.729 -0.21804261207580566 0.9461631178855896 0.00035331305116415024 0.001749865710735321 0.0 0.0 0.0 0.0
3.73 -0.21044674515724182 0.9475027918815613 0.000348447822034359 0.0017901025712490082 0.0 0.0 0.0 0.0
3.731 -0.2138747125864029 0.9468981623649597 0.00031604617834091187 0.0017147818580269814 0.0 0.0 0.0 0.0
3.732 -0.22153757512569427 0.9445316195487976 3.3507123589515686e-05 0.0017494410276412964 0.0 0.0 0.0 0.0
3.733 -0.21550151705741882 0.9440259337425232 0.00040274951606988907 0.0020164279267191887 0.0 0.0 0.0 0.0
3.734 -0.20772932469844818 0.9480374455451965 0.00012068822979927063 0.0016899565234780312 0.0 0.0 0.0 0.0
3.735 -0.20113128423690796 0.9508377909660339 0.00032956525683403015 0.0019632717594504356 0.0 0.0 0.0 0.0
3.736 -0.21009911596775055 0.94306880235672 0.00043778494000434875 0.0018327264115214348 0.0 0.0 0.0 0.0
3.737 -0.2060423046350479 0.9439495205879211 0.00048466119915246964 0.0021272562444210052 0.0 0.0 0.0 0.0
3.738 -0.20555463433265686 0.946043074131012 0.000417511910200119 0.0017136577516794205 0.0 0.0 0.0 0.0
3.739 -0.1988861858844757 0.9457169771194458 0.000385417602956295 0.0019935695454478264 0.0 0.0 0.0 0.0
3.74 -0.20241954922676086 0.9441643357276917 0.00026728585362434387 0.001947769895195961 0.0 0.0 0.0 0.0
3.741 -0.1963595747947693 0.946572482585907 0.0006490843370556831 0.0016882261261343956 0.0 0.0 0.0 0.0
3.742 -0.20258808135986328 0.9432327747344971 0.0005511278286576271 0.0015410790219902992 0.0 0.0 0.0 0.0
3.743 -0.1997537463903427 0.9437131285667419 0.000821167603135109 0.0015619033947587013 0.0 0.0 0.0 0.0
3.744 -0.19391906261444092 0.9456270933151245 0.0006035976111888885 0.0016969935968518257 0.0 0.0 0.0 0.0
3.745 -0.2031104415655136 0.9425104260444641 0.0007257172837853432 0.0017290571704506874 0.0 0.0 0.0 0.0
3.746 -0.19750985503196716 0.9414026737213135 0.0007882295176386833 0.0015456881374120712 0.0 0.0 0.0 0.0
3.747 -0.19297288358211517 0.9429401755332947 0.0009710304439067841 0.0018077045679092407 0.0 0.0 0.0 0.0
3.748 -0.19386982917785645 0.9428878426551819 0.0005172193050384521 0.0015803836286067963 0.0 0.0 0.0 0.0
3.749 -0.19226664304733276 0.9447083473205566 0.00040811672806739807 0.0016702059656381607 0.0 0.0 0.0 0.0
3.75 -0.18790629506111145 0.9426343441009521 0.0010275142267346382 0.0019334834069013596 0.0 0.0 0.0 0.0
3.751 -0.18683913350105286 0.9444029927253723 0.0007800189778208733 0.0018184809014201164 0.0 0.0 0.0 0.0
3.752 -0.1846810281276703 0.9427667856216431 0.0006889868527650833 0.0018409397453069687 0.0 0.0 0.0 0.0
3.753 -0.18411605060100555 0.9439894556999207 0.0007081190124154091 0.0014702081680297852 0.0 0.0 0.0 0.0
3.754 -0.1878972202539444 0.9414253830909729 0.001198374666273594 0.0019861822947859764 0.0 0.0 0.0 0.0
3.755 -0.1823926717042923 0.9408754110336304 0.0009110830724239349 0.001857466995716095 0.0 0.0 0.0 0.0
3.756 -0.18152183294296265 0.937001645565033 0.0012923767790198326 0.0012311777099967003 0.0 0.0 0.0 0.0
3.757 -0.18000856041908264 0.9407356977462769 0.0014393888413906097 0.001721993088722229 0.0 0.0 0.0 0.0
3.758 -0.181393563747406 0.938449501991272 0.0013079708442091942 0.0015348158776760101 0.0 0.0 0.0 0.0
3.759 -0.18209534883499146 0.940780758857727 0.0010692961513996124 0.0011484641581773758 0.0 0.0 0.0 0.0
3.76 -0.17448849976062775 0.9419628977775574 0.0010504713281989098 0.0011428901925683022 0.0 0.0 0.0 0.0
3.761 -0.1814417988061905 0.939584493637085 0.001106351613998413 0.0010530715808272362 0.0 0.0 0.0 0.0
3.762 -0.17488963901996613 0.939120888710022 0.001478724181652069 0.0010760491713881493 0.0 0.0 0.0 0.0
3.763 -0.17562554776668549 0.9423171281814575 0.0011967429891228676 0.0013634944334626198 0.0 0.0 0.0 0.0
3.764 -0.17541269958019257 0.9379104375839233 0.0014777211472392082 0.0012672999873757362 0.0 0.0 0.0 0.0
3.765 -0.16783684492111206 0.9368493556976318 0.0014329394325613976 0.0017570853233337402 0.0 0.0 0.0 0.0
3.766 -0.1683793067932129 0.9398356676101685 0.0009837131947278976 0.0012035295367240906 0.0 0.0 0.0 0.0
3.767 -0.16282834112644196 0.9380714297294617 0.0015996769070625305 0.0013439413160085678 0.0 0.0 0.0 0.0
3.768 -0.1631922870874405 0.9392849206924438 0.0014381557703018188 0.0008878763765096664 0.0 0.0 0.0 0.0
3.769 -0.16739016771316528 0.9367430210113525 0.001497635617852211 0.001490602269768715 0.0 0.0 0.0 0.0
3.77 -0.1674451380968094 0.9378156065940857 0.0017579784616827965 0.0015080105513334274 0.0 0.0 0.0 0.0
3.771 -0.1593960076570511 0.934727668762207 0.0015101376920938492 0.0015876572579145432 0.0 0.0 0.0 0.0
3.772 -0.16532576084136963 0.9340551495552063 0.001479780301451683 0.0013798018917441368 0.0 0.0 0.0 0.0
3.773 -0.16093648970127106 0.9339086413383484 0.0018037362024188042 0.0014019329100847244 0.0 0.0 0.0 0.0
3.774 -0.1573752909898758 0.9367762207984924 0.0013439124450087547 0.0014677848666906357 0.0 0.0 0.0 0.0
3.775 -0.15875498950481415 0.9346537590026855 0.001581626944243908 0.001380404457449913 0.0 0.0 0.0 0.0
3.776 -0.1594908982515335 0.9347001314163208 0.0015675229951739311 0.0011542215943336487 0.0 0.0 0.0 0.0
3.777 -0.1482451856136322 0.9326321482658386 0.0016740541905164719 0.0015025977045297623 0.0 0.0 0.0 0.0
3.778 -0.1613484025001526 0.9344602823257446 0.0013790354132652283 0.0009782258421182632 0.0 0.0 0.0 0.0
3.779 -0.15191873908042908 0.934217095375061 0.0016438290476799011 0.0008449628949165344 0.0 0.0 0.0 0.0
3.78 -0.15257573127746582 0.9352666735649109 0.001955881714820862 0.0013326844200491905 0.0 0.0 0.0 0.0
3.781 -0.15919168293476105 0.9345715045928955 0.001667051576077938 0.0006282338872551918 0.0 0.0 0.0 0.0
3.782 -0.14974462985992432 0.9344097375869751 0.0013760598376393318 0.000947093591094017 0.0 0.0 0.0 0.0
3.783 -0.1490064412355423 0.9337291121482849 0.0018005259335041046 0.0009645754471421242 0.0 0.0 0.0 0.0
3.784 -0.1457327902317047 0.9330337643623352 0.0018366249278187752 0.0006385417655110359 0.0 0.0 0.0 0.0
3.785 -0.14813558757305145 0.9308551549911499 0.0019785650074481964 0.0011306097730994225 0.0 0.0 0.0 0.0
3.786 -0.146353617310524 0.9332820177078247 0.0015185019001364708 0.0006124814972281456 0.0 0.0 0.0 0.0
3.787 -0.14625026285648346 0.9300867319107056 0.002110927365720272 0.000988035462796688 0.0 0.0 0.0 0.0
3.788 -0.13860787451267242 0.9307900667190552 0.0014763297513127327 0.0009651593863964081 0.0 0.0 0.0 0.0
3.789 -0.14337149262428284 0.9312044978141785 0.001661389134824276 0.0009719561785459518 0.0 0.0 0.0 0.0
3.79 -0.13708432018756866 0.9318853616714478 0.0016914904117584229 0.0011157160624861717 0.0 0.0 0.0 0.0
3.791 -0.1420706808567047 0.9300275444984436 0.0019688429310917854 0.0005760667845606804 0.0 0.0 0.0 0.0
3.792 -0.1410272717475891 0.9270343780517578 0.001432781107723713 0.0004105865955352783 0.0 0.0 0.0 0.0
3.793 -0.14180921018123627 0.9314828515052795 0.0019483258947730064 0.00019750650972127914 0.0 0.0 0.0 0.0
3.794 -0.13602377474308014 0.9280077219009399 0.0017261756584048271 0.0005238587036728859 0.0 0.0 0.0 0.0
3.795 -0.13776446878910065 0.9265886545181274 0.0023136166855692863 0.000303720124065876 0.0 0.0 0.0 0.0
3.796 -0.1325426548719406 0.9278527498245239 0.001369117759168148 0.0008287718519568443 0.0 0.0 0.0 0.0
3.797 -0.1288449764251709 0.9302042722702026 0.0017072837799787521 0.0005234898999333382 0.0 0.0 0.0 0.0
3.798 -0.1311868280172348 0.9287659525871277 0.0021955622360110283 0.00011226534843444824 0.0 0.0 0.0 0.0
3.799 -0.1326383799314499 0.9262052774429321 0.0020336247980594635 0.0009753219783306122 0.0 0.0 0.0 0.0
3.8 -0.12722307443618774 0.9257143139839172 0.0017173541709780693 0.000784875825047493 0.0 0.0 0.0 0.0
3.801 -0.12551480531692505 0.925686776638031 0.0015585515648126602 0.0004150858148932457 0.0 0.0 0.0 0.0
3.802 -0.13055811822414398 0.9225704669952393 0.0023800786584615707 0.0007622810080647469 0.0 0.0 0.0 0.0
3.803 -0.12837056815624237 0.9266250133514404 0.0020865295082330704 9.850133210420609e-05 0.0 0.0 0.0 0.0
3.804 -0.12512943148612976 0.9189770817756653 0.0020957179367542267 0.0006982134655117989 0.0 0.0 0.0 0.0
3.805 -0.1261920928955078 0.9269543290138245 0.001456678844988346 4.1991472244262695e-05 0.0 0.0 0.0 0.0
3.806 -0.12001413851976395 0.9262669682502747 0.002345442771911621 -0.0001732977107167244 0.0 0.0 0.0 0.0
3.807 -0.12061752378940582 0.9256030321121216 0.0025535793974995613 -8.495524525642395e-05 0.0 0.0 0.0 0.0
3.808 -0.123237743973732 0.9281178116798401 0.002117760479450226 -0.0003111511468887329 0.0 0.0 0.0 0.0
3.809 -0.12006248533725739 0.9232150912284851 0.0016575390473008156 1.8270686268806458e-05 0.0 0.0 0.0 0.0
3.81 -0.11153343319892883 0.9264463782310486 0.001460004597902298 -7.145106792449951e-06 0.0 0.0 0.0 0.0
3.811 -0.11429450660943985 0.9250724911689758 0.0017782524228096008 5.490146577358246e-06 0.0 0.0 0.0 0.0
3.812 -0.11377628147602081 0.9255674481391907 0.0017438912764191628 -0.0004685567691922188 0.0 0.0 0.0 0.0
3.813 -0.1174408569931984 0.9208433032035828 0.0027874568477272987 2.9496848583221436e-05 0.0 0.0 0.0 0.0
3.814 -0.11309131979942322 0.9199511408805847 0.002568267285823822 0.00029847584664821625 0.0 0.0 0.0 0.0
3.815 -0.11024130135774612 0.9256877899169922 0.002059873193502426 -0.0003133472055196762 0.0 0.0 0.0 0.0
3.816 -0.11218196898698807 0.9238111972808838 0.002266540192067623 -0.00045894552022218704 0.0 0.0 0.0 0.0
3.817 -0.11146395653486252 0.9210628271102905 0.002349328249692917 -0.0005617132410407066 0.0 0.0 0.0 0.0
3.818 -0.1078958660364151 0.9231363534927368 0.0015308940783143044 1.3284385204315186e-05 0.0 0.0 0.0 0.0
3.819 -0.1077272817492485 0.922853410243988 0.0022701751440763474 -0.0004994729533791542 0.0 0.0 0.0 0.0
3.82 -0.10514398664236069 0.9215573668479919 0.0016508884727954865 0.00034026242792606354 0.0 0.0 0.0 0.0
3.821 -0.10605519264936447 0.9214855432510376 0.0017046565189957619 -0.0007914332672953606 0.0 0.0 0.0 0.0
3.822 -0.1034521758556366 0.9208416938781738 0.0015776557847857475 -0.0005580252036452293 0.0 0.0 0.0 0.0
3.823 -0.10159363597631454 0.9203435778617859 0.0020403768867254257 -0.0009363312274217606 0.0 0.0 0.0 0.0
3.824 -0.09908076375722885 0.9193508625030518 0.001375582069158554 -0.00029165390878915787 0.0 0.0 0.0 0.0
3.825 -0.10022802650928497 0.9187807440757751 0.001685047522187233 -0.0005546817556023598 0.0 0.0 0.0 0.0
3.826 -0.09206315129995346 0.9182854890823364 0.0024431077763438225 -8.95308330655098e-05 0.0 0.0 0.0 0.0
3.827 -0.09774263203144073 0.9170271754264832 0.0020496584475040436 -0.00029275473207235336 0.0 0.0 0.0 0.0
3.828 -0.10000044107437134 0.919303834438324 0.002091878093779087 -0.00010271649807691574 0.0 0.0 0.0 0.0
3.829 -0.08692402392625809 0.919222354888916 0.0011611012741923332 -0.0007373597472906113 0.0 0.0 0.0 0.0
3.83 -0.10152233392000198 0.9170929789543152 0.0023612389340996742 -0.0009425729513168335 0.0 0.0 0.0 0.0
3.831 -0.09134399890899658 0.9186530113220215 0.0016029691323637962 -0.0010071136057376862 0.0 0.0 0.0 0.0
3.832 -0.08865763247013092 0.9163370132446289 0.002670266665518284 -0.0009306930005550385 0.0 0.0 0.0 0.0
3.833 -0.09741023927927017 0.916776180267334 0.0023167403414845467 -0.000959835946559906 0.0 0.0 0.0 0.0
3.834 -0.09221763908863068 0.9125327467918396 0.002176946960389614 -0.00021479930728673935 0.0 0.0 0.0 0.0
3.835 -0.08708486706018448 0.9182720184326172 0.0014292923733592033 -0.0007810499519109726 0.0 0.0 0.0 0.0
3.836 -0.0856931060552597 0.916947603225708 0.0016303258016705513 -0.0010420270264148712 0.0 0.0 0.0 0.0
3.837 -0.0915011614561081 0.9160492420196533 0.0013400735333561897 -0.000998026691377163 0.0 0.0 0.0 0.0
3.838 -0.08576253056526184 0.9127444624900818 0.0023858314380049706 -0.0010392926633358002 0.0 0.0 0.0 0.0
3.839 -0.09002521634101868 0.914534866809845 0.00232780072838068 -0.0013741077855229378 0.0 0.0 0.0 0.0
3.84 -0.08549924939870834 0.9116089344024658 0.0017723925411701202 -0.0005745477974414825 0.0 0.0 0.0 0.0
3.841 -0.08987125754356384 0.9155895709991455 0.002148756757378578 -0.0015437863767147064 0.0 0.0 0.0 0.0
3.842 -0.08349871635437012 0.9143999218940735 0.0014116959646344185 -0.00149442907422781 0.0 0.0 0.0 0.0
3.843 -0.08142904192209244 0.9127650260925293 0.0026278793811798096 -0.0017943549901247025 0.0 0.0 0.0 0.0
3.844 -0.07722851634025574 0.9144988656044006 0.0014652488753199577 -0.0009518787264823914 0.0 0.0 0.0 0.0
3.845 -0.07945293188095093 0.9090335369110107 0.001286032609641552 -0.000761822797358036 0.0 0.0 0.0 0.0
3.846 -0.07624368369579315 0.9139131903648376 0.0012595821171998978 -0.0015066992491483688 0.0 0.0 0.0 0.0
3.847 -0.07433421909809113 0.9129276275634766 0.0015949802473187447 -0.0008285166695713997 0.0 0.0 0.0 0.0
3.848 -0.07477740198373795 0.9073250889778137 0.0018448559567332268 -0.0009258436039090157 0.0 0.0 0.0 0.0
3.849 -0.07002055644989014 0.9108142852783203 0.001332651823759079 -0.0009604627266526222 0.0 0.0 0.0 0.0
3.85 -0.0752587541937828 0.9110443592071533 0.0017976770177483559 -0.001316065900027752 0.0 0.0 0.0 0.0
3.851 -0.07322566956281662 0.9097084999084473 0.0010966947302222252 -0.0007331781089305878 0.0 0.0 0.0 0.0
3.852 -0.06795299053192139 0.9149393439292908 0.0011435849592089653 -0.001213178038597107 0.0 0.0 0.0 0.0
3.853 -0.07471738755702972 0.9100208878517151 0.0012598633766174316 -0.0015222923830151558 0.0 0.0 0.0 0.0
3.854 -0.07220253348350525 0.9096097946166992 0.002105523832142353 -0.0013861358165740967 0.0 0.0 0.0 0.0
3.855 -0.06476642936468124 0.9113821387290955 0.0022023189812898636 -0.002102823927998543 0.0 0.0 0.0 0.0
3.856 -0.06830454617738724 0.9109150171279907 0.0014403900131583214 -0.002210225909948349 0.0 0.0 0.0 0.0
3.857 -0.07211626321077347 0.9109005331993103 0.0015621250495314598 -0.0020686835050582886 0.0 0.0 0.0 0.0
3.858 -0.059212036430835724 0.9067720770835876 0.001592252403497696 -0.00139654241502285 0.0 0.0 0.0 0.0
3.859 -0.06379025429487228 0.9065823554992676 0.0018761316314339638 -0.0012313015758991241 0.0 0.0 0.0 0.0
3.86 -0.06581928580999374 0.9077816605567932 0.0019448036327958107 -0.0017939405515789986 0.0 0.0 0.0 0.0
3.861 -0.05693903565406799 0.9079044461250305 0.0009554456919431686 -0.0012614158913493156 0.0 0.0 0.0 0.0
3.862 -0.05823371559381485 0.9075267314910889 0.002241445705294609 -0.0014690868556499481 0.0 0.0 0.0 0.0
3.863 -0.06620629131793976 0.9084842205047607 0.002126547507941723 -0.0020056115463376045 0.0 0.0 0.0 0.0
3.864 -0.057844020426273346 0.9091253280639648 0.0019394708797335625 -0.0009725326672196388 0.0 0.0 0.0 0.0
3.865 -0.055026836693286896 0.9084342122077942 0.001062808558344841 -0.0018032295629382133 0.0 0.0 0.0 0.0
3.866 -0.056056782603263855 0.9058787822723389 0.0008928300812840462 -0.0016508698463439941 0.0 0.0 0.0 0.0
3.867 -0.05746876820921898 0.905806303024292 0.0018095225095748901 -0.0018132366240024567 0.0 0.0 0.0 0.0
3.868 -0.055209361016750336 0.9082010984420776 0.000933181494474411 -0.0021376460790634155 0.0 0.0 0.0 0.0
3.869 -0.05262855440378189 0.9048025608062744 0.0005592731758952141 -0.0014646947383880615 0.0 0.0 0.0 0.0
3.87 -0.04796215146780014 0.905660092830658 0.0004917075857520103 -0.002168722450733185 0.0 0.0 0.0 0.0
3.871 -0.05182414501905441 0.9059153199195862 0.0012475373223423958 -0.001967446878552437 0.0 0.0 0.0 0.0
3.872 -0.05240287259221077 0.9062259793281555 0.001246849074959755 -0.0023699458688497543 0.0 0.0 0.0 0.0
3.873 -0.04643101245164871 0.9051594734191895 0.0009079556912183762 -0.0020387079566717148 0.0 0.0 0.0 0.0
3.874 -0.04790368676185608 0.9020231366157532 0.0018241042271256447 -0.002024744637310505 0.0 0.0 0.0 0.0
3.875 -0.0471896231174469 0.904291570186615 0.0005863821133971214 -0.0017402321100234985 0.0 0.0 0.0 0.0
3.876 -0.044015709310770035 0.8966412544250488 0.0011816443875432014 -0.0013147704303264618 0.0 0.0 0.0 0.0
3.877 -0.04250672087073326 0.9037575125694275 0.0012689968571066856 -0.0017600767314434052 0.0 0.0 0.0 0.0
3.878 -0.04298721253871918 0.8991633057594299 0.0007121572270989418 -0.0012658452615141869 0.0 0.0 0.0 0.0
3.879 -0.04046525061130524 0.9029526114463806 0.0009735720232129097 -0.0023346226662397385 0.0 0.0 0.0 0.0
3.88 -0.050971951335668564 0.8979468941688538 0.001400599256157875 -0.0012406250461935997 0.0 0.0 0.0 0.0
3.881 -0.0395602285861969 0.9028958082199097 0.0008716564625501633 -0.0020715659484267235 0.0 0.0 0.0 0.0
3.882 -0.0397893562912941 0.8965060114860535 0.000687415711581707 -0.0013582119718194008 0.0 0.0 0.0 0.0
3.883 -0.04438633471727371 0.90110182762146 0.0008726948872208595 -0.0022575128823518753 0.0 0.0 0.0 0.0
3.884 -0.030078338459134102 0.9029427170753479 0.0004400070756673813 -0.0018971823155879974 0.0 0.0 0.0 0.0
3.885 -0.029184982180595398 0.9022306203842163 0.0005768397822976112 -0.0015885503962635994 0.0 0.0 0.0 0.0
3.886 -0.03723060339689255 0.8996172547340393 0.00040913838893175125 -0.0017687277868390083 0.0 0.0 0.0 0.0
3.887 -0.03034137561917305 0.8994796872138977 8.824188262224197e-05 -0.0017329603433609009 0.0 0.0 0.0 0.0
3.888 -0.03533761948347092 0.897831916809082 0.0008954769000411034 -0.0022427160292863846 0.0 0.0 0.0 0.0
3.889 -0.02837832272052765 0.8980531096458435 0.001170148141682148 -0.002013185992836952 0.0 0.0 0.0 0.0
3.89 -0.029978958889842033 0.8962435722351074 0.0005492931231856346 -0.0012016184628009796 0.0 0.0 0.0 0.0
3.891 -0.028938768431544304 0.8983463048934937 0.00015637744218111038 -0.0016385158523917198 0.0 0.0 0.0 0.0
3.892 -0.031267523765563965 0.8987097144126892 0.0013205073773860931 -0.002007138915359974 0.0 0.0 0.0 0.0
3.893 -0.018407519906759262 0.89927738904953 0.0002677794545888901 -0.0019104769453406334 0.0 0.0 0.0 0.0
3.894 -0.02896886318922043 0.8940537571907043 0.00080890953540802 -0.0007878215983510017 0.0 0.0 0.0 0.0
3.895 -0.02824007347226143 0.8967392444610596 0.0004512602463364601 -0.0019747717306017876 0.0 0.0 0.0 0.0
3.896 -0.02520202100276947 0.8954625129699707 0.00031217001378536224 -0.001124352216720581 0.0 0.0 0.0 0.0
3.897 -0.027342401444911957 0.8980165719985962 0.00036644842475652695 -0.002140379510819912 0.0 0.0 0.0 0.0
3.898 -0.023399263620376587 0.8918699622154236 0.0008521424606442451 -0.0015002433210611343 0.0 0.0 0.0 0.0
3.899 -0.022601526230573654 0.8925066590309143 0.001291343942284584 -0.0013686362653970718 0.0 0.0 0.0 0.0
3.9 -0.020801955834031105 0.8970946073532104 9.95006412267685e-05 -0.001114359125494957 0.0 0.0 0.0 0.0
3.901 -0.017623508349061012 0.8973358869552612 0.0007481994107365608 -0.002009803429245949 0.0 0.0 0.0 0.0
3.902 -0.01794791780412197 0.8952933549880981 0.000575672835111618 -0.0021080123260617256 0.0 0.0 0.0 0.0
3.903 -0.022035418078303337 0.8941887617111206 0.0014839284121990204 -0.0014625340700149536 0.0 0.0 0.0 0.0
3.904 -0.0208022091537714 0.8964666128158569 0.0006396379321813583 -0.0020288238301873207 0.0 0.0 0.0 0.0
3.905 -0.015179204754531384 0.8908908367156982 0.0010668644681572914 -0.0011751540005207062 0.0 0.0 0.0 0.0
3.906 -0.014484836719930172 0.8923038840293884 9.917747229337692e-05 -0.0017571942880749702 0.0 0.0 0.0 0.0
3.907 -0.012933703139424324 0.8939430117607117 0.00033944565802812576 -0.0012842882424592972 0.0 0.0 0.0 0.0
3.908 -0.014818369410932064 0.8898876309394836 0.0010733939707279205 -0.001181826926767826 0.0 0.0 0.0 0.0
3.909 -0.012973633594810963 0.8939348459243774 0.001112104393541813 -0.0019838018342852592 0.0 0.0 0.0 0.0
3.91 -0.017186477780342102 0.8924304842948914 0.0008707074448466301 -0.0017612669616937637 0.0 0.0 0.0 0.0
3.911 -0.011415587738156319 0.8917006254196167 0.0011577671393752098 -0.0018060365691781044 0.0 0.0 0.0 0.0
3.912 -0.01224515214562416 0.8965267539024353 -0.00019152555614709854 -0.0022903624922037125 0.0 0.0 0.0 0.0
3.913 -0.010316767729818821 0.8933314085006714 0.00016187503933906555 -0.0019063828513026237 0.0 0.0 0.0 0.0
3.914 -0.007407377474009991 0.8945379853248596 0.00014122389256954193 -0.0016174428164958954 0.0 0.0 0.0 0.0
3.915 -0.010744305327534676 0.8932737708091736 0.0008038626983761787 -0.0018055764958262444 0.0 0.0 0.0 0.0
3.916 -0.00628340058028698 0.8888605833053589 5.384907126426697e-06 -0.0012727957218885422 0.0 0.0 0.0 0.0
3.917 0.0018686819821596146 0.892053484916687 0.0003292970359325409 -0.0006529781967401505 0.0 0.0 0.0 0.0
3.918 -0.0050632888451218605 0.8923473358154297 -2.9356218874454498e-05 -0.0015333490446209908 0.0 0.0 0.0 0.0
3.919 -0.006726556457579136 0.8915060758590698 0.0006423993036150932 -0.0017788931727409363 0.0 0.0 0.0 0.0
3.92 -0.0002966867759823799 0.8915795683860779 -5.5538490414619446e-05 -0.0016029011458158493 0.0 0.0 0.0 0.0
3.921 -0.005952894687652588 0.8937220573425293 0.0007652556523680687 -0.001904776319861412 0.0 0.0 0.0 0.0
3.922 0.0018960759043693542 0.8924446702003479 -7.594190537929535e-05 -0.0011251196265220642 0.0 0.0 0.0 0.0
3.923 0.003962338902056217 0.8915833234786987 0.00022508949041366577 -0.0019812779501080513 0.0 0.0 0.0 0.0
3.924 -0.0028750887140631676 0.8920416831970215 0.0007800674065947533 -0.0019996678456664085 0.0 0.0 0.0 0.0
3.925 0.0021258993074297905 0.8885179162025452 0.00024329405277967453 -0.0013380786404013634 0.0 0.0 0.0 0.0
3.926 0.010680981911718845 0.8893166184425354 1.4555640518665314e-05 -0.0009581148624420166 0.0 0.0 0.0 0.0
3.927 0.00661898497492075 0.8922999501228333 0.0002088462933897972 -0.0019332589581608772 0.0 0.0 0.0 0.0
3.928 0.000581216998398304 0.8879041075706482 0.0008231028914451599 -0.001266254112124443 0.0 0.0 0.0 0.0
3.929 0.008568004705011845 0.8899264931678772 0.0009379815310239792 -0.0015831803902983665 0.0 0.0 0.0 0.0
3.93 0.005825561471283436 0.8878343105316162 0.0005465392023324966 -0.0012488113716244698 0.0 0.0 0.0 0.0
3.931 0.00812758132815361 0.8914172053337097 0.0005593579262495041 -0.0019369106739759445 0.0 0.0 0.0 0.0
3.932 0.008361179381608963 0.8913089632987976 0.000582442618906498 -0.002196677029132843 0.0 0.0 0.0 0.0
3.933 0.014910858124494553 0.8888483047485352 0.000622929073870182 -0.0016851620748639107 0.0 0.0 0.0 0.0
3.934 0.017551014199852943 0.8912272453308105 8.06618481874466e-06 -0.001688995398581028 0.0 0.0 0.0 0.0
3.935 0.013438544236123562 0.8901528716087341 -0.00010023918002843857 -0.0015787109732627869 0.0 0.0 0.0 0.0
3.936 0.014362304471433163 0.8934100270271301 0.0006558634340763092 -0.0022378461435437202 0.0 0.0 0.0 0.0
3.937 0.01821938343346119 0.8873493075370789 8.431170135736465e-05 -0.001181015744805336 0.0 0.0 0.0 0.0
3.938 0.01758403331041336 0.8860533833503723 0.00030851736664772034 -0.0013628136366605759 0.0 0.0 0.0 0.0
3.939 0.0217299722135067 0.8881708979606628 0.0008033905178308487 -0.0017180023714900017 0.0 0.0 0.0 0.0
3.94 0.013097614981234074 0.889238715171814 0.0003636358305811882 -0.002177266404032707 0.0 0.0 0.0 0.0
3.941 0.027437817305326462 0.888114869594574 0.0005730213597416878 -0.0012656720355153084 0.0 0.0 0.0 0.0
3.942 0.022483935579657555 0.8903703689575195 -0.0003274381160736084 -0.0016544768586754799 0.0 0.0 0.0 0.0
3.943 0.02152950130403042 0.8896311521530151 -9.368918836116791e-05 -0.0014491006731987 0.0 0.0 0.0 0.0
3.944 0.031533170491456985 0.8888644576072693 -3.964826464653015e-05 -0.0011348947882652283 0.0 0.0 0.0 0.0
3.945 0.02327781543135643 0.8909372687339783 0.0006064623594284058 -0.0020911414176225662 0.0 0.0 0.0 0.0
3.946 0.0208594910800457 0.8867774605751038 0.0006776917725801468 -0.001615673303604126 0.0 0.0 0.0 0.0
3.947 0.03304407373070717 0.8857096433639526 0.0004348438233137131 -0.0012821722775697708 0.0 0.0 0.0 0.0
3.948 0.02354614995419979 0.8835465312004089 0.00013753119856119156 -0.0012598484754562378 0.0 0.0 0.0 0.0
3.949 0.03207917883992195 0.8886576890945435 -0.0004723919555544853 -0.0020641814917325974 0.0 0.0 0.0 0.0
3.95 0.029924463480710983 0.889365553855896 -0.00010582339018583298 -0.0018751351162791252 0.0 0.0 0.0 0.0
3.951 0.025673573836684227 0.8894309401512146 0.0008158385753631592 -0.0018772287294268608 0.0 0.0 0.0 0.0
3.952 0.037317316979169846 0.8859584331512451 -7.598288357257843e-05 -0.0014245016500353813 0.0 0.0 0.0 0.0
3.953 0.03732915595173836 0.8887345194816589 3.5635195672512054e-05 -0.0019044270738959312 0.0 0.0 0.0 0.0
3.954 0.02946585789322853 0.8885053992271423 0.0006018960848450661 -0.0015520015731453896 0.0 0.0 0.0 0.0
3.955 0.03171229735016823 0.8871813416481018 0.00044563133269548416 -0.0017337491735816002 0.0 0.0 0.0 0.0
3.956 0.04005327820777893 0.8862578272819519 0.0005688769742846489 -0.001812589354813099 0.0 0.0 0.0 0.0
3.957 0.03706030547618866 0.8870756030082703 -3.764405846595764e-05 -0.0012243865057826042 0.0 0.0 0.0 0.0
3.958 0.04369572550058365 0.8843621015548706 1.25812366604805e-05 -0.0010873833671212196 0.0 0.0 0.0 0.0
3.959 0.042919375002384186 0.8881759643554688 0.00020600389689207077 -0.002054564654827118 0.0 0.0 0.0 0.0
3.96 0.04386167973279953 0.8838649988174438 0.0009478563442826271 -0.0016856798902153969 0.0 0.0 0.0 0.0
3.961 0.04508402943611145 0.8860363960266113 0.0004497068002820015 -0.0019612880423665047 0.0 0.0 0.0 0.0
3.962 0.04845286160707474 0.8872292041778564 -0.00043764710426330566 -0.001272745430469513 0.0 0.0 0.0 0.0
3.963 0.04652067646384239 0.8887689709663391 1.9931234419345856e-05 -0.001814090646803379 0.0 0.0 0.0 0.0
3.964 0.047325823456048965 0.8842650055885315 0.0002423059195280075 -0.0010964656248688698 0.0 0.0 0.0 0.0
3.965 0.05142728239297867 0.8832907676696777 0.000515407882630825 -0.0016148090362548828 0.0 0.0 0.0 0.0
3.966 0.04850764945149422 0.8832157850265503 0.00011271890252828598 -0.0010923920199275017 0.0 0.0 0.0 0.0
3.967 0.05159292742609978 0.8864173293113708 0.00016078166663646698 -0.0019414238631725311 0.0 0.0 0.0 0.0
3.968 0.05484849959611893 0.8836698532104492 0.00031462032347917557 -0.0008500125259160995 0.0 0.0 0.0 0.0
3.969 0.04996250197291374 0.8835513591766357 0.0003906469792127609 -0.0012503964826464653 0.0 0.0 0.0 0.0
3.97 0.05507481098175049 0.8873831629753113 -0.0001831287518143654 -0.0016668876633048058 0.0 0.0 0.0 0.0
3.971 0.05516029894351959 0.8852977156639099 -0.00035204458981752396 -0.0013915188610553741 0.0 0.0 0.0 0.0
3.972 0.054833702743053436 0.8873634338378906 -6.901100277900696e-07 -0.001838967204093933 0.0 0.0 0.0 0.0
3.973 0.05577901378273964 0.8828166723251343 5.073659121990204e-05 -0.0010341955348849297 0.0 0.0 0.0 0.0
3.974 0.060708511620759964 0.8838009238243103 -0.00044422317296266556 -0.0010505691170692444 0.0 0.0 0.0 0.0
3.975 0.059859856963157654 0.8834348320960999 -0.00042852386832237244 -0.001326245255768299 0.0 0.0 0.0 0.0
3.976 0.06071765348315239 0.8846254348754883 0.0003024814650416374 -0.0015746159479022026 0.0 0.0 0.0 0.0
3.977 0.06507818400859833 0.8837986588478088 0.00013439171016216278 -0.0017936285585165024 0.0 0.0 0.0 0.0
3.978 0.062016233801841736 0.8820551037788391 0.0003843773156404495 -0.0009039118885993958 0.0 0.0 0.0 0.0
3.979 0.06601975113153458 0.8847272992134094 -0.0004081353545188904 -0.0017091920599341393 0.0 0.0 0.0 0.0
3.98 0.06676334142684937 0.8844536542892456 -7.15348869562149e-05 -0.0018789125606417656 0.0 0.0 0.0 0.0
3.981 0.06732546538114548 0.8817631006240845 0.00030417460948228836 -0.0011746864765882492 0.0 0.0 0.0 0.0
3.982 0.06811456382274628 0.881461501121521 -0.0002525569871068001 -0.0008246945217251778 0.0 0.0 0.0 0.0
3.983 0.0696101039648056 0.8810696005821228 -0.00022699497640132904 -0.0009269183501601219 0.0 0.0 0.0 0.0
3.984 0.0725131556391716 0.8830575346946716 -0.00016943924129009247 -0.0012347232550382614 0.0 0.0 0.0 0.0
3.985 0.07012772560119629 0.8801231980323792 0.0005390914157032967 -0.0009287688881158829 0.0 0.0 0.0 0.0
3.986 0.07309538871049881 0.880340039730072 6.912555545568466e-05 -0.0012562349438667297 0.0 0.0 0.0 0.0
3.987 0.07494467496871948 0.8809851408004761 -0.00030665285885334015 -0.0009630843997001648 0.0 0.0 0.0 0.0
3.988 0.07256791740655899 0.8831473588943481 -5.333125591278076e-05 -0.0017163725569844246 0.0 0.0 0.0 0.0
3.989 0.07394905388355255 0.8841745853424072 -0.0001432020217180252 -0.0016740206629037857 0.0 0.0 0.0 0.0
3.99 0.08352022618055344 0.8838878870010376 -0.00036159902811050415 -0.0015805698931217194 0.0 0.0 0.0 0.0
3.991 0.07547494769096375 0.8841181397438049 -0.0001593390479683876 -0.0016715805977582932 0.0 0.0 0.0 0.0
3.992 0.08628144860267639 0.8803514838218689 -0.00034901034086942673 -0.0012783398851752281 0.0 0.0 0.0 0.0
3.993 0.07973051816225052 0.8805605173110962 0.00044503528624773026 -0.001353750005364418 0.0 0.0 0.0 0.0
3.994 0.08318866789340973 0.8803784251213074 -0.0004576677456498146 -0.000958561897277832 0.0 0.0 0.0 0.0
3.995 0.08449556678533554 0.8781356811523438 -0.00014913920313119888 -0.0006993599236011505 0.0 0.0 0.0 0.0
3.996 0.09606298059225082 0.883721113204956 -0.00043055973947048187 -0.0017206007614731789 0.0 0.0 0.0 0.0
3.997 0.08228283375501633 0.8790255188941956 0.0003665853291749954 -0.0012529045343399048 0.0 0.0 0.0 0.0
3.998 0.09250232577323914 0.8769237995147705 -3.375113010406494e-06 -0.0009000180289149284 0.0 0.0 0.0 0.0
3.999 0.08447045087814331 0.881183922290802 8.115265518426895e-05 -0.0012741424143314362 0.0 0.0 0.0 0.0
4.0 0.08363611996173859 0.8799540400505066 -0.000318676233291626 -0.0008580051362514496 0.0 0.0 0.0 0.0
