!Created with skrf (http://scikit-rf.org).
# GHz S RI R 50.0 
!freq ReS11 ImS11 ReS21 ImS21 ReS12 ImS12 ReS22 ImS22
0.001 1.0047121047973633 -0.0019303271546959877 2.6814639568328857e-05 2.230145037174225e-05 0.0 0.0 0.0 0.0
0.002 0.9993255138397217 -0.00269177183508873 3.8603320717811584e-06 6.652623414993286e-05 0.0 0.0 0.0 0.0
0.003 1.0003411769866943 -0.003950711339712143 3.61073762178421e-05 8.057150989770889e-05 0.0 0.0 0.0 0.0
0.004 1.0002412796020508 -0.006247490644454956 4.7264620661735535e-06 0.00013982784003019333 0.0 0.0 0.0 0.0
0.005 0.9990459084510803 -0.006345304660499096 4.5316293835639954e-05 0.00012279581278562546 0.0 0.0 0.0 0.0
0.006 1.0004457235336304 -0.008397292345762253 4.877522587776184e-05 0.00016869325190782547 0.0 0.0 0.0 0.0
0.007 0.999173104763031 -0.009634623304009438 5.65042719244957e-05 0.00017702486366033554 0.0 0.0 0.0 0.0
0.008 0.9997287392616272 -0.010679776780307293 7.803458720445633e-05 0.00019857194274663925 0.0 0.0 0.0 0.0
0.009 0.9998648762702942 -0.012634134851396084 8.255429565906525e-05 0.00022854935377836227 0.0 0.0 0.0 0.0
0.01 0.9996370077133179 -0.01374460943043232 0.00010034255683422089 0.00024210475385189056 0.0 0.0 0.0 0.0
0.011 0.9997783303260803 -0.015072889626026154 0.00012437812983989716 0.00025978777557611465 0.0 0.0 0.0 0.0
0.012 0.9994966387748718 -0.01582682691514492 0.00013262219727039337 0.0002750065177679062 0.0 0.0 0.0 0.0
0.013 0.9998705387115479 -0.01811946928501129 0.00013405736535787582 0.00030969828367233276 0.0 0.0 0.0 0.0
0.014 1.0000271797180176 -0.019635912030935287 0.00017882511019706726 0.000318664126098156 0.0 0.0 0.0 0.0
0.015 0.9991534352302551 -0.020374229177832603 0.00017936993390321732 0.0003474568948149681 0.0 0.0 0.0 0.0
0.016 0.9996000528335571 -0.021692292764782906 0.00024555157870054245 0.00033798906952142715 0.0 0.0 0.0 0.0
0.017 1.0002119541168213 -0.02307397499680519 0.00024180207401514053 0.00035596825182437897 0.0 0.0 0.0 0.0
0.018 0.9999748468399048 -0.02477356046438217 0.00027593038976192474 0.00037542637437582016 0.0 0.0 0.0 0.0
0.019 0.999991238117218 -0.025653276592493057 0.0002940753474831581 0.0003735749050974846 0.0 0.0 0.0 0.0
0.02 0.9994475245475769 -0.02669856697320938 0.0003407355397939682 0.00037900544703006744 0.0 0.0 0.0 0.0
0.021 0.9993711113929749 -0.02801482379436493 0.0003818171098828316 0.0004029441624879837 0.0 0.0 0.0 0.0
0.022 1.0000180006027222 -0.02983667142689228 0.0004106629639863968 0.00042712315917015076 0.0 0.0 0.0 0.0
0.023 0.9992221593856812 -0.031068427488207817 0.00042799580842256546 0.0004103975370526314 0.0 0.0 0.0 0.0
0.024 0.9992971420288086 -0.03273917734622955 0.00047854427248239517 0.00040093809366226196 0.0 0.0 0.0 0.0
0.025 0.9997319579124451 -0.033644504845142365 0.0005152691155672073 0.0004140101373195648 0.0 0.0 0.0 0.0
0.026 0.999083936214447 -0.03502969443798065 0.0005642566829919815 0.00041602645069360733 0.0 0.0 0.0 0.0
0.027 0.999396800994873 -0.03653690963983536 0.0005756672471761703 0.00039674900472164154 0.0 0.0 0.0 0.0
0.028 0.9992403388023376 -0.03786708787083626 0.0006317486986517906 0.00040380842983722687 0.0 0.0 0.0 0.0
0.029 0.9989520907402039 -0.03932027518749237 0.000649740919470787 0.0003900555893778801 0.0 0.0 0.0 0.0
0.03 0.9991065859794617 -0.04044878110289574 0.0007021492347121239 0.0003676563501358032 0.0 0.0 0.0 0.0
0.031 0.9984406232833862 -0.04235854372382164 0.0007365215569734573 0.000391203910112381 0.0 0.0 0.0 0.0
0.032 0.9987504482269287 -0.04385777562856674 0.0007704030722379684 0.0003765849396586418 0.0 0.0 0.0 0.0
0.033 0.9986754655838013 -0.044950567185878754 0.0007952582091093063 0.00034022238105535507 0.0 0.0 0.0 0.0
0.034 0.9992480278015137 -0.04639996588230133 0.0008320556953549385 0.00031995493918657303 0.0 0.0 0.0 0.0
0.035 0.9986733198165894 -0.04739784076809883 0.0008658831939101219 0.00030794553458690643 0.0 0.0 0.0 0.0
0.036 0.9987679719924927 -0.04882277548313141 0.0008985055610537529 0.0002689976245164871 0.0 0.0 0.0 0.0
0.037 0.998741626739502 -0.05038085952401161 0.0009393179789185524 0.0002559451386332512 0.0 0.0 0.0 0.0
0.038 0.9976269602775574 -0.051125191152095795 0.0009694145992398262 0.00022610370069742203 0.0 0.0 0.0 0.0
0.039 0.9981780648231506 -0.05311251059174538 0.001003386452794075 0.00019045453518629074 0.0 0.0 0.0 0.0
0.04 0.9988628625869751 -0.05430232360959053 0.0010435674339532852 0.00015890784561634064 0.0 0.0 0.0 0.0
0.041 0.997516930103302 -0.056524019688367844 0.0010657114908099174 0.00014023669064044952 0.0 0.0 0.0 0.0
0.042 0.997223436832428 -0.057749971747398376 0.0010911067947745323 9.57706943154335e-05 0.0 0.0 0.0 0.0
0.043 0.9976897239685059 -0.05920635908842087 0.0011186525225639343 7.75633379817009e-05 0.0 0.0 0.0 0.0
0.044 0.9974988698959351 -0.060009121894836426 0.001161840744316578 3.0423514544963837e-05 0.0 0.0 0.0 0.0
0.045 0.9975695610046387 -0.061119481921195984 0.0011885268613696098 2.6170164346694946e-07 0.0 0.0 0.0 0.0
0.046 0.9965085387229919 -0.0630275085568428 0.0011864705011248589 -5.247257649898529e-05 0.0 0.0 0.0 0.0
0.047 0.997672975063324 -0.0646897703409195 0.0011913971975445747 -9.708106517791748e-05 0.0 0.0 0.0 0.0
0.048 0.9972676038742065 -0.06478407979011536 0.0012160362675786018 -0.00017571821808815002 0.0 0.0 0.0 0.0
0.049 0.9974015951156616 -0.06737720221281052 0.0012305555865168571 -0.00019949767738580704 0.0 0.0 0.0 0.0
0.05 0.9980008602142334 -0.06845461577177048 0.0012212833389639854 -0.0002393331378698349 0.0 0.0 0.0 0.0
0.051 0.9973514676094055 -0.06964018940925598 0.0012517711147665977 -0.0003118421882390976 0.0 0.0 0.0 0.0
0.052 0.9972368478775024 -0.07119251787662506 0.0012736376374959946 -0.00035480689257383347 0.0 0.0 0.0 0.0
0.053 0.996990442276001 -0.07208992540836334 0.0012500826269388199 -0.0003822268918156624 0.0 0.0 0.0 0.0
0.054 0.9966872930526733 -0.07406163960695267 0.0012746341526508331 -0.00043455231934785843 0.0 0.0 0.0 0.0
0.055 0.9966183304786682 -0.07545529305934906 0.0012677041813731194 -0.0004705982282757759 0.0 0.0 0.0 0.0
0.056 0.9963767528533936 -0.07646507769823074 0.0012927576899528503 -0.0005340520292520523 0.0 0.0 0.0 0.0
0.057 0.996549665927887 -0.07733496278524399 0.001275145448744297 -0.0005781203508377075 0.0 0.0 0.0 0.0
0.058 0.9964621067047119 -0.07895124703645706 0.0012962473556399345 -0.0006204824894666672 0.0 0.0 0.0 0.0
0.059 0.9957969784736633 -0.08052020519971848 0.0012784739956259727 -0.0006773285567760468 0.0 0.0 0.0 0.0
0.06 0.996185839176178 -0.08240114897489548 0.0012977449223399162 -0.0007272893562912941 0.0 0.0 0.0 0.0
0.061 0.9954019784927368 -0.08288493752479553 0.001264137215912342 -0.0007948484271764755 0.0 0.0 0.0 0.0
0.062 0.9954442977905273 -0.08388452231884003 0.0012632301077246666 -0.0008467976003885269 0.0 0.0 0.0 0.0
0.063 0.9957402348518372 -0.08589944243431091 0.0012585148215293884 -0.0008889595046639442 0.0 0.0 0.0 0.0
0.064 0.9947006702423096 -0.0875384733080864 0.0012182043865323067 -0.0009359903633594513 0.0 0.0 0.0 0.0
0.065 0.9951055645942688 -0.08888038247823715 0.0012213392183184624 -0.0009690728038549423 0.0 0.0 0.0 0.0
0.066 0.9951956272125244 -0.0899738296866417 0.0011982182040810585 -0.0010192487388849258 0.0 0.0 0.0 0.0
0.067 0.9942986369132996 -0.0912921130657196 0.0011415760964155197 -0.0010776622220873833 0.0 0.0 0.0 0.0
0.068 0.9952919483184814 -0.09310074895620346 0.0011564278975129128 -0.0011339755728840828 0.0 0.0 0.0 0.0
0.069 0.9953321218490601 -0.09417036175727844 0.001137375831604004 -0.0011766329407691956 0.0 0.0 0.0 0.0
0.07 0.9948319792747498 -0.09566841274499893 0.0011093048378825188 -0.0012331195175647736 0.0 0.0 0.0 0.0
0.071 0.9951066970825195 -0.09691969305276871 0.0010851146653294563 -0.001294524408876896 0.0 0.0 0.0 0.0
0.072 0.9940756559371948 -0.09748724102973938 0.0010508140549063683 -0.0013483669608831406 0.0 0.0 0.0 0.0
0.073 0.9939408302307129 -0.09843194484710693 0.0010526655241847038 -0.0013761240988969803 0.0 0.0 0.0 0.0
0.074 0.9928830862045288 -0.10077854245901108 0.0010204678401350975 -0.0014032889157533646 0.0 0.0 0.0 0.0
0.075 0.9932056069374084 -0.10226856172084808 0.0009788721799850464 -0.0014788070693612099 0.0 0.0 0.0 0.0
0.076 0.9928205013275146 -0.10248178988695145 0.0009467499330639839 -0.0015250453725457191 0.0 0.0 0.0 0.0
0.077 0.9923877716064453 -0.10480286180973053 0.0009208600968122482 -0.001562792807817459 0.0 0.0 0.0 0.0
0.078 0.9928872585296631 -0.10604728758335114 0.0008904412388801575 -0.0016032988205552101 0.0 0.0 0.0 0.0
0.079 0.9937258958816528 -0.10756640136241913 0.0008200444281101227 -0.0016509341076016426 0.0 0.0 0.0 0.0
0.08 0.9929807782173157 -0.10907294601202011 0.0007768403738737106 -0.0017143338918685913 0.0 0.0 0.0 0.0
0.081 0.9931374788284302 -0.10997951775789261 0.0007242821156978607 -0.001740732230246067 0.0 0.0 0.0 0.0
0.082 0.9933018684387207 -0.11146005243062973 0.0007112296298146248 -0.001788427121937275 0.0 0.0 0.0 0.0
0.083 0.9929111003875732 -0.11261384934186935 0.0006741536781191826 -0.0018471479415893555 0.0 0.0 0.0 0.0
0.084 0.9921980500221252 -0.11356756091117859 0.0006363745778799057 -0.0018389327451586723 0.0 0.0 0.0 0.0
0.085 0.9922196865081787 -0.11526214331388474 0.0005631465464830399 -0.0018975473940372467 0.0 0.0 0.0 0.0
0.086 0.9922559857368469 -0.11601201444864273 0.0005041193217039108 -0.0019506802782416344 0.0 0.0 0.0 0.0
0.087 0.9917045831680298 -0.11767862737178802 0.0004562484100461006 -0.0019734278321266174 0.0 0.0 0.0 0.0
0.088 0.9915766716003418 -0.11862670630216599 0.00043203309178352356 -0.0020255325362086296 0.0 0.0 0.0 0.0
0.089 0.990820586681366 -0.1207645982503891 0.000355282798409462 -0.0020484458655118942 0.0 0.0 0.0 0.0
0.09 0.9911926984786987 -0.12252766638994217 0.00028706248849630356 -0.0020789029076695442 0.0 0.0 0.0 0.0
0.091 0.9914918541908264 -0.12283501774072647 0.00023578479886054993 -0.00212885532528162 0.0 0.0 0.0 0.0
0.092 0.9904921650886536 -0.12430699169635773 0.00018555857241153717 -0.0021490463986992836 0.0 0.0 0.0 0.0
0.093 0.9912606477737427 -0.12562128901481628 0.00011139176785945892 -0.0021748654544353485 0.0 0.0 0.0 0.0
0.094 0.989945650100708 -0.12662167847156525 8.143112063407898e-05 -0.002216961234807968 0.0 0.0 0.0 0.0
0.095 0.9892057776451111 -0.1284981518983841 -1.715589314699173e-05 -0.0022128550335764885 0.0 0.0 0.0 0.0
0.096 0.989375114440918 -0.12934070825576782 -9.389221668243408e-05 -0.00224180705845356 0.0 0.0 0.0 0.0
0.097 0.9890958666801453 -0.1305815577507019 -0.00015603378415107727 -0.0022740578278899193 0.0 0.0 0.0 0.0
0.098 0.9887809157371521 -0.1319052129983902 -0.00023503322154283524 -0.0022765910252928734 0.0 0.0 0.0 0.0
0.099 0.988834798336029 -0.133559912443161 -0.0003065159544348717 -0.0023030154407024384 0.0 0.0 0.0 0.0
0.1 0.9885305762290955 -0.13504396378993988 -0.0004486711695790291 -0.0023394133895635605 0.0 0.0 0.0 0.0
0.101 0.9869154691696167 -0.14011363685131073 -0.0005465969443321228 -0.0023565012961626053 0.0 0.0 0.0 0.0
0.102 0.9866604208946228 -0.1424289047718048 -0.0006164619699120522 -0.002338915131986141 0.0 0.0 0.0 0.0
0.103 0.9862749576568604 -0.14298425614833832 -0.0006971228867769241 -0.0023710476234555244 0.0 0.0 0.0 0.0
0.104 0.9861583709716797 -0.1446961909532547 -0.0007895668968558311 -0.002392311580479145 0.0 0.0 0.0 0.0
0.105 0.9862543940544128 -0.14605090022087097 -0.000867234542965889 -0.002386980690062046 0.0 0.0 0.0 0.0
0.106 0.9857577085494995 -0.14731113612651825 -0.0009790770709514618 -0.0023821238428354263 0.0 0.0 0.0 0.0
0.107 0.9851790070533752 -0.1489349603652954 -0.0010419106110930443 -0.0023669060319662094 0.0 0.0 0.0 0.0
0.108 0.9851571321487427 -0.14990895986557007 -0.0011045848950743675 -0.0023705577477812767 0.0 0.0 0.0 0.0
0.109 0.9847797155380249 -0.1513526439666748 -0.0012155892327427864 -0.002343430183827877 0.0 0.0 0.0 0.0
0.11 0.9842694401741028 -0.1526041477918625 -0.0013460861518979073 -0.0023458432406187057 0.0 0.0 0.0 0.0
0.111 0.9844315648078918 -0.15420013666152954 -0.0014033401384949684 -0.0023184195160865784 0.0 0.0 0.0 0.0
0.112 0.9837132692337036 -0.15521056950092316 -0.0014842553064227104 -0.002306605689227581 0.0 0.0 0.0 0.0
0.113 0.9833033084869385 -0.15668213367462158 -0.001575506292283535 -0.002270638942718506 0.0 0.0 0.0 0.0
0.114 0.9835805296897888 -0.15825155377388 -0.0016798563301563263 -0.0022315122187137604 0.0 0.0 0.0 0.0
0.115 0.9833022356033325 -0.15939562022686005 -0.001777741126716137 -0.0022031432017683983 0.0 0.0 0.0 0.0
0.116 0.9826629161834717 -0.16058173775672913 -0.001873113214969635 -0.0021397527307271957 0.0 0.0 0.0 0.0
0.117 0.9827468991279602 -0.16198596358299255 -0.001977340318262577 -0.002113613300025463 0.0 0.0 0.0 0.0
0.118 0.9824120402336121 -0.16332869231700897 -0.0020454442128539085 -0.00208122655749321 0.0 0.0 0.0 0.0
0.119 0.9818671345710754 -0.16434170305728912 -0.0021494217216968536 -0.0020348746329545975 0.0 0.0 0.0 0.0
0.12 0.981953501701355 -0.1657087653875351 -0.0022297194227576256 -0.0019761789590120316 0.0 0.0 0.0 0.0
0.121 0.9813618063926697 -0.16730614006519318 -0.002310609444975853 -0.0019019367173314095 0.0 0.0 0.0 0.0
0.122 0.9808012843132019 -0.16854068636894226 -0.002411091700196266 -0.0018369229510426521 0.0 0.0 0.0 0.0
0.123 0.9805310964584351 -0.1702493131160736 -0.002485797740519047 -0.0017848312854766846 0.0 0.0 0.0 0.0
0.124 0.9807532429695129 -0.17092105746269226 -0.002577725797891617 -0.001713803969323635 0.0 0.0 0.0 0.0
0.125 0.9800599813461304 -0.17237789928913116 -0.00264008529484272 -0.001630399376153946 0.0 0.0 0.0 0.0
0.126 0.9799082279205322 -0.17365586757659912 -0.002719799056649208 -0.0015538586303591728 0.0 0.0 0.0 0.0
0.127 0.979419469833374 -0.17469842731952667 -0.00279128085821867 -0.0014770589768886566 0.0 0.0 0.0 0.0
0.128 0.9793198704719543 -0.17521753907203674 -0.002871297299861908 -0.0013824831694364548 0.0 0.0 0.0 0.0
0.129 0.9790014028549194 -0.17783226072788239 -0.002956245094537735 -0.0012981388717889786 0.0 0.0 0.0 0.0
0.13 0.9786089062690735 -0.17876756191253662 -0.0030145151540637016 -0.001209585927426815 0.0 0.0 0.0 0.0
0.131 0.9783169627189636 -0.17992976307868958 -0.0030810153111815453 -0.001124044880270958 0.0 0.0 0.0 0.0
0.132 0.9778280258178711 -0.18138611316680908 -0.0031375261023640633 -0.0010261721909046173 0.0 0.0 0.0 0.0
0.133 0.9775939583778381 -0.1824643760919571 -0.003174195997416973 -0.0009270515292882919 0.0 0.0 0.0 0.0
0.134 0.9776682257652283 -0.18387916684150696 -0.003222760744392872 -0.0008197799324989319 0.0 0.0 0.0 0.0
0.135 0.9771198630332947 -0.18528516590595245 -0.0032812608405947685 -0.0007045753300189972 0.0 0.0 0.0 0.0
0.136 0.9766842126846313 -0.18637341260910034 -0.003333968110382557 -0.0006000958383083344 0.0 0.0 0.0 0.0
0.137 0.9763097763061523 -0.18770913779735565 -0.0033573992550373077 -0.0005059344694018364 0.0 0.0 0.0 0.0
0.138 0.9760546088218689 -0.18899396061897278 -0.0034159161150455475 -0.0003789430484175682 0.0 0.0 0.0 0.0
0.139 0.9761196374893188 -0.19039905071258545 -0.0034543322399258614 -0.00027153175324201584 0.0 0.0 0.0 0.0
0.14 0.9750034213066101 -0.19187168776988983 -0.003472050651907921 -0.00013740919530391693 0.0 0.0 0.0 0.0
0.141 0.9756084680557251 -0.1925516426563263 -0.0034907320514321327 -3.3768825232982635e-05 0.0 0.0 0.0 0.0
0.142 0.9751822352409363 -0.19427336752414703 -0.0035448018461465836 6.272736936807632e-05 0.0 0.0 0.0 0.0
0.143 0.974654495716095 -0.19535784423351288 -0.003545055165886879 0.00019715353846549988 0.0 0.0 0.0 0.0
0.144 0.9741712808609009 -0.1967630386352539 -0.003547200933098793 0.0003286590799689293 0.0 0.0 0.0 0.0
0.145 0.973893940448761 -0.19817949831485748 -0.003524146042764187 0.0004436410963535309 0.0 0.0 0.0 0.0
0.146 0.9735357761383057 -0.1993187516927719 -0.0035449350252747536 0.0005651237443089485 0.0 0.0 0.0 0.0
0.147 0.9732791781425476 -0.20044732093811035 -0.0035396600142121315 0.0006603514775633812 0.0 0.0 0.0 0.0
0.148 0.9733089208602905 -0.20188210904598236 -0.003555682487785816 0.0007935939356684685 0.0 0.0 0.0 0.0
0.149 0.9725711345672607 -0.2031029760837555 -0.0035569723695516586 0.0009161941707134247 0.0 0.0 0.0 0.0
0.15 0.9721429944038391 -0.2041899561882019 -0.00353330560028553 0.0010334150865674019 0.0 0.0 0.0 0.0
0.151 0.9723422527313232 -0.20553980767726898 -0.003524215891957283 0.0011447714641690254 0.0 0.0 0.0 0.0
0.152 0.971394956111908 -0.2069120854139328 -0.0035140644758939743 0.001260785385966301 0.0 0.0 0.0 0.0
0.153 0.9712271094322205 -0.20794448256492615 -0.0034735742956399918 0.0013965778052806854 0.0 0.0 0.0 0.0
0.154 0.9713917970657349 -0.20943768322467804 -0.0034487321972846985 0.0015384508296847343 0.0 0.0 0.0 0.0
0.155 0.970268726348877 -0.21073520183563232 -0.0034093353897333145 0.001640819013118744 0.0 0.0 0.0 0.0
0.156 0.9698089361190796 -0.2118934839963913 -0.0033802706748247147 0.00174754299223423 0.0 0.0 0.0 0.0
0.157 0.9703690409660339 -0.21312972903251648 -0.003345167264342308 0.0018626917153596878 0.0 0.0 0.0 0.0
0.158 0.9693092703819275 -0.21403637528419495 -0.003306199796497822 0.001976044848561287 0.0 0.0 0.0 0.0
0.159 0.9687098264694214 -0.21615636348724365 -0.003269292414188385 0.0021095527336001396 0.0 0.0 0.0 0.0
0.16 0.969117283821106 -0.21624509990215302 -0.0032053422182798386 0.002207290381193161 0.0 0.0 0.0 0.0
0.161 0.9686985611915588 -0.21779896318912506 -0.0031639793887734413 0.0023256437852978706 0.0 0.0 0.0 0.0
0.162 0.9681179523468018 -0.2197122424840927 -0.00311159435659647 0.0024571074172854424 0.0 0.0 0.0 0.0
0.163 0.9677557349205017 -0.22079028189182281 -0.0030447859317064285 0.002546831965446472 0.0 0.0 0.0 0.0
0.164 0.9672743082046509 -0.22194840013980865 -0.0029743313789367676 0.0026693306863307953 0.0 0.0 0.0 0.0
0.165 0.9668992161750793 -0.22330962121486664 -0.0029249880462884903 0.0027672722935676575 0.0 0.0 0.0 0.0
0.166 0.9669885635375977 -0.22455094754695892 -0.0028645843267440796 0.0028822505846619606 0.0 0.0 0.0 0.0
0.167 0.9668420553207397 -0.2250467985868454 -0.002767869271337986 0.002984886057674885 0.0 0.0 0.0 0.0
0.168 0.9659423232078552 -0.22654812037944794 -0.0027153128758072853 0.0030922098085284233 0.0 0.0 0.0 0.0
0.169 0.9659728407859802 -0.22768986225128174 -0.0026061050593852997 0.0031821727752685547 0.0 0.0 0.0 0.0
0.17 0.9653028249740601 -0.22933807969093323 -0.0025314241647720337 0.003301040269434452 0.0 0.0 0.0 0.0
0.171 0.964756965637207 -0.23053869605064392 -0.002436390146613121 0.0033948561176657677 0.0 0.0 0.0 0.0
0.172 0.9641409516334534 -0.23187156021595 -0.002355986274778843 0.0034907180815935135 0.0 0.0 0.0 0.0
0.173 0.9648222923278809 -0.23300346732139587 -0.0022755516692996025 0.003591986373066902 0.0 0.0 0.0 0.0
0.174 0.9638333320617676 -0.23389047384262085 -0.002159537747502327 0.0036740778014063835 0.0 0.0 0.0 0.0
0.175 0.9633159637451172 -0.23529000580310822 -0.002049996517598629 0.003790229558944702 0.0 0.0 0.0 0.0
0.176 0.9628724455833435 -0.23763783276081085 -0.0019545750692486763 0.0038895169273018837 0.0 0.0 0.0 0.0
0.177 0.9629726409912109 -0.23813647031784058 -0.0018489519134163857 0.003975497558712959 0.0 0.0 0.0 0.0
0.178 0.9626210927963257 -0.23919512331485748 -0.0017541544511914253 0.004053842276334763 0.0 0.0 0.0 0.0
0.179 0.9624841213226318 -0.24009498953819275 -0.0016444018110632896 0.004164380952715874 0.0 0.0 0.0 0.0
0.18 0.9621182084083557 -0.24123600125312805 -0.001515599898993969 0.004226219840347767 0.0 0.0 0.0 0.0
0.181 0.9610785841941833 -0.2421671450138092 -0.0013935267925262451 0.004303826950490475 0.0 0.0 0.0 0.0
0.182 0.9612319469451904 -0.243983656167984 -0.0012510111555457115 0.004396181553602219 0.0 0.0 0.0 0.0
0.183 0.961033284664154 -0.2449527382850647 -0.0011222464963793755 0.004483756609261036 0.0 0.0 0.0 0.0
0.184 0.9602206349372864 -0.24651530385017395 -0.000996788963675499 0.00455884076654911 0.0 0.0 0.0 0.0
0.185 0.9602560997009277 -0.2479049414396286 -0.000861230306327343 0.004610758274793625 0.0 0.0 0.0 0.0
0.186 0.9593217968940735 -0.24870897829532623 -0.0006839502602815628 0.004689930938184261 0.0 0.0 0.0 0.0
0.187 0.9593226313591003 -0.2499665468931198 -0.0005544321611523628 0.004735847935080528 0.0 0.0 0.0 0.0
0.188 0.958827018737793 -0.25115153193473816 -0.00039829686284065247 0.004803297109901905 0.0 0.0 0.0 0.0
0.189 0.9586020708084106 -0.25280776619911194 -0.0002636788412928581 0.0048607150092720985 0.0 0.0 0.0 0.0
0.19 0.958405613899231 -0.25319549441337585 -8.128862828016281e-05 0.004876135848462582 0.0 0.0 0.0 0.0
0.191 0.9579129815101624 -0.25528374314308167 8.027348667383194e-05 0.00496290996670723 0.0 0.0 0.0 0.0
0.192 0.9574158787727356 -0.25571751594543457 0.0002658367156982422 0.004960872232913971 0.0 0.0 0.0 0.0
0.193 0.9571875333786011 -0.25700822472572327 0.0004407605156302452 0.005003513768315315 0.0 0.0 0.0 0.0
0.194 0.9564051032066345 -0.2588409185409546 0.000596870668232441 0.005054299719631672 0.0 0.0 0.0 0.0
0.195 0.955987274646759 -0.2594316005706787 0.0008213827386498451 0.005065309815108776 0.0 0.0 0.0 0.0
0.196 0.9555565118789673 -0.2609458565711975 0.0009846733883023262 0.005064370110630989 0.0 0.0 0.0 0.0
0.197 0.9554608464241028 -0.2621385157108307 0.0011559808626770973 0.005078917369246483 0.0 0.0 0.0 0.0
0.198 0.9549356698989868 -0.2635461091995239 0.0013561854138970375 0.005082258023321629 0.0 0.0 0.0 0.0
0.199 0.9545459151268005 -0.2635888457298279 0.0015486860647797585 0.005035377107560635 0.0 0.0 0.0 0.0
0.2 0.9538158178329468 -0.26565614342689514 0.0017510466277599335 0.005037723109126091 0.0 0.0 0.0 0.0
0.201 0.9538378119468689 -0.26644012331962585 0.0019473200663924217 0.0050233276560902596 0.0 0.0 0.0 0.0
0.202 0.953260064125061 -0.26773130893707275 0.0021247239783406258 0.0049802083522081375 0.0 0.0 0.0 0.0
0.203 0.9527758955955505 -0.26885128021240234 0.0023234859108924866 0.004919561557471752 0.0 0.0 0.0 0.0
0.204 0.952497124671936 -0.2704082727432251 0.0025084959343075752 0.004878510721027851 0.0 0.0 0.0 0.0
0.205 0.9528250694274902 -0.2712276577949524 0.002731066197156906 0.0048103053122758865 0.0 0.0 0.0 0.0
0.206 0.9519439339637756 -0.27249664068222046 0.0028982218354940414 0.004744819365441799 0.0 0.0 0.0 0.0
0.207 0.9519727230072021 -0.2738226354122162 0.0030958540737628937 0.004685116931796074 0.0 0.0 0.0 0.0
0.208 0.9511568546295166 -0.2749381363391876 0.0033142156898975372 0.004586420021951199 0.0 0.0 0.0 0.0
0.209 0.9508403539657593 -0.2760358452796936 0.0034901732578873634 0.0044920844957232475 0.0 0.0 0.0 0.0
0.21 0.950524628162384 -0.277538537979126 0.003679235465824604 0.0043803853914141655 0.0 0.0 0.0 0.0
0.211 0.9497309923171997 -0.27814969420433044 0.0038583362475037575 0.004270497709512711 0.0 0.0 0.0 0.0
0.212 0.9492062330245972 -0.27924418449401855 0.004031363874673843 0.004135904833674431 0.0 0.0 0.0 0.0
0.213 0.9494893550872803 -0.2810361385345459 0.004179764539003372 0.004015895538032055 0.0 0.0 0.0 0.0
0.214 0.9486770629882812 -0.2818947732448578 0.004382186569273472 0.0038755396381020546 0.0 0.0 0.0 0.0
0.215 0.9482927322387695 -0.2836263179779053 0.004541294649243355 0.003682631067931652 0.0 0.0 0.0 0.0
0.216 0.9480170011520386 -0.2846235930919647 0.004673659801483154 0.0035683205351233482 0.0 0.0 0.0 0.0
0.217 0.9477728009223938 -0.2853909134864807 0.004868935793638229 0.003383815288543701 0.0 0.0 0.0 0.0
0.218 0.9474031925201416 -0.2864740788936615 0.0049813613295555115 0.003228318877518177 0.0 0.0 0.0 0.0
0.219 0.9464619755744934 -0.2877928614616394 0.005110088735818863 0.003041801042854786 0.0 0.0 0.0 0.0
0.22 0.9468886256217957 -0.2891805171966553 0.0052201636135578156 0.002839484252035618 0.0 0.0 0.0 0.0
0.221 0.9464889764785767 -0.2899554371833801 0.005351662635803223 0.002650367096066475 0.0 0.0 0.0 0.0
0.222 0.9455081224441528 -0.2914135456085205 0.005461355671286583 0.002475121058523655 0.0 0.0 0.0 0.0
0.223 0.9453230500221252 -0.29248225688934326 0.005565679632127285 0.002288428135216236 0.0 0.0 0.0 0.0
0.224 0.9455142021179199 -0.29343435168266296 0.005668729543685913 0.002058645710349083 0.0 0.0 0.0 0.0
0.225 0.9443433880805969 -0.2949981093406677 0.005742407403886318 0.0018788054585456848 0.0 0.0 0.0 0.0
0.226 0.944581151008606 -0.29543936252593994 0.0057927081361413 0.001692076213657856 0.0 0.0 0.0 0.0
0.227 0.9440933465957642 -0.2965735197067261 0.005896006710827351 0.0014434363692998886 0.0 0.0 0.0 0.0
0.228 0.9432930946350098 -0.29795995354652405 0.005928429774940014 0.001244639977812767 0.0 0.0 0.0 0.0
0.229 0.9435227513313293 -0.2986317276954651 0.0059671420603990555 0.001012943685054779 0.0 0.0 0.0 0.0
0.23 0.9430965781211853 -0.300436407327652 0.006024922244250774 0.0008017811924219131 0.0 0.0 0.0 0.0
0.231 0.9416823983192444 -0.3018166422843933 0.0060500893741846085 0.0005859099328517914 0.0 0.0 0.0 0.0
0.232 0.9417608976364136 -0.3027001619338989 0.00607429351657629 0.00036754831671714783 0.0 0.0 0.0 0.0
0.233 0.9418677687644958 -0.30388572812080383 0.006073253229260445 0.00018746033310890198 0.0 0.0 0.0 0.0
0.234 0.9414998888969421 -0.30558836460113525 0.00608428567647934 -2.9342249035835266e-05 0.0 0.0 0.0 0.0
0.235 0.9407142400741577 -0.30596259236335754 0.006101829931139946 -0.00024343840777873993 0.0 0.0 0.0 0.0
0.236 0.9404071569442749 -0.3070961534976959 0.00607006810605526 -0.00045077409595251083 0.0 0.0 0.0 0.0
0.237 0.9398495554924011 -0.3087354600429535 0.00608829315751791 -0.0006315000355243683 0.0 0.0 0.0 0.0
0.238 0.9393143057823181 -0.3092239797115326 0.0060394201427698135 -0.0008571399375796318 0.0 0.0 0.0 0.0
0.239 0.9388529658317566 -0.3103543817996979 0.006033390760421753 -0.0010593459010124207 0.0 0.0 0.0 0.0
0.24 0.9393211007118225 -0.31132879853248596 0.005992827005684376 -0.001257660798728466 0.0 0.0 0.0 0.0
0.241 0.9384467601776123 -0.3129490315914154 0.005941588431596756 -0.0014449572190642357 0.0 0.0 0.0 0.0
0.242 0.9381806254386902 -0.31376001238822937 0.0058863041922450066 -0.0016591055318713188 0.0 0.0 0.0 0.0
0.243 0.9374175071716309 -0.31530532240867615 0.0058317631483078 -0.0018301401287317276 0.0 0.0 0.0 0.0
0.244 0.9375371932983398 -0.316377729177475 0.005777977406978607 -0.002060513012111187 0.0 0.0 0.0 0.0
0.245 0.9368973970413208 -0.3175457715988159 0.005763338878750801 -0.002232486382126808 0.0 0.0 0.0 0.0
0.246 0.9360511898994446 -0.3186130225658417 0.005642484873533249 -0.0023874519392848015 0.0 0.0 0.0 0.0
0.247 0.9356241822242737 -0.3195948600769043 0.005563030950725079 -0.0025914572179317474 0.0 0.0 0.0 0.0
0.248 0.935287594795227 -0.32097214460372925 0.005491646006703377 -0.0027861474081873894 0.0 0.0 0.0 0.0
0.249 0.9352648258209229 -0.3222087323665619 0.0054166968911886215 -0.0029490403831005096 0.0 0.0 0.0 0.0
0.25 0.9348435401916504 -0.323274701833725 0.005305512808263302 -0.0031457776203751564 0.0 0.0 0.0 0.0
0.251 0.9341710209846497 -0.3242233991622925 0.005205382592976093 -0.003297845833003521 0.0 0.0 0.0 0.0
0.252 0.9336385130882263 -0.3252904415130615 0.005131500773131847 -0.003473305143415928 0.0 0.0 0.0 0.0
0.253 0.9335556030273438 -0.32665306329727173 0.005015740171074867 -0.003628574311733246 0.0 0.0 0.0 0.0
0.254 0.9326691627502441 -0.32731470465660095 0.004915798082947731 -0.003788132220506668 0.0 0.0 0.0 0.0
0.255 0.9322792291641235 -0.32879897952079773 0.0048201195895671844 -0.003944185562431812 0.0 0.0 0.0 0.0
0.256 0.9324905872344971 -0.33059027791023254 0.004661526530981064 -0.004112801514565945 0.0 0.0 0.0 0.0
0.257 0.931993842124939 -0.33100956678390503 0.0045448653399944305 -0.0042527830228209496 0.0 0.0 0.0 0.0
0.258 0.9322284460067749 -0.33165326714515686 0.0044334568083286285 -0.004390707239508629 0.0 0.0 0.0 0.0
0.259 0.9313656687736511 -0.3336085379123688 0.004293782636523247 -0.004538348875939846 0.0 0.0 0.0 0.0
0.26 0.9303939938545227 -0.33394506573677063 0.004171927459537983 -0.004692246206104755 0.0 0.0 0.0 0.0
0.261 0.930063009262085 -0.3356451392173767 0.004036480560898781 -0.0048138294368982315 0.0 0.0 0.0 0.0
0.262 0.9303673505783081 -0.3368874490261078 0.003906684927642345 -0.004958977922797203 0.0 0.0 0.0 0.0
0.263 0.9292100071907043 -0.33724069595336914 0.003761015832424164 -0.0050931451842188835 0.0 0.0 0.0 0.0
0.264 0.9287627339363098 -0.33863380551338196 0.0036309529095888138 -0.005214656703174114 0.0 0.0 0.0 0.0
0.265 0.9291277527809143 -0.34004390239715576 0.003451569937169552 -0.005377131514251232 0.0 0.0 0.0 0.0
0.266 0.9284738302230835 -0.340577095746994 0.0033057667315006256 -0.005469989962875843 0.0 0.0 0.0 0.0
0.267 0.9277127981185913 -0.3418905735015869 0.00316679198294878 -0.005601370707154274 0.0 0.0 0.0 0.0
0.268 0.927920937538147 -0.34268900752067566 0.002977535128593445 -0.005728663876652718 0.0 0.0 0.0 0.0
0.269 0.926927924156189 -0.34420260787010193 0.002828785218298435 -0.0058357007801532745 0.0 0.0 0.0 0.0
0.27 0.9268103241920471 -0.3450275957584381 0.002634994685649872 -0.005932479165494442 0.0 0.0 0.0 0.0
0.271 0.9262051582336426 -0.34707581996917725 0.0024772007018327713 -0.006033237092196941 0.0 0.0 0.0 0.0
0.272 0.9258697628974915 -0.3480373024940491 0.0022901566699147224 -0.006130809895694256 0.0 0.0 0.0 0.0
0.273 0.9254388809204102 -0.3485170900821686 0.002099551260471344 -0.006234890781342983 0.0 0.0 0.0 0.0
0.274 0.925001859664917 -0.35017433762550354 0.00190669484436512 -0.006331967189908028 0.0 0.0 0.0 0.0
0.275 0.9245366454124451 -0.3507576882839203 0.0017193099483847618 -0.006408059969544411 0.0 0.0 0.0 0.0
0.276 0.9243558049201965 -0.3517215847969055 0.001542508602142334 -0.006518443115055561 0.0 0.0 0.0 0.0
0.277 0.9239895343780518 -0.3533591628074646 0.0013372255489230156 -0.0065771304070949554 0.0 0.0 0.0 0.0
0.278 0.9233339428901672 -0.3545607328414917 0.001112177036702633 -0.006648671813309193 0.0 0.0 0.0 0.0
0.279 0.9232390522956848 -0.3548238277435303 0.0009184163063764572 -0.006711564026772976 0.0 0.0 0.0 0.0
0.28 0.9225542545318604 -0.35676267743110657 0.0007049916312098503 -0.00677169393748045 0.0 0.0 0.0 0.0
0.281 0.9223654270172119 -0.3566604256629944 0.0004763007164001465 -0.006835905835032463 0.0 0.0 0.0 0.0
0.282 0.921592116355896 -0.3586139380931854 0.00024107471108436584 -0.006875861436128616 0.0 0.0 0.0 0.0
0.283 0.921062707901001 -0.3600093722343445 5.321763455867767e-05 -0.006899493746459484 0.0 0.0 0.0 0.0
0.284 0.9206251502037048 -0.3608989715576172 -0.0001940317451953888 -0.006913098506629467 0.0 0.0 0.0 0.0
0.285 0.9207457304000854 -0.36105990409851074 -0.0004348745569586754 -0.006986246444284916 0.0 0.0 0.0 0.0
0.286 0.9202396869659424 -0.3630251884460449 -0.0006512263789772987 -0.006978615187108517 0.0 0.0 0.0 0.0
0.287 0.9195370674133301 -0.3641451597213745 -0.0009079817682504654 -0.006984378211200237 0.0 0.0 0.0 0.0
0.288 0.919603168964386 -0.36465921998023987 -0.0011328710243105888 -0.006996374577283859 0.0 0.0 0.0 0.0
0.289 0.9189231395721436 -0.3659481108188629 -0.0013746041804552078 -0.006962796673178673 0.0 0.0 0.0 0.0
0.29 0.9185363054275513 -0.3680308163166046 -0.001631162129342556 -0.006948097608983517 0.0 0.0 0.0 0.0
0.291 0.9179768562316895 -0.3684062957763672 -0.0018604276701807976 -0.006932209245860577 0.0 0.0 0.0 0.0
0.292 0.9180284142494202 -0.36931875348091125 -0.002119920216500759 -0.0068928832188248634 0.0 0.0 0.0 0.0
0.293 0.9174501895904541 -0.37072521448135376 -0.0023697875440120697 -0.006854601204395294 0.0 0.0 0.0 0.0
0.294 0.9166908264160156 -0.3716285824775696 -0.002597329206764698 -0.006805300712585449 0.0 0.0 0.0 0.0
0.295 0.915987491607666 -0.3726811408996582 -0.0028397804126143456 -0.006739981472492218 0.0 0.0 0.0 0.0
0.296 0.9161499738693237 -0.37422284483909607 -0.003104434348642826 -0.006693614646792412 0.0 0.0 0.0 0.0
0.297 0.9156165719032288 -0.3745116889476776 -0.0033484837040305138 -0.006647787056863308 0.0 0.0 0.0 0.0
0.298 0.9151491522789001 -0.37563633918762207 -0.0035891393199563026 -0.00658585038036108 0.0 0.0 0.0 0.0
0.299 0.9148936867713928 -0.377347856760025 -0.003863525576889515 -0.006503493525087833 0.0 0.0 0.0 0.0
0.3 0.9144611954689026 -0.37810447812080383 -0.004104546271264553 -0.006346892565488815 0.0 0.0 0.0 0.0
0.301 0.9137634038925171 -0.37922757863998413 -0.004314860329031944 -0.006207517348229885 0.0 0.0 0.0 0.0
0.302 0.9136622548103333 -0.3800620436668396 -0.0045496514067053795 -0.006100501865148544 0.0 0.0 0.0 0.0
0.303 0.9128187298774719 -0.3811313509941101 -0.00477535929530859 -0.005924830213189125 0.0 0.0 0.0 0.0
0.304 0.9126632809638977 -0.3823116421699524 -0.005019513890147209 -0.005787023343145847 0.0 0.0 0.0 0.0
0.305 0.9124892950057983 -0.3832746744155884 -0.005206958390772343 -0.005648158490657806 0.0 0.0 0.0 0.0
0.306 0.9117305874824524 -0.38486263155937195 -0.005420452915132046 -0.005447951145470142 0.0 0.0 0.0 0.0
0.307 0.9116325378417969 -0.38537919521331787 -0.005607490427792072 -0.005263602361083031 0.0 0.0 0.0 0.0
0.308 0.9114560484886169 -0.3871971368789673 -0.005800032988190651 -0.00509237963706255 0.0 0.0 0.0 0.0
0.309 0.910559892654419 -0.387448251247406 -0.005988053046166897 -0.0048989588394761086 0.0 0.0 0.0 0.0
0.31 0.9099889993667603 -0.3893059492111206 -0.006163613870739937 -0.004676975309848785 0.0 0.0 0.0 0.0
0.311 0.9098027944564819 -0.39018067717552185 -0.006319996900856495 -0.004468679428100586 0.0 0.0 0.0 0.0
0.312 0.9100469350814819 -0.3909038007259369 -0.006478180177509785 -0.004275892861187458 0.0 0.0 0.0 0.0
0.313 0.9091342687606812 -0.392330139875412 -0.006639253348112106 -0.0040580881759524345 0.0 0.0 0.0 0.0
0.314 0.9084869623184204 -0.3932761251926422 -0.006799807772040367 -0.0038220779970288277 0.0 0.0 0.0 0.0
0.315 0.9082689881324768 -0.3946327269077301 -0.00690324604511261 -0.0035596080124378204 0.0 0.0 0.0 0.0
0.316 0.908025860786438 -0.3951047658920288 -0.007037992589175701 -0.0033468231558799744 0.0 0.0 0.0 0.0
0.317 0.9072783589363098 -0.396903395652771 -0.007154096849262714 -0.003102448768913746 0.0 0.0 0.0 0.0
0.318 0.9073138236999512 -0.39704951643943787 -0.007242297753691673 -0.002886253409087658 0.0 0.0 0.0 0.0
0.319 0.9069775342941284 -0.39855802059173584 -0.007338660769164562 -0.002634192816913128 0.0 0.0 0.0 0.0
0.32 0.9063571095466614 -0.39937111735343933 -0.007442563772201538 -0.002373581752181053 0.0 0.0 0.0 0.0
0.321 0.9056838750839233 -0.4011281430721283 -0.007508429698646069 -0.0021220510825514793 0.0 0.0 0.0 0.0
0.322 0.9053068161010742 -0.4021852910518646 -0.007555023767054081 -0.0018700603395700455 0.0 0.0 0.0 0.0
0.323 0.9046059846878052 -0.402729868888855 -0.00760718435049057 -0.0016575837507843971 0.0 0.0 0.0 0.0
0.324 0.9046201109886169 -0.40437811613082886 -0.007680375128984451 -0.0014008218422532082 0.0 0.0 0.0 0.0
0.325 0.9040874242782593 -0.40485695004463196 -0.007693782448768616 -0.001163700595498085 0.0 0.0 0.0 0.0
0.326 0.9039032459259033 -0.40604346990585327 -0.007758491672575474 -0.0009149573743343353 0.0 0.0 0.0 0.0
0.327 0.903117835521698 -0.40728241205215454 -0.007783425971865654 -0.0006285719573497772 0.0 0.0 0.0 0.0
0.328 0.9031988382339478 -0.40790385007858276 -0.00781713891774416 -0.0004100129008293152 0.0 0.0 0.0 0.0
0.329 0.9023258090019226 -0.40880146622657776 -0.007807397283613682 -0.00017373915761709213 0.0 0.0 0.0 0.0
0.33 0.9021137952804565 -0.41019973158836365 -0.007832253351807594 7.506366819143295e-05 0.0 0.0 0.0 0.0
0.331 0.9018392562866211 -0.4113851487636566 -0.00782511942088604 0.0003174077719449997 0.0 0.0 0.0 0.0
0.332 0.9011704325675964 -0.41276419162750244 -0.007810456678271294 0.0005560982972383499 0.0 0.0 0.0 0.0
0.333 0.9006990790367126 -0.41376349329948425 -0.007805134169757366 0.0008200593292713165 0.0 0.0 0.0 0.0
0.334 0.9008458256721497 -0.4141843616962433 -0.00778372585773468 0.0009974269196391106 0.0 0.0 0.0 0.0
0.335 0.8997154235839844 -0.4153761863708496 -0.007769927382469177 0.001286134123802185 0.0 0.0 0.0 0.0
0.336 0.898960530757904 -0.41719210147857666 -0.007702449336647987 0.001531907357275486 0.0 0.0 0.0 0.0
0.337 0.8994015455245972 -0.4172419309616089 -0.007675577886402607 0.001758510246872902 0.0 0.0 0.0 0.0
0.338 0.8988726735115051 -0.4187297224998474 -0.007636070251464844 0.0019820639863610268 0.0 0.0 0.0 0.0
0.339 0.8987395167350769 -0.4191305339336395 -0.00759286992251873 0.002205261029303074 0.0 0.0 0.0 0.0
0.34 0.897682785987854 -0.420674204826355 -0.007534368894994259 0.0024412227794528008 0.0 0.0 0.0 0.0
0.341 0.8975818753242493 -0.4216589033603668 -0.007458738051354885 0.002675991505384445 0.0 0.0 0.0 0.0
0.342 0.896620512008667 -0.4233521521091461 -0.007410644553601742 0.002920340746641159 0.0 0.0 0.0 0.0
0.343 0.8969783186912537 -0.4236327111721039 -0.0073369331657886505 0.003085702657699585 0.0 0.0 0.0 0.0
0.344 0.8966436386108398 -0.4245985746383667 -0.007271697744727135 0.003303677774965763 0.0 0.0 0.0 0.0
0.345 0.8952555060386658 -0.4261428415775299 -0.007155737839639187 0.0035766223445534706 0.0 0.0 0.0 0.0
0.346 0.8952451348304749 -0.42735928297042847 -0.0070818085223436356 0.0037589604035019875 0.0 0.0 0.0 0.0
0.347 0.8955425024032593 -0.4281131327152252 -0.0070263976231217384 0.00400113221257925 0.0 0.0 0.0 0.0
0.348 0.8946164846420288 -0.4289301037788391 -0.006881267763674259 0.004218243062496185 0.0 0.0 0.0 0.0
0.349 0.893837034702301 -0.43118733167648315 -0.006796944886445999 0.004420938901603222 0.0 0.0 0.0 0.0
0.35 0.8938634395599365 -0.4305298924446106 -0.006665928289294243 0.004618705250322819 0.0 0.0 0.0 0.0
0.351 0.8929578065872192 -0.4324239492416382 -0.006567727774381638 0.004893355071544647 0.0 0.0 0.0 0.0
0.352 0.8924522399902344 -0.4339849054813385 -0.006443839520215988 0.005078732036054134 0.0 0.0 0.0 0.0
0.353 0.8930427432060242 -0.43481263518333435 -0.006348572671413422 0.005273777991533279 0.0 0.0 0.0 0.0
0.354 0.8926344513893127 -0.4350513219833374 -0.0062048472464084625 0.005510356277227402 0.0 0.0 0.0 0.0
0.355 0.8916524052619934 -0.4371218979358673 -0.006098845042288303 0.005702788941562176 0.0 0.0 0.0 0.0
0.356 0.8911563158035278 -0.43770450353622437 -0.0059163738042116165 0.005903346464037895 0.0 0.0 0.0 0.0
0.357 0.8907780051231384 -0.43797948956489563 -0.005762534216046333 0.006132130511105061 0.0 0.0 0.0 0.0
0.358 0.8905937075614929 -0.43973302841186523 -0.005635601468384266 0.006298773922026157 0.0 0.0 0.0 0.0
0.359 0.8901448845863342 -0.44051238894462585 -0.0054413387551903725 0.006506906822323799 0.0 0.0 0.0 0.0
0.36 0.889637291431427 -0.4413004219532013 -0.00526793859899044 0.006706747226417065 0.0 0.0 0.0 0.0
0.361 0.8893160820007324 -0.4432336688041687 -0.005081633105874062 0.006913626566529274 0.0 0.0 0.0 0.0
0.362 0.8893112540245056 -0.4434860944747925 -0.004942016676068306 0.0070904698222875595 0.0 0.0 0.0 0.0
0.363 0.8880932331085205 -0.4445200264453888 -0.004714934155344963 0.007293109782040119 0.0 0.0 0.0 0.0
0.364 0.8879159688949585 -0.4462297558784485 -0.0045209648087620735 0.007470747455954552 0.0 0.0 0.0 0.0
0.365 0.8875043392181396 -0.4477747678756714 -0.004332556389272213 0.007691271603107452 0.0 0.0 0.0 0.0
0.366 0.8871630430221558 -0.44779300689697266 -0.004138222895562649 0.007871676236391068 0.0 0.0 0.0 0.0
0.367 0.8864928483963013 -0.44922491908073425 -0.003873037174344063 0.008050932548940182 0.0 0.0 0.0 0.0
0.368 0.8863311409950256 -0.4503893256187439 -0.0036469073966145515 0.008211590349674225 0.0 0.0 0.0 0.0
0.369 0.8854573965072632 -0.45052337646484375 -0.0033988775685429573 0.008379636332392693 0.0 0.0 0.0 0.0
0.37 0.8853424787521362 -0.4522657096385956 -0.0031662648543715477 0.008552590385079384 0.0 0.0 0.0 0.0
0.371 0.8851547241210938 -0.4536556899547577 -0.002914424054324627 0.008714060299098492 0.0 0.0 0.0 0.0
0.372 0.8839790225028992 -0.4545802175998688 -0.002639944665133953 0.008883480913937092 0.0 0.0 0.0 0.0
0.373 0.8839107155799866 -0.4564070403575897 -0.0023621339350938797 0.009036398492753506 0.0 0.0 0.0 0.0
0.374 0.8840416669845581 -0.4564862847328186 -0.002105209045112133 0.00916672870516777 0.0 0.0 0.0 0.0
0.375 0.8830207586288452 -0.4574497938156128 -0.001769576221704483 0.00926610454916954 0.0 0.0 0.0 0.0
0.376 0.883446216583252 -0.45861902832984924 -0.001493115909397602 0.009392427280545235 0.0 0.0 0.0 0.0
0.377 0.882878303527832 -0.4602382481098175 -0.0011565852910280228 0.009509007446467876 0.0 0.0 0.0 0.0
0.378 0.8827416300773621 -0.4607466459274292 -0.0008217347785830498 0.00962809193879366 0.0 0.0 0.0 0.0
0.379 0.8819329142570496 -0.4622190594673157 -0.0005226675420999527 0.009697254747152328 0.0 0.0 0.0 0.0
0.38 0.8815142512321472 -0.4632031321525574 -0.00018875766545534134 0.009766917675733566 0.0 0.0 0.0 0.0
0.381 0.8803853988647461 -0.4638640880584717 0.00017696991562843323 0.009835077449679375 0.0 0.0 0.0 0.0
0.382 0.8800705671310425 -0.46573173999786377 0.0005274396389722824 0.009911553002893925 0.0 0.0 0.0 0.0
0.383 0.8803980350494385 -0.4657208323478699 0.0008738376200199127 0.009895442053675652 0.0 0.0 0.0 0.0
0.384 0.8806422352790833 -0.46717435121536255 0.0012359591200947762 0.0099443094804883 0.0 0.0 0.0 0.0
0.385 0.8794249296188354 -0.46875134110450745 0.0016171569004654884 0.00994895864278078 0.0 0.0 0.0 0.0
0.386 0.8788816928863525 -0.46896201372146606 0.0020170975476503372 0.009951595216989517 0.0 0.0 0.0 0.0
0.387 0.8784321546554565 -0.47018590569496155 0.0023519471287727356 0.009958207607269287 0.0 0.0 0.0 0.0
0.388 0.8781228065490723 -0.47231990098953247 0.002720274031162262 0.009860743768513203 0.0 0.0 0.0 0.0
0.389 0.877812922000885 -0.4721967875957489 0.0031249700114130974 0.009833548218011856 0.0 0.0 0.0 0.0
0.39 0.8775457739830017 -0.47345197200775146 0.003499697893857956 0.00974892545491457 0.0 0.0 0.0 0.0
0.391 0.8771007061004639 -0.47445428371429443 0.003859340213239193 0.009649395011365414 0.0 0.0 0.0 0.0
0.392 0.8772585988044739 -0.4750472903251648 0.004205680452287197 0.009535321034491062 0.0 0.0 0.0 0.0
0.393 0.8755183815956116 -0.4763967990875244 0.004590115509927273 0.009425841271877289 0.0 0.0 0.0 0.0
0.394 0.8754042983055115 -0.4781098961830139 0.004973721690475941 0.009289044886827469 0.0 0.0 0.0 0.0
0.395 0.8755412101745605 -0.4791093170642853 0.005312819965183735 0.009108200669288635 0.0 0.0 0.0 0.0
0.396 0.8749681711196899 -0.47890183329582214 0.00568642932921648 0.008927621878683567 0.0 0.0 0.0 0.0
0.397 0.8737467527389526 -0.4807300269603729 0.006023104302585125 0.00874754786491394 0.0 0.0 0.0 0.0
0.398 0.8737937808036804 -0.48221129179000854 0.006377259269356728 0.008513777516782284 0.0 0.0 0.0 0.0
0.399 0.8739526271820068 -0.4828348755836487 0.006679515354335308 0.008303412236273289 0.0 0.0 0.0 0.0
0.4 0.8726116418838501 -0.48396867513656616 0.00701714213937521 0.008089926093816757 0.0 0.0 0.0 0.0
0.401 0.8723321557044983 -0.48530900478363037 0.0072749899700284 0.007853196933865547 0.0 0.0 0.0 0.0
0.402 0.8720620274543762 -0.48665764927864075 0.007602555677294731 0.007576482370495796 0.0 0.0 0.0 0.0
0.403 0.8722309470176697 -0.48626837134361267 0.007882959209382534 0.007268746383488178 0.0 0.0 0.0 0.0
0.404 0.8707051873207092 -0.48841166496276855 0.008158430457115173 0.00699747446924448 0.0 0.0 0.0 0.0
0.405 0.8713005185127258 -0.48953983187675476 0.008379371836781502 0.006715085357427597 0.0 0.0 0.0 0.0
0.406 0.8708662390708923 -0.48972856998443604 0.00865543819963932 0.00637282058596611 0.0 0.0 0.0 0.0
0.407 0.869475245475769 -0.49089500308036804 0.0089043527841568 0.006072099320590496 0.0 0.0 0.0 0.0
0.408 0.8696826100349426 -0.49297866225242615 0.009097677655518055 0.005764295347034931 0.0 0.0 0.0 0.0
0.409 0.8695288896560669 -0.4925205111503601 0.009294341318309307 0.005439835600554943 0.0 0.0 0.0 0.0
0.41 0.8691886067390442 -0.4934900104999542 0.009494953788816929 0.005088992416858673 0.0 0.0 0.0 0.0
0.411 0.8682507872581482 -0.49560216069221497 0.009659046307206154 0.004752080887556076 0.0 0.0 0.0 0.0
0.412 0.8678464889526367 -0.4968535304069519 0.009799927473068237 0.0044046128168702126 0.0 0.0 0.0 0.0
0.413 0.8676199316978455 -0.4975978434085846 0.009961995296180248 0.004042427055537701 0.0 0.0 0.0 0.0
0.414 0.8661064505577087 -0.49818336963653564 0.010114544071257114 0.0037295371294021606 0.0 0.0 0.0 0.0
0.415 0.86618572473526 -0.5000244975090027 0.010211949236690998 0.0033808620646595955 0.0 0.0 0.0 0.0
0.416 0.8668587803840637 -0.5007234811782837 0.010294641368091106 0.0030076634138822556 0.0 0.0 0.0 0.0
0.417 0.8659476041793823 -0.5013425350189209 0.010395163670182228 0.002643144689500332 0.0 0.0 0.0 0.0
0.418 0.8655812740325928 -0.5024354457855225 0.010503904893994331 0.002294541336596012 0.0 0.0 0.0 0.0
0.419 0.8651688694953918 -0.5034241080284119 0.010584023781120777 0.0019491659477353096 0.0 0.0 0.0 0.0
0.42 0.864063560962677 -0.5046777725219727 0.010601864196360111 0.0016050199046730995 0.0 0.0 0.0 0.0
0.421 0.8636845350265503 -0.5058063268661499 0.010644622147083282 0.0012441296130418777 0.0 0.0 0.0 0.0
0.422 0.8633615374565125 -0.5067660212516785 0.010685165412724018 0.000886695459485054 0.0 0.0 0.0 0.0
0.423 0.863240122795105 -0.5081595778465271 0.010699003003537655 0.0005290769040584564 0.0 0.0 0.0 0.0
0.424 0.862900972366333 -0.5090247988700867 0.010704654268920422 0.00018747709691524506 0.0 0.0 0.0 0.0
0.425 0.8618260622024536 -0.5096558928489685 0.010713181458413601 -0.00010491907596588135 0.0 0.0 0.0 0.0
0.426 0.8619853258132935 -0.5113574266433716 0.010728275403380394 -0.0005039386451244354 0.0 0.0 0.0 0.0
0.427 0.8613600134849548 -0.5121626853942871 0.010699912905693054 -0.000843532383441925 0.0 0.0 0.0 0.0
0.428 0.861005961894989 -0.5128608345985413 0.010671284981071949 -0.0011768769472837448 0.0 0.0 0.0 0.0
0.429 0.8604638576507568 -0.5138490200042725 0.010646946728229523 -0.001496993936598301 0.0 0.0 0.0 0.0
0.43 0.8601117730140686 -0.5154077410697937 0.010577891021966934 -0.0018794061616063118 0.0 0.0 0.0 0.0
0.431 0.8597262501716614 -0.5168630480766296 0.010496150702238083 -0.0021756356582045555 0.0 0.0 0.0 0.0
0.432 0.8581745028495789 -0.5172632932662964 0.010448206216096878 -0.002529403194785118 0.0 0.0 0.0 0.0
0.433 0.8584380149841309 -0.518812358379364 0.010361541993916035 -0.0028314413502812386 0.0 0.0 0.0 0.0
0.434 0.8579904437065125 -0.5194728374481201 0.010299040004611015 -0.003175821155309677 0.0 0.0 0.0 0.0
0.435 0.8576586842536926 -0.5202609300613403 0.010211166925728321 -0.0034761792048811913 0.0 0.0 0.0 0.0
0.436 0.8576290011405945 -0.5214546918869019 0.010095247067511082 -0.003829709254205227 0.0 0.0 0.0 0.0
0.437 0.8571321368217468 -0.5223259925842285 0.010022162459790707 -0.004113561473786831 0.0 0.0 0.0 0.0
0.438 0.8568213582038879 -0.5229740738868713 0.009897204115986824 -0.0044552115723490715 0.0 0.0 0.0 0.0
0.439 0.8560277223587036 -0.5241475105285645 0.009774246253073215 -0.004756416194140911 0.0 0.0 0.0 0.0
0.44 0.8555325269699097 -0.525081217288971 0.009656592272222042 -0.0050786202773451805 0.0 0.0 0.0 0.0
0.441 0.8552619218826294 -0.52616947889328 0.009494926780462265 -0.005401525646448135 0.0 0.0 0.0 0.0
0.442 0.8546829223632812 -0.5281110405921936 0.009321533143520355 -0.005700514651834965 0.0 0.0 0.0 0.0
0.443 0.8545514941215515 -0.5290100574493408 0.009184672497212887 -0.006033767014741898 0.0 0.0 0.0 0.0
0.444 0.8537892699241638 -0.5294499397277832 0.009057125076651573 -0.00631294772028923 0.0 0.0 0.0 0.0
0.445 0.8533205986022949 -0.530407726764679 0.008827830664813519 -0.006636812351644039 0.0 0.0 0.0 0.0
0.446 0.8537607789039612 -0.5315752625465393 0.00864159595221281 -0.006940988823771477 0.0 0.0 0.0 0.0
0.447 0.8522858023643494 -0.5329548716545105 0.008450772613286972 -0.007205117493867874 0.0 0.0 0.0 0.0
0.448 0.851980984210968 -0.5335124135017395 0.008252477273344994 -0.007518676109611988 0.0 0.0 0.0 0.0
0.449 0.8509708046913147 -0.5356371402740479 0.008032506331801414 -0.007804666645824909 0.0 0.0 0.0 0.0
0.45 0.8509747385978699 -0.5363437533378601 0.00782585609704256 -0.008084667846560478 0.0 0.0 0.0 0.0
0.451 0.851302444934845 -0.5361412167549133 0.007593843154609203 -0.008356967009603977 0.0 0.0 0.0 0.0
0.452 0.8501882553100586 -0.5382102131843567 0.007327141240239143 -0.008635981008410454 0.0 0.0 0.0 0.0
0.453 0.8502469658851624 -0.5384776592254639 0.0070871626958251 -0.008926408365368843 0.0 0.0 0.0 0.0
0.454 0.8499115109443665 -0.5396174192428589 0.006805727258324623 -0.009202472865581512 0.0 0.0 0.0 0.0
0.455 0.8490383625030518 -0.5405399799346924 0.006515461951494217 -0.009456148371100426 0.0 0.0 0.0 0.0
0.456 0.8481805920600891 -0.542963445186615 0.0062326109036803246 -0.009688871912658215 0.0 0.0 0.0 0.0
0.457 0.8484640121459961 -0.5422889590263367 0.005934903398156166 -0.009930872358381748 0.0 0.0 0.0 0.0
0.458 0.847814679145813 -0.5435184836387634 0.00563269667327404 -0.010182444006204605 0.0 0.0 0.0 0.0
0.459 0.8480026721954346 -0.5456318259239197 0.005335791036486626 -0.010444948449730873 0.0 0.0 0.0 0.0
0.46 0.8473977446556091 -0.5459433197975159 0.004963313229382038 -0.010622767731547356 0.0 0.0 0.0 0.0
0.461 0.8464319705963135 -0.5467827916145325 0.004635026678442955 -0.010849970392882824 0.0 0.0 0.0 0.0
0.462 0.8462564945220947 -0.5479766726493835 0.004286114126443863 -0.011048633605241776 0.0 0.0 0.0 0.0
0.463 0.846671998500824 -0.5492790341377258 0.00391797348856926 -0.011212635785341263 0.0 0.0 0.0 0.0
0.464 0.8453813791275024 -0.5497823357582092 0.003490827977657318 -0.011369380168616772 0.0 0.0 0.0 0.0
0.465 0.845235288143158 -0.5510490536689758 0.0031355926766991615 -0.011581065133213997 0.0 0.0 0.0 0.0
0.466 0.8442882895469666 -0.5526090264320374 0.0027014687657356262 -0.011705579236149788 0.0 0.0 0.0 0.0
0.467 0.8445473909378052 -0.5524654984474182 0.002327272668480873 -0.01181411650031805 0.0 0.0 0.0 0.0
0.468 0.8432365655899048 -0.5535780191421509 0.0018805935978889465 -0.011945867910981178 0.0 0.0 0.0 0.0
0.469 0.8435472846031189 -0.5548744797706604 0.0014719218015670776 -0.012061926536262035 0.0 0.0 0.0 0.0
0.47 0.8428489565849304 -0.5567898750305176 0.0010467087849974632 -0.01211131177842617 0.0 0.0 0.0 0.0
0.471 0.8427659869194031 -0.5574260354042053 0.0006214035674929619 -0.012173779308795929 0.0 0.0 0.0 0.0
0.472 0.8415769338607788 -0.5585497617721558 0.00016761478036642075 -0.01221384759992361 0.0 0.0 0.0 0.0
0.473 0.8413781523704529 -0.5602839589118958 -0.0002983957529067993 -0.01225903071463108 0.0 0.0 0.0 0.0
0.474 0.8420770168304443 -0.5586805939674377 -0.000672580674290657 -0.012265224941074848 0.0 0.0 0.0 0.0
0.475 0.8407431244850159 -0.5607454180717468 -0.0011509470641613007 -0.012261312454938889 0.0 0.0 0.0 0.0
0.476 0.8404150009155273 -0.5620430707931519 -0.0016200719401240349 -0.012228981591761112 0.0 0.0 0.0 0.0
0.477 0.8397919535636902 -0.564251184463501 -0.002063388004899025 -0.012203482910990715 0.0 0.0 0.0 0.0
0.478 0.8400927186012268 -0.5638948082923889 -0.00249453354626894 -0.012122229672968388 0.0 0.0 0.0 0.0
0.479 0.8383278846740723 -0.5663309097290039 -0.0029695238918066025 -0.012022819370031357 0.0 0.0 0.0 0.0
0.48 0.8385542035102844 -0.5673633813858032 -0.0033869538456201553 -0.011906707659363747 0.0 0.0 0.0 0.0
0.481 0.8384736180305481 -0.5672011971473694 -0.0038034524768590927 -0.011799870058894157 0.0 0.0 0.0 0.0
0.482 0.8377524018287659 -0.5682088136672974 -0.004245433956384659 -0.011655188165605068 0.0 0.0 0.0 0.0
0.483 0.8366973400115967 -0.5699151754379272 -0.0046377647668123245 -0.011460027657449245 0.0 0.0 0.0 0.0
0.484 0.8368710279464722 -0.5701709985733032 -0.005049586296081543 -0.011290510185062885 0.0 0.0 0.0 0.0
0.485 0.8358772993087769 -0.5714262127876282 -0.005472750402987003 -0.01109937485307455 0.0 0.0 0.0 0.0
0.486 0.8361279964447021 -0.5725181698799133 -0.005856078118085861 -0.010912062600255013 0.0 0.0 0.0 0.0
0.487 0.8353719711303711 -0.5740938782691956 -0.006218854337930679 -0.010672829113900661 0.0 0.0 0.0 0.0
0.488 0.8350471258163452 -0.5747762322425842 -0.006587540730834007 -0.010411327704787254 0.0 0.0 0.0 0.0
0.489 0.8349599838256836 -0.5754526853561401 -0.006910672411322594 -0.010205398313701153 0.0 0.0 0.0 0.0
0.49 0.8340887427330017 -0.5772836804389954 -0.00726335309445858 -0.009915524162352085 0.0 0.0 0.0 0.0
0.491 0.8334808945655823 -0.5774731636047363 -0.007606253959238529 -0.00963542889803648 0.0 0.0 0.0 0.0
0.492 0.8329492807388306 -0.578130304813385 -0.007940305396914482 -0.00935965497046709 0.0 0.0 0.0 0.0
0.493 0.8328080773353577 -0.579548180103302 -0.00821137148886919 -0.009082968346774578 0.0 0.0 0.0 0.0
0.494 0.8326646685600281 -0.5808364152908325 -0.008516591042280197 -0.008769701234996319 0.0 0.0 0.0 0.0
0.495 0.8314459919929504 -0.5817382335662842 -0.00879641529172659 -0.00846665445715189 0.0 0.0 0.0 0.0
0.496 0.8310635685920715 -0.5833296179771423 -0.009040260687470436 -0.008122613653540611 0.0 0.0 0.0 0.0
0.497 0.8311896920204163 -0.5842198729515076 -0.009286146610975266 -0.007825322449207306 0.0 0.0 0.0 0.0
0.498 0.8310244679450989 -0.5848579406738281 -0.009529910050332546 -0.007479362189769745 0.0 0.0 0.0 0.0
0.499 0.8292787075042725 -0.5864414572715759 -0.009729171171784401 -0.007162042893469334 0.0 0.0 0.0 0.0
0.5 0.8295114040374756 -0.5880702137947083 -0.009953327476978302 -0.006797857582569122 0.0 0.0 0.0 0.0
0.501 0.8297341465950012 -0.5877834558486938 -0.010105656459927559 -0.006490500643849373 0.0 0.0 0.0 0.0
0.502 0.8285127878189087 -0.5887662768363953 -0.010305958800017834 -0.006132888607680798 0.0 0.0 0.0 0.0
0.503 0.8279592394828796 -0.5909674167633057 -0.010506012476980686 -0.0058143120259046555 0.0 0.0 0.0 0.0
0.504 0.8277982473373413 -0.5917997360229492 -0.010646591894328594 -0.005437600426375866 0.0 0.0 0.0 0.0
0.505 0.8275353312492371 -0.5920338034629822 -0.010795150883495808 -0.005099210888147354 0.0 0.0 0.0 0.0
0.506 0.8263368010520935 -0.5936108231544495 -0.010908128693699837 -0.004763470031321049 0.0 0.0 0.0 0.0
0.507 0.8268522620201111 -0.5945046544075012 -0.011048998683691025 -0.004409526474773884 0.0 0.0 0.0 0.0
0.508 0.8251532912254333 -0.5957047939300537 -0.01114619430154562 -0.004032444208860397 0.0 0.0 0.0 0.0
0.509 0.8252389430999756 -0.5967861413955688 -0.01123887486755848 -0.0037286225706338882 0.0 0.0 0.0 0.0
0.51 0.8257935643196106 -0.5972934365272522 -0.011345693841576576 -0.0033849310129880905 0.0 0.0 0.0 0.0
0.511 0.8246127367019653 -0.5983642339706421 -0.011429648846387863 -0.003046792931854725 0.0 0.0 0.0 0.0
0.512 0.8239070177078247 -0.5997576117515564 -0.011484715156257153 -0.0026539284735918045 0.0 0.0 0.0 0.0
0.513 0.8233416676521301 -0.601157009601593 -0.011524010449647903 -0.002362682484090328 0.0 0.0 0.0 0.0
0.514 0.8231092095375061 -0.6016016602516174 -0.011607373133301735 -0.001983772963285446 0.0 0.0 0.0 0.0
0.515 0.8223604559898376 -0.6032037138938904 -0.011635322123765945 -0.0016707256436347961 0.0 0.0 0.0 0.0
0.516 0.8213167190551758 -0.6049646139144897 -0.011682235635817051 -0.0012870477512478828 0.0 0.0 0.0 0.0
0.517 0.8210836052894592 -0.6051152944564819 -0.01169403363019228 -0.000980365090072155 0.0 0.0 0.0 0.0
0.518 0.8206364512443542 -0.6062904000282288 -0.011754260398447514 -0.0006153834983706474 0.0 0.0 0.0 0.0
0.519 0.8205959796905518 -0.6071351766586304 -0.011769762262701988 -0.00028985273092985153 0.0 0.0 0.0 0.0
0.52 0.8202239871025085 -0.6081945300102234 -0.011753247119486332 3.233086317777634e-05 0.0 0.0 0.0 0.0
0.521 0.8194359540939331 -0.6093747019767761 -0.01178041286766529 0.0003780703991651535 0.0 0.0 0.0 0.0
0.522 0.8191457390785217 -0.6097114682197571 -0.011760195717215538 0.0007431879639625549 0.0 0.0 0.0 0.0
0.523 0.8189679384231567 -0.6121182441711426 -0.011755788698792458 0.001031162217259407 0.0 0.0 0.0 0.0
0.524 0.8185614347457886 -0.6121410131454468 -0.011743452399969101 0.0013858992606401443 0.0 0.0 0.0 0.0
0.525 0.817672073841095 -0.6130349040031433 -0.0117165083065629 0.0017243633046746254 0.0 0.0 0.0 0.0
0.526 0.8174520134925842 -0.6146043539047241 -0.01168608944863081 0.0020538559183478355 0.0 0.0 0.0 0.0
0.527 0.8169417977333069 -0.6157643795013428 -0.01164669543504715 0.0024140216410160065 0.0 0.0 0.0 0.0
0.528 0.8168172836303711 -0.61644047498703 -0.011619001626968384 0.002745675854384899 0.0 0.0 0.0 0.0
0.529 0.8153400421142578 -0.6181948781013489 -0.011560101993381977 0.003108798526227474 0.0 0.0 0.0 0.0
0.53 0.8161359429359436 -0.6184338331222534 -0.011497973464429379 0.0033925510942935944 0.0 0.0 0.0 0.0
0.531 0.814638614654541 -0.6197633147239685 -0.011446908116340637 0.0037787575274705887 0.0 0.0 0.0 0.0
0.532 0.813678503036499 -0.6209231615066528 -0.011360310949385166 0.004113079980015755 0.0 0.0 0.0 0.0
0.533 0.8137199282646179 -0.6219014525413513 -0.011256053112447262 0.00442106369882822 0.0 0.0 0.0 0.0
0.534 0.8139220476150513 -0.6227272748947144 -0.01116390060633421 0.004773843102157116 0.0 0.0 0.0 0.0
0.535 0.8128038644790649 -0.6237480044364929 -0.01108585949987173 0.00512673519551754 0.0 0.0 0.0 0.0
0.536 0.8122750520706177 -0.6251243352890015 -0.010932779870927334 0.005465478636324406 0.0 0.0 0.0 0.0
0.537 0.8115338087081909 -0.6265859603881836 -0.010845763608813286 0.005826094187796116 0.0 0.0 0.0 0.0
0.538 0.8113817572593689 -0.6264950037002563 -0.010732433758676052 0.0061478205025196075 0.0 0.0 0.0 0.0
0.539 0.8100988864898682 -0.628397524356842 -0.010580277070403099 0.006547490134835243 0.0 0.0 0.0 0.0
0.54 0.8113148212432861 -0.629214882850647 -0.010422855615615845 0.006846253760159016 0.0 0.0 0.0 0.0
0.541 0.8102900981903076 -0.6302696466445923 -0.010281861759722233 0.007185457274317741 0.0 0.0 0.0 0.0
0.542 0.8092107772827148 -0.6303877234458923 -0.010093347169458866 0.007520618848502636 0.0 0.0 0.0 0.0
0.543 0.8091077208518982 -0.633065402507782 -0.009947390295565128 0.007894941605627537 0.0 0.0 0.0 0.0
0.544 0.8086331486701965 -0.6337035894393921 -0.009747298434376717 0.008237350732088089 0.0 0.0 0.0 0.0
0.545 0.808325469493866 -0.6337801218032837 -0.009538738057017326 0.008573577739298344 0.0 0.0 0.0 0.0
0.546 0.8071833848953247 -0.6358085870742798 -0.009293312206864357 0.008955308236181736 0.0 0.0 0.0 0.0
0.547 0.806603729724884 -0.6373714208602905 -0.009069775231182575 0.009298555552959442 0.0 0.0 0.0 0.0
0.548 0.8059983849525452 -0.6376273036003113 -0.008830936625599861 0.009616031311452389 0.0 0.0 0.0 0.0
0.549 0.8056618571281433 -0.6394140720367432 -0.00858668889850378 0.00995687022805214 0.0 0.0 0.0 0.0
0.55 0.8052171468734741 -0.6405372619628906 -0.008293729275465012 0.010271026752889156 0.0 0.0 0.0 0.0
0.551 0.805018424987793 -0.6405445337295532 -0.008034567348659039 0.010614966042339802 0.0 0.0 0.0 0.0
0.552 0.8046948313713074 -0.6424359083175659 -0.0077127935364842415 0.010938173159956932 0.0 0.0 0.0 0.0
0.553 0.8038142919540405 -0.6434553861618042 -0.007384739816188812 0.011266171932220459 0.0 0.0 0.0 0.0
0.554 0.8036646842956543 -0.6437466740608215 -0.0070918649435043335 0.011558600701391697 0.0 0.0 0.0 0.0
0.555 0.8022193908691406 -0.645241379737854 -0.006680326536297798 0.011867238208651543 0.0 0.0 0.0 0.0
0.556 0.801439106464386 -0.6471918821334839 -0.006342843174934387 0.012154819443821907 0.0 0.0 0.0 0.0
0.557 0.8021087646484375 -0.647266149520874 -0.005941575393080711 0.012437043711543083 0.0 0.0 0.0 0.0
0.558 0.8007456064224243 -0.6479098200798035 -0.005581763572990894 0.01271165069192648 0.0 0.0 0.0 0.0
0.559 0.8000717759132385 -0.6492531299591064 -0.005154917947947979 0.012967733666300774 0.0 0.0 0.0 0.0
0.56 0.7999561429023743 -0.6505782604217529 -0.004741169512271881 0.013208870775997639 0.0 0.0 0.0 0.0
0.561 0.7993788719177246 -0.6519618630409241 -0.004282702691853046 0.01346155907958746 0.0 0.0 0.0 0.0
0.562 0.7984586954116821 -0.6538793444633484 -0.0038274936378002167 0.013650680892169476 0.0 0.0 0.0 0.0
0.563 0.7989339232444763 -0.6533534526824951 -0.0033459914848208427 0.013854790478944778 0.0 0.0 0.0 0.0
0.564 0.7986900210380554 -0.6537476778030396 -0.0029167113825678825 0.014025784097611904 0.0 0.0 0.0 0.0
0.565 0.7971112728118896 -0.6562938094139099 -0.0023894431069493294 0.014187123626470566 0.0 0.0 0.0 0.0
0.566 0.7973218560218811 -0.6571689248085022 -0.001925378106534481 0.014373695477843285 0.0 0.0 0.0 0.0
0.567 0.7964100241661072 -0.6581659317016602 -0.0013890722766518593 0.014440217055380344 0.0 0.0 0.0 0.0
0.568 0.7956689596176147 -0.6587549448013306 -0.0008658412843942642 0.014560125768184662 0.0 0.0 0.0 0.0
0.569 0.7963007688522339 -0.6596841216087341 -0.00035243574529886246 0.01464043091982603 0.0 0.0 0.0 0.0
0.57 0.7943219542503357 -0.6606833338737488 0.00018036365509033203 0.014667858369648457 0.0 0.0 0.0 0.0
0.571 0.7943772673606873 -0.6626042723655701 0.000714925117790699 0.014725393615663052 0.0 0.0 0.0 0.0
0.572 0.7938405871391296 -0.6631027460098267 0.001271233893930912 0.014725110493600368 0.0 0.0 0.0 0.0
0.573 0.792958676815033 -0.6636485457420349 0.0018186215311288834 0.014702427200973034 0.0 0.0 0.0 0.0
0.574 0.7919988632202148 -0.6663028001785278 0.0023529985919594765 0.01468738168478012 0.0 0.0 0.0 0.0
0.575 0.792195200920105 -0.666954755783081 0.0028882017359137535 0.014627626165747643 0.0 0.0 0.0 0.0
0.576 0.7931946516036987 -0.6676681041717529 0.0034090084955096245 0.014581364579498768 0.0 0.0 0.0 0.0
0.577 0.7917496562004089 -0.6687078475952148 0.00392208993434906 0.014433152042329311 0.0 0.0 0.0 0.0
0.578 0.7911211252212524 -0.6691449284553528 0.004460549913346767 0.014309433288872242 0.0 0.0 0.0 0.0
0.579 0.7901006937026978 -0.6713127493858337 0.005094820633530617 0.014165538363158703 0.0 0.0 0.0 0.0
0.58 0.7899968028068542 -0.6710229516029358 0.005637666210532188 0.01401719730347395 0.0 0.0 0.0 0.0
0.581 0.7889238595962524 -0.6725436449050903 0.006170346401631832 0.01381411962211132 0.0 0.0 0.0 0.0
0.582 0.7884460687637329 -0.6749298572540283 0.006635483354330063 0.013603443279862404 0.0 0.0 0.0 0.0
0.583 0.7879664897918701 -0.6752545237541199 0.00715266726911068 0.013357255607843399 0.0 0.0 0.0 0.0
0.584 0.7876803278923035 -0.6758342981338501 0.007596420124173164 0.013091384433209896 0.0 0.0 0.0 0.0
0.585 0.7872022986412048 -0.677262544631958 0.00805607158690691 0.01283511146903038 0.0 0.0 0.0 0.0
0.586 0.7865716218948364 -0.6789870262145996 0.00847615022212267 0.012538141570985317 0.0 0.0 0.0 0.0
0.587 0.7857140898704529 -0.679259181022644 0.00895144883543253 0.012251822277903557 0.0 0.0 0.0 0.0
0.588 0.7846889495849609 -0.6810420155525208 0.009366480633616447 0.011882864870131016 0.0 0.0 0.0 0.0
0.589 0.7853060960769653 -0.6815845966339111 0.009745778515934944 0.01158232893794775 0.0 0.0 0.0 0.0
0.59 0.7846885919570923 -0.6826810240745544 0.01010495238006115 0.011246534064412117 0.0 0.0 0.0 0.0
0.591 0.7837297916412354 -0.6839281916618347 0.010477307252585888 0.01087179221212864 0.0 0.0 0.0 0.0
0.592 0.7833685874938965 -0.6854647397994995 0.010837053880095482 0.010532657615840435 0.0 0.0 0.0 0.0
0.593 0.7831303477287292 -0.686445415019989 0.01117348950356245 0.010167698375880718 0.0 0.0 0.0 0.0
0.594 0.7820352911949158 -0.6861267685890198 0.011523040011525154 0.009762787260115147 0.0 0.0 0.0 0.0
0.595 0.7818788290023804 -0.6869598031044006 0.011805248446762562 0.009378246031701565 0.0 0.0 0.0 0.0
0.596 0.7803657054901123 -0.6897124648094177 0.012123042717576027 0.008936467580497265 0.0 0.0 0.0 0.0
0.597 0.7810811996459961 -0.6895004510879517 0.01241113618016243 0.00860600546002388 0.0 0.0 0.0 0.0
0.598 0.780117928981781 -0.6911910176277161 0.012667234987020493 0.008156470023095608 0.0 0.0 0.0 0.0
0.599 0.7785710096359253 -0.6928675770759583 0.012898510321974754 0.007764628157019615 0.0 0.0 0.0 0.0
0.6 0.7813729047775269 -0.6946591138839722 0.013137136586010456 0.007355408743023872 0.0 0.0 0.0 0.0
0.601 0.7787734270095825 -0.6938744187355042 0.013371068984270096 0.006909436546266079 0.0 0.0 0.0 0.0
0.602 0.7771800756454468 -0.6957548260688782 0.013619828969240189 0.006476900540292263 0.0 0.0 0.0 0.0
0.603 0.7763498425483704 -0.6969751715660095 0.013849821873009205 0.0060286009684205055 0.0 0.0 0.0 0.0
0.604 0.7769560217857361 -0.6971002817153931 0.014010418206453323 0.0056448522955179214 0.0 0.0 0.0 0.0
0.605 0.7759227752685547 -0.6981239914894104 0.014174853451550007 0.005125272087752819 0.0 0.0 0.0 0.0
0.606 0.775614857673645 -0.7002596259117126 0.014333212748169899 0.004710111767053604 0.0 0.0 0.0 0.0
0.607 0.7752203941345215 -0.7004269361495972 0.014475024305284023 0.004258529283106327 0.0 0.0 0.0 0.0
0.608 0.7742406725883484 -0.7015435695648193 0.014656255953013897 0.00382916908711195 0.0 0.0 0.0 0.0
0.609 0.7733024954795837 -0.703434944152832 0.014771404676139355 0.0033865049481391907 0.0 0.0 0.0 0.0
0.61 0.7728718519210815 -0.7043154835700989 0.01491392683237791 0.0029110340401530266 0.0 0.0 0.0 0.0
0.611 0.7726292610168457 -0.7048500776290894 0.01499862689524889 0.0024264641106128693 0.0 0.0 0.0 0.0
0.612 0.7713154554367065 -0.7069738507270813 0.015102979727089405 0.001966746523976326 0.0 0.0 0.0 0.0
0.613 0.7712162137031555 -0.7075533270835876 0.015158417634665966 0.001494106836616993 0.0 0.0 0.0 0.0
0.614 0.7710102200508118 -0.7080318927764893 0.015281892381608486 0.001015479676425457 0.0 0.0 0.0 0.0
0.615 0.7698715925216675 -0.7098721861839294 0.01532426755875349 0.0005583660677075386 0.0 0.0 0.0 0.0
0.616 0.7696118354797363 -0.7108307480812073 0.015401721931993961 5.159527063369751e-05 0.0 0.0 0.0 0.0
0.617 0.7686067223548889 -0.7119858860969543 0.015408715233206749 -0.0004160245880484581 0.0 0.0 0.0 0.0
0.618 0.7687983512878418 -0.7124140858650208 0.015438216738402843 -0.0008913008496165276 0.0 0.0 0.0 0.0
0.619 0.7679774761199951 -0.7140909433364868 0.015448681078851223 -0.0013778703287243843 0.0 0.0 0.0 0.0
0.62 0.767382800579071 -0.7152177095413208 0.015458027832210064 -0.0018484611064195633 0.0 0.0 0.0 0.0
0.621 0.766974151134491 -0.7151658535003662 0.015432114712893963 -0.002344745211303234 0.0 0.0 0.0 0.0
0.622 0.7657972574234009 -0.7166552543640137 0.01543518528342247 -0.002875039353966713 0.0 0.0 0.0 0.0
0.623 0.7652629017829895 -0.7185513377189636 0.015375507064163685 -0.0033709201961755753 0.0 0.0 0.0 0.0
0.624 0.7643225789070129 -0.7196121215820312 0.015313402749598026 -0.003852889873087406 0.0 0.0 0.0 0.0
0.625 0.7638304829597473 -0.7203058004379272 0.015210285782814026 -0.004355217330157757 0.0 0.0 0.0 0.0
0.626 0.7635743021965027 -0.7218015789985657 0.015131380409002304 -0.004890537820756435 0.0 0.0 0.0 0.0
0.627 0.7632588148117065 -0.7234147787094116 0.015063631348311901 -0.005410849116742611 0.0 0.0 0.0 0.0
0.628 0.763314962387085 -0.7230420708656311 0.014945678412914276 -0.0059433626011013985 0.0 0.0 0.0 0.0
0.629 0.7619106769561768 -0.725256085395813 0.01478637009859085 -0.006456872448325157 0.0 0.0 0.0 0.0
0.63 0.7617769241333008 -0.7250650525093079 0.014644398353993893 -0.0069608744233846664 0.0 0.0 0.0 0.0
0.631 0.7608550786972046 -0.7261391282081604 0.01447630487382412 -0.007470759563148022 0.0 0.0 0.0 0.0
0.632 0.7598365545272827 -0.7283834218978882 0.014252308756113052 -0.0080056581646204 0.0 0.0 0.0 0.0
0.633 0.758499801158905 -0.7288606762886047 0.01409878395497799 -0.008509622886776924 0.0 0.0 0.0 0.0
0.634 0.759030818939209 -0.7295259237289429 0.013790799304842949 -0.009052412584424019 0.0 0.0 0.0 0.0
0.635 0.7580026388168335 -0.7307441830635071 0.013558527454733849 -0.009538346901535988 0.0 0.0 0.0 0.0
0.636 0.7582181692123413 -0.7315738201141357 0.01329259853810072 -0.010022812522947788 0.0 0.0 0.0 0.0
0.637 0.7575110793113708 -0.7328473925590515 0.012985027395188808 -0.010546660050749779 0.0 0.0 0.0 0.0
0.638 0.7564706802368164 -0.7344210743904114 0.01264400128275156 -0.011020921170711517 0.0 0.0 0.0 0.0
0.639 0.7556095123291016 -0.7357301712036133 0.01231913361698389 -0.011543882079422474 0.0 0.0 0.0 0.0
0.64 0.7557977437973022 -0.7355749011039734 0.01197572611272335 -0.012018640525639057 0.0 0.0 0.0 0.0
0.641 0.7553441524505615 -0.7373420000076294 0.011556222103536129 -0.012468243017792702 0.0 0.0 0.0 0.0
0.642 0.7545738220214844 -0.7391061186790466 0.011162534356117249 -0.012998837046325207 0.0 0.0 0.0 0.0
0.643 0.7540954351425171 -0.7405263185501099 0.010679913684725761 -0.013417478650808334 0.0 0.0 0.0 0.0
0.644 0.7539818286895752 -0.7396864295005798 0.0102717699483037 -0.013800764456391335 0.0 0.0 0.0 0.0
0.645 0.7527338266372681 -0.7421779036521912 0.009778470732271671 -0.014250464737415314 0.0 0.0 0.0 0.0
0.646 0.7526146173477173 -0.7431507706642151 0.009276065975427628 -0.01464156899601221 0.0 0.0 0.0 0.0
0.647 0.7521142959594727 -0.7436212301254272 0.008736635558307171 -0.01500257384032011 0.0 0.0 0.0 0.0
0.648 0.7514008283615112 -0.7472301721572876 0.008178043179214 -0.015424960292875767 0.0 0.0 0.0 0.0
0.649 0.7502544522285461 -0.7461065649986267 0.0076582226902246475 -0.01570100151002407 0.0 0.0 0.0 0.0
0.65 0.7502089142799377 -0.7463923096656799 0.00707598403096199 -0.015975434333086014 0.0 0.0 0.0 0.0
0.651 0.7487674951553345 -0.7482650279998779 0.006472216919064522 -0.016302429139614105 0.0 0.0 0.0 0.0
0.652 0.747968852519989 -0.7497625350952148 0.005903944373130798 -0.016532767564058304 0.0 0.0 0.0 0.0
0.653 0.7483307123184204 -0.7495971918106079 0.00529348012059927 -0.016742397099733353 0.0 0.0 0.0 0.0
0.654 0.7482768893241882 -0.750548779964447 0.004664023406803608 -0.016990650445222855 0.0 0.0 0.0 0.0
0.655 0.7457940578460693 -0.753042995929718 0.004006722941994667 -0.017150400206446648 0.0 0.0 0.0 0.0
0.656 0.745914876461029 -0.7530014514923096 0.0033930521458387375 -0.017251165583729744 0.0 0.0 0.0 0.0
0.657 0.7459946274757385 -0.7547663450241089 0.0027163876220583916 -0.017424091696739197 0.0 0.0 0.0 0.0
0.658 0.7446622848510742 -0.7559572458267212 0.0020666057243943214 -0.017472658306360245 0.0 0.0 0.0 0.0
0.659 0.7439525127410889 -0.7574093341827393 0.0013728421181440353 -0.01749502308666706 0.0 0.0 0.0 0.0
0.66 0.7441802620887756 -0.7566220760345459 0.0007540648803114891 -0.017572861164808273 0.0 0.0 0.0 0.0
0.661 0.7424945831298828 -0.7590488195419312 0.00010074954479932785 -0.01755010522902012 0.0 0.0 0.0 0.0
0.662 0.7420506477355957 -0.7603292465209961 -0.0005480051040649414 -0.01753818430006504 0.0 0.0 0.0 0.0
0.663 0.7411799430847168 -0.7608454823493958 -0.001187681220471859 -0.017451779916882515 0.0 0.0 0.0 0.0
0.664 0.7407848238945007 -0.7616912722587585 -0.0017879065126180649 -0.017407631501555443 0.0 0.0 0.0 0.0
0.665 0.7395979762077332 -0.7641114592552185 -0.0024114083498716354 -0.017290515825152397 0.0 0.0 0.0 0.0
0.666 0.7410178780555725 -0.7620417475700378 -0.0030028512701392174 -0.017193887382745743 0.0 0.0 0.0 0.0
0.667 0.7390501499176025 -0.7651672959327698 -0.003633554093539715 -0.017016489058732986 0.0 0.0 0.0 0.0
0.668 0.7385759353637695 -0.7669068574905396 -0.004229733720421791 -0.01681585982441902 0.0 0.0 0.0 0.0
0.669 0.738211989402771 -0.7676563858985901 -0.004792314022779465 -0.016599617898464203 0.0 0.0 0.0 0.0
0.67 0.7364600300788879 -0.7691988348960876 -0.005389118567109108 -0.016375180333852768 0.0 0.0 0.0 0.0
0.671 0.7360520958900452 -0.770098865032196 -0.005943405441939831 -0.016141898930072784 0.0 0.0 0.0 0.0
0.672 0.7392225861549377 -0.7732770442962646 -0.00634313840419054 -0.015948409214615822 0.0 0.0 0.0 0.0
0.673 0.7364027500152588 -0.7713982462882996 -0.006925652734935284 -0.015640204772353172 0.0 0.0 0.0 0.0
0.674 0.7340802550315857 -0.7729902267456055 -0.007444426417350769 -0.015319016762077808 0.0 0.0 0.0 0.0
0.675 0.7330279350280762 -0.7753180861473083 -0.007971850223839283 -0.014997240155935287 0.0 0.0 0.0 0.0
0.676 0.7340507507324219 -0.7742921710014343 -0.008414587937295437 -0.01468912698328495 0.0 0.0 0.0 0.0
0.677 0.734106719493866 -0.7750649452209473 -0.008840078487992287 -0.014366949908435345 0.0 0.0 0.0 0.0
0.678 0.7306230664253235 -0.778105616569519 -0.009320122189819813 -0.014016314409673214 0.0 0.0 0.0 0.0
0.679 0.7317450046539307 -0.776958167552948 -0.009709437377750874 -0.0136686060577631 0.0 0.0 0.0 0.0
0.68 0.7309746742248535 -0.7792689204216003 -0.01014639250934124 -0.013341355137526989 0.0 0.0 0.0 0.0
0.681 0.7299392223358154 -0.7803238034248352 -0.010530130937695503 -0.012934893369674683 0.0 0.0 0.0 0.0
0.682 0.7289563417434692 -0.7822252511978149 -0.010904562659561634 -0.012585383839905262 0.0 0.0 0.0 0.0
0.683 0.7292810082435608 -0.7815691828727722 -0.011247956193983555 -0.01221044547855854 0.0 0.0 0.0 0.0
0.684 0.7274073362350464 -0.7840807437896729 -0.011587526649236679 -0.011781461536884308 0.0 0.0 0.0 0.0
0.685 0.7280259728431702 -0.7845505475997925 -0.01192567776888609 -0.01141528133302927 0.0 0.0 0.0 0.0
0.686 0.7265418767929077 -0.785660982131958 -0.012270493432879448 -0.011009647510945797 0.0 0.0 0.0 0.0
0.687 0.7268403768539429 -0.7861064076423645 -0.012549507431685925 -0.010649147443473339 0.0 0.0 0.0 0.0
0.688 0.7259542346000671 -0.788672685623169 -0.012890812009572983 -0.010222787968814373 0.0 0.0 0.0 0.0
0.689 0.7244648933410645 -0.7889243960380554 -0.01315153669565916 -0.009805490262806416 0.0 0.0 0.0 0.0
0.69 0.7241100072860718 -0.7896315455436707 -0.013426210731267929 -0.009424736723303795 0.0 0.0 0.0 0.0
0.691 0.7223024368286133 -0.7922079563140869 -0.013683448545634747 -0.008983716368675232 0.0 0.0 0.0 0.0
0.692 0.7230852842330933 -0.7923653721809387 -0.013906392268836498 -0.00856725312769413 0.0 0.0 0.0 0.0
0.693 0.7220263481140137 -0.7922245860099792 -0.014153659343719482 -0.008131223730742931 0.0 0.0 0.0 0.0
0.694 0.7215256690979004 -0.7948541641235352 -0.01439080759882927 -0.007749582640826702 0.0 0.0 0.0 0.0
0.695 0.7207968831062317 -0.7955981492996216 -0.014593382366001606 -0.007281916216015816 0.0 0.0 0.0 0.0
0.696 0.7219420075416565 -0.7958388328552246 -0.014828801155090332 -0.006866765208542347 0.0 0.0 0.0 0.0
0.697 0.7191186547279358 -0.7979301810264587 -0.015043356455862522 -0.006418272852897644 0.0 0.0 0.0 0.0
0.698 0.7186799049377441 -0.7995626330375671 -0.015190845355391502 -0.005975040607154369 0.0 0.0 0.0 0.0
0.699 0.7184579968452454 -0.798676073551178 -0.015402945689857006 -0.005544571205973625 0.0 0.0 0.0 0.0
0.7 0.7173184752464294 -0.8009404540061951 -0.015539621002972126 -0.005066521465778351 0.0 0.0 0.0 0.0
0.701 0.7162806987762451 -0.8020811676979065 -0.015683334320783615 -0.00464175920933485 0.0 0.0 0.0 0.0
0.702 0.7164937257766724 -0.8022443652153015 -0.015839818865060806 -0.004175834357738495 0.0 0.0 0.0 0.0
0.703 0.7163062691688538 -0.8039010167121887 -0.015987442806363106 -0.003721253015100956 0.0 0.0 0.0 0.0
0.704 0.7139698266983032 -0.8060632348060608 -0.016138087958097458 -0.0032417867332696915 0.0 0.0 0.0 0.0
0.705 0.7142810821533203 -0.8063321709632874 -0.016224460676312447 -0.0027508102357387543 0.0 0.0 0.0 0.0
0.706 0.7139338254928589 -0.8069397211074829 -0.01635822281241417 -0.002304631285369396 0.0 0.0 0.0 0.0
0.707 0.7124764323234558 -0.8087743520736694 -0.01641817018389702 -0.001825893297791481 0.0 0.0 0.0 0.0
0.708 0.7114158868789673 -0.8100797533988953 -0.016546715050935745 -0.0013204766437411308 0.0 0.0 0.0 0.0
0.709 0.711728036403656 -0.8103390336036682 -0.016607845202088356 -0.0008111195638775826 0.0 0.0 0.0 0.0
0.71 0.7107021808624268 -0.8114748597145081 -0.016655417159199715 -0.0003294115886092186 0.0 0.0 0.0 0.0
0.711 0.7097060680389404 -0.8133772611618042 -0.016743674874305725 0.00017086416482925415 0.0 0.0 0.0 0.0
0.712 0.7093932628631592 -0.8139212727546692 -0.016776064410805702 0.0006874511018395424 0.0 0.0 0.0 0.0
0.713 0.7070541381835938 -0.815331757068634 -0.01675378531217575 0.0012263776734471321 0.0 0.0 0.0 0.0
0.714 0.7074909806251526 -0.8168162703514099 -0.016806045547127724 0.001691935583949089 0.0 0.0 0.0 0.0
0.715 0.7075890898704529 -0.8160838484764099 -0.016774171963334084 0.0021961573511362076 0.0 0.0 0.0 0.0
0.716 0.7066596150398254 -0.8176171183586121 -0.016776015982031822 0.002742243930697441 0.0 0.0 0.0 0.0
0.717 0.7053571939468384 -0.8190585374832153 -0.016714438796043396 0.00330542866140604 0.0 0.0 0.0 0.0
0.718 0.7053359746932983 -0.8198122978210449 -0.016672683879733086 0.0038107261061668396 0.0 0.0 0.0 0.0
0.719 0.7053369879722595 -0.820531964302063 -0.016621580347418785 0.004331274889409542 0.0 0.0 0.0 0.0
0.72 0.7010056972503662 -0.8222383260726929 -0.016504600644111633 0.004902399145066738 0.0 0.0 0.0 0.0
0.721 0.7025039196014404 -0.8235712051391602 -0.01643633469939232 0.00546675268560648 0.0 0.0 0.0 0.0
0.722 0.702083945274353 -0.8239578008651733 -0.01630261540412903 0.006004701368510723 0.0 0.0 0.0 0.0
0.723 0.70152747631073 -0.8246648907661438 -0.01616687886416912 0.0065389638766646385 0.0 0.0 0.0 0.0
0.724 0.699272871017456 -0.8275158405303955 -0.01600601337850094 0.007098806090652943 0.0 0.0 0.0 0.0
0.725 0.7001472115516663 -0.8275060653686523 -0.015832791104912758 0.007666066288948059 0.0 0.0 0.0 0.0
0.726 0.6986956000328064 -0.828437328338623 -0.01562698371708393 0.008184612728655338 0.0 0.0 0.0 0.0
0.727 0.6984595060348511 -0.830429196357727 -0.015433713793754578 0.008707702159881592 0.0 0.0 0.0 0.0
0.728 0.6979031562805176 -0.8306072950363159 -0.015179513022303581 0.009268539026379585 0.0 0.0 0.0 0.0
0.729 0.6970999240875244 -0.8319563269615173 -0.014904257841408253 0.009835606440901756 0.0 0.0 0.0 0.0
0.73 0.6964259147644043 -0.8332850933074951 -0.014658552594482899 0.010360288433730602 0.0 0.0 0.0 0.0
0.731 0.6961317658424377 -0.8340251445770264 -0.014342406764626503 0.010905311442911625 0.0 0.0 0.0 0.0
0.732 0.6957829594612122 -0.8344802260398865 -0.014011617749929428 0.011400818824768066 0.0 0.0 0.0 0.0
0.733 0.6937301754951477 -0.8361535668373108 -0.013653554953634739 0.011921879835426807 0.0 0.0 0.0 0.0
0.734 0.6931785941123962 -0.837975800037384 -0.01329625491052866 0.012455804273486137 0.0 0.0 0.0 0.0
0.735 0.6935428977012634 -0.8386632800102234 -0.012927953153848648 0.013038970530033112 0.0 0.0 0.0 0.0
0.736 0.6909230947494507 -0.8396062850952148 -0.01243981160223484 0.013262699358165264 0.0 0.0 0.0 0.0
0.737 0.6903995275497437 -0.8416247963905334 -0.012136120349168777 0.013893945142626762 0.0 0.0 0.0 0.0
0.738 0.6907874345779419 -0.8413195013999939 -0.011587326414883137 0.014398617669939995 0.0 0.0 0.0 0.0
0.739 0.690433144569397 -0.8419451117515564 -0.011082623153924942 0.014820289798080921 0.0 0.0 0.0 0.0
0.74 0.6874234080314636 -0.8449910879135132 -0.010612577199935913 0.01519113127142191 0.0 0.0 0.0 0.0
0.741 0.6880701184272766 -0.8449578881263733 -0.010044070892035961 0.015635835006833076 0.0 0.0 0.0 0.0
0.742 0.6870763301849365 -0.8462333679199219 -0.009473864920437336 0.0160397719591856 0.0 0.0 0.0 0.0
0.743 0.6854622960090637 -0.8471941947937012 -0.008955666795372963 0.016392285004258156 0.0 0.0 0.0 0.0
0.744 0.6833173632621765 -0.8468204140663147 -0.008352718316018581 0.016689760610461235 0.0 0.0 0.0 0.0
0.745 0.6843328475952148 -0.8491729497909546 -0.007820231840014458 0.017011279240250587 0.0 0.0 0.0 0.0
0.746 0.6831707954406738 -0.8509109020233154 -0.007219739258289337 0.01726338639855385 0.0 0.0 0.0 0.0
0.747 0.6835954189300537 -0.8512305021286011 -0.006618148647248745 0.017524519935250282 0.0 0.0 0.0 0.0
0.748 0.682833731174469 -0.8517071604728699 -0.006017502397298813 0.01775595173239708 0.0 0.0 0.0 0.0
0.749 0.6816208362579346 -0.8529089093208313 -0.005369703285396099 0.017986435443162918 0.0 0.0 0.0 0.0
0.75 0.6803335547447205 -0.8549651503562927 -0.004736517556011677 0.01815989427268505 0.0 0.0 0.0 0.0
0.751 0.6792131662368774 -0.8565430641174316 -0.004117143340408802 0.01832916960120201 0.0 0.0 0.0 0.0
0.752 0.6790725588798523 -0.8568727374076843 -0.0035008201375603676 0.018438346683979034 0.0 0.0 0.0 0.0
0.753 0.6785966753959656 -0.8584135174751282 -0.0028524603694677353 0.018549920991063118 0.0 0.0 0.0 0.0
0.754 0.6771852970123291 -0.8583086133003235 -0.0022337781265378 0.01860252022743225 0.0 0.0 0.0 0.0
0.755 0.6764163374900818 -0.859353244304657 -0.0015935907140374184 0.018657991662621498 0.0 0.0 0.0 0.0
0.756 0.6736874580383301 -0.8614723682403564 -0.0008555147796869278 0.018676571547985077 0.0 0.0 0.0 0.0
0.757 0.6761506795883179 -0.8623684048652649 -0.00035837572067976 0.018715135753154755 0.0 0.0 0.0 0.0
0.758 0.674100399017334 -0.8629187941551208 0.00030560046434402466 0.018732476979494095 0.0 0.0 0.0 0.0
0.759 0.673854410648346 -0.8634349703788757 0.0009130071848630905 0.01866408996284008 0.0 0.0 0.0 0.0
0.76 0.6731892228126526 -0.8656163811683655 0.0015504555776715279 0.018608152866363525 0.0 0.0 0.0 0.0
0.761 0.6719593405723572 -0.866977870464325 0.002163994126021862 0.01854603737592697 0.0 0.0 0.0 0.0
0.762 0.67291659116745 -0.8670424818992615 0.0027227355167269707 0.018471810966730118 0.0 0.0 0.0 0.0
0.763 0.6698063611984253 -0.8684473037719727 0.003350699320435524 0.018323732540011406 0.0 0.0 0.0 0.0
0.764 0.6688002347946167 -0.8699862957000732 0.003919357433915138 0.018214993178844452 0.0 0.0 0.0 0.0
0.765 0.6682852506637573 -0.8704829812049866 0.0044920602813363075 0.018070414662361145 0.0 0.0 0.0 0.0
0.766 0.668002188205719 -0.8710845112800598 0.005068234167993069 0.017895502969622612 0.0 0.0 0.0 0.0
0.767 0.6651966571807861 -0.8737176656723022 0.005645068362355232 0.017705587670207024 0.0 0.0 0.0 0.0
0.768 0.6657372117042542 -0.8744721412658691 0.006229129619896412 0.017567725852131844 0.0 0.0 0.0 0.0
0.769 0.6655401587486267 -0.8738330006599426 0.006715647876262665 0.0173090398311615 0.0 0.0 0.0 0.0
0.77 0.6644752025604248 -0.876165509223938 0.007270363159477711 0.017110010609030724 0.0 0.0 0.0 0.0
0.771 0.6640135645866394 -0.8770702481269836 0.007811049930751324 0.0168467964977026 0.0 0.0 0.0 0.0
0.772 0.6640769839286804 -0.8776343464851379 0.008297048509120941 0.016610370948910713 0.0 0.0 0.0 0.0
0.773 0.6621048450469971 -0.8791803121566772 0.008799522183835506 0.016385598108172417 0.0 0.0 0.0 0.0
0.774 0.6624068021774292 -0.8792700171470642 0.009318139404058456 0.016089020296931267 0.0 0.0 0.0 0.0
0.775 0.6611454486846924 -0.881395697593689 0.009774712845683098 0.015836449339985847 0.0 0.0 0.0 0.0
0.776 0.6582390666007996 -0.8833585977554321 0.010271977633237839 0.015533093363046646 0.0 0.0 0.0 0.0
0.777 0.6577292680740356 -0.8840914964675903 0.010761944577097893 0.015238077379763126 0.0 0.0 0.0 0.0
0.778 0.6585357189178467 -0.8836422562599182 0.01122609619051218 0.014916172251105309 0.0 0.0 0.0 0.0
0.779 0.6568700075149536 -0.8856200575828552 0.01166908722370863 0.014608063735067844 0.0 0.0 0.0 0.0
0.78 0.6572445034980774 -0.8892800807952881 0.01210415456444025 0.014287510886788368 0.0 0.0 0.0 0.0
0.781 0.6551710963249207 -0.8879992961883545 0.012597452849149704 0.013983413577079773 0.0 0.0 0.0 0.0
0.782 0.654755175113678 -0.8884485960006714 0.013017596676945686 0.013591252267360687 0.0 0.0 0.0 0.0
0.783 0.6527497172355652 -0.8909427523612976 0.013441973365843296 0.013234895654022694 0.0 0.0 0.0 0.0
0.784 0.6526377201080322 -0.8915536403656006 0.013905628584325314 0.01286718063056469 0.0 0.0 0.0 0.0
0.785 0.6521514654159546 -0.8909912109375 0.014279510825872421 0.012445947155356407 0.0 0.0 0.0 0.0
0.786 0.6502603888511658 -0.893593430519104 0.014685277827084064 0.012087314389646053 0.0 0.0 0.0 0.0
0.787 0.6490364074707031 -0.8945644497871399 0.01514078862965107 0.011660308577120304 0.0 0.0 0.0 0.0
0.788 0.6485829949378967 -0.8958039283752441 0.01552659273147583 0.011246558278799057 0.0 0.0 0.0 0.0
0.789 0.64866703748703 -0.8949964046478271 0.015913451090455055 0.010833976790308952 0.0 0.0 0.0 0.0
0.79 0.6473518013954163 -0.8968023061752319 0.016281571239233017 0.010408825241029263 0.0 0.0 0.0 0.0
0.791 0.6467915773391724 -0.8983392715454102 0.016629863530397415 0.00995687860995531 0.0 0.0 0.0 0.0
0.792 0.647014856338501 -0.8983030319213867 0.017071451991796494 0.009395066648721695 0.0 0.0 0.0 0.0
0.793 0.6445484161376953 -0.9003289341926575 0.017418213188648224 0.008974871598184109 0.0 0.0 0.0 0.0
0.794 0.6441723108291626 -0.9004685282707214 0.01770923100411892 0.008521649986505508 0.0 0.0 0.0 0.0
0.795 0.6438106298446655 -0.9021897315979004 0.01808970794081688 0.007986195385456085 0.0 0.0 0.0 0.0
0.796 0.6422948837280273 -0.9026128649711609 0.01845434308052063 0.007452712394297123 0.0 0.0 0.0 0.0
0.797 0.6413990259170532 -0.9049197435379028 0.018755629658699036 0.006904261186718941 0.0 0.0 0.0 0.0
0.798 0.641363799571991 -0.906117856502533 0.019135424867272377 0.006342816166579723 0.0 0.0 0.0 0.0
0.799 0.6396677494049072 -0.9065026044845581 0.019398286938667297 0.005774962715804577 0.0 0.0 0.0 0.0
0.8 0.6381998658180237 -0.9079051613807678 0.0196826234459877 0.005208790302276611 0.0 0.0 0.0 0.0
0.801 0.6376649737358093 -0.9085447788238525 0.019984424114227295 0.004579703323543072 0.0 0.0 0.0 0.0
0.802 0.6367971301078796 -0.9088233709335327 0.020219502970576286 0.003922665491700172 0.0 0.0 0.0 0.0
0.803 0.6343356966972351 -0.9111946225166321 0.02049269899725914 0.0032533714547753334 0.0 0.0 0.0 0.0
0.804 0.6358655691146851 -0.9118876457214355 0.020766450092196465 0.002644909545779228 0.0 0.0 0.0 0.0
0.805 0.6354657411575317 -0.9122521877288818 0.020928621292114258 0.0019543124362826347 0.0 0.0 0.0 0.0
0.806 0.6326149702072144 -0.9131872057914734 0.021130304783582687 0.0012286165729165077 0.0 0.0 0.0 0.0
0.807 0.63204026222229 -0.9149788022041321 0.021313291043043137 0.0005110874772071838 0.0 0.0 0.0 0.0
0.808 0.6317983269691467 -0.9151822328567505 0.021470412611961365 -0.00023410562425851822 0.0 0.0 0.0 0.0
0.809 0.6296361684799194 -0.9163349270820618 0.021580321714282036 -0.0009759822860360146 0.0 0.0 0.0 0.0
0.81 0.6287704110145569 -0.9173058867454529 0.02166888490319252 -0.001792251132428646 0.0 0.0 0.0 0.0
0.811 0.627940833568573 -0.919302225112915 0.021781934425234795 -0.0025684693828225136 0.0 0.0 0.0 0.0
0.812 0.6279131770133972 -0.91920006275177 0.02178642898797989 -0.0033593233674764633 0.0 0.0 0.0 0.0
0.813 0.6263476014137268 -0.921316385269165 0.02180369757115841 -0.004201897419989109 0.0 0.0 0.0 0.0
0.814 0.6259737014770508 -0.9225938320159912 0.021740572527050972 -0.005021165125072002 0.0 0.0 0.0 0.0
0.815 0.6247236132621765 -0.9231212139129639 0.021664254367351532 -0.0058535011485219 0.0 0.0 0.0 0.0
0.816 0.6239080429077148 -0.9225528240203857 0.02155175246298313 -0.006654444150626659 0.0 0.0 0.0 0.0
0.817 0.6217120885848999 -0.9252581596374512 0.02138344570994377 -0.007593064568936825 0.0 0.0 0.0 0.0
0.818 0.6219393014907837 -0.9260237216949463 0.021216033026576042 -0.008411530405282974 0.0 0.0 0.0 0.0
0.819 0.621387779712677 -0.9269464612007141 0.020950524136424065 -0.009274077601730824 0.0 0.0 0.0 0.0
0.82 0.620096743106842 -0.9276047348976135 0.020674902945756912 -0.010154837742447853 0.0 0.0 0.0 0.0
0.821 0.6190539598464966 -0.9289267659187317 0.020362813025712967 -0.010998796671628952 0.0 0.0 0.0 0.0
0.822 0.6173483729362488 -0.9300910830497742 0.01997964270412922 -0.011828122660517693 0.0 0.0 0.0 0.0
0.823 0.6168948411941528 -0.9301044344902039 0.019581075757741928 -0.012613083235919476 0.0 0.0 0.0 0.0
0.824 0.6155562996864319 -0.9319167137145996 0.019111819565296173 -0.013463886454701424 0.0 0.0 0.0 0.0
0.825 0.6153099536895752 -0.9342629313468933 0.018578119575977325 -0.014247573912143707 0.0 0.0 0.0 0.0
0.826 0.6133958101272583 -0.9344662427902222 0.018050966784358025 -0.015015240758657455 0.0 0.0 0.0 0.0
0.827 0.6128057241439819 -0.9354872703552246 0.01746268756687641 -0.015782244503498077 0.0 0.0 0.0 0.0
0.828 0.6108195185661316 -0.9349459409713745 0.016859691590070724 -0.016462447121739388 0.0 0.0 0.0 0.0
0.829 0.6110995411872864 -0.9366554617881775 0.01618141494691372 -0.01713126339018345 0.0 0.0 0.0 0.0
0.83 0.6101619005203247 -0.9372842311859131 0.015470245853066444 -0.017788536846637726 0.0 0.0 0.0 0.0
0.831 0.6097779870033264 -0.9398941397666931 0.014772610738873482 -0.018386444076895714 0.0 0.0 0.0 0.0
0.832 0.608134925365448 -0.9404743909835815 0.01402800902724266 -0.01894291490316391 0.0 0.0 0.0 0.0
0.833 0.6082133650779724 -0.9403414130210876 0.013228416442871094 -0.01945432461798191 0.0 0.0 0.0 0.0
0.834 0.6059789061546326 -0.9421998858451843 0.012439797632396221 -0.01999068446457386 0.0 0.0 0.0 0.0
0.835 0.6056414246559143 -0.9438377618789673 0.011664054356515408 -0.02038576267659664 0.0 0.0 0.0 0.0
0.836 0.6040182113647461 -0.9440662264823914 0.010804014280438423 -0.020743263885378838 0.0 0.0 0.0 0.0
0.837 0.6037651896476746 -0.9454231262207031 0.009972566738724709 -0.021117383614182472 0.0 0.0 0.0 0.0
0.838 0.6023848056793213 -0.9467899799346924 0.009142034687101841 -0.021450091153383255 0.0 0.0 0.0 0.0
0.839 0.6018842458724976 -0.9467558860778809 0.008297321386635303 -0.021696005016565323 0.0 0.0 0.0 0.0
0.84 0.5988650321960449 -0.9474177360534668 0.007420635782182217 -0.021879862993955612 0.0 0.0 0.0 0.0
0.841 0.5989839434623718 -0.9489334225654602 0.006555706262588501 -0.022133123129606247 0.0 0.0 0.0 0.0
0.842 0.5969334840774536 -0.9503960609436035 0.005715751089155674 -0.02223905920982361 0.0 0.0 0.0 0.0
0.843 0.5981178283691406 -0.9513988494873047 0.004897544160485268 -0.02232513763010502 0.0 0.0 0.0 0.0
0.844 0.5959002375602722 -0.9525002241134644 0.004061887972056866 -0.02242627739906311 0.0 0.0 0.0 0.0
0.845 0.5942354798316956 -0.9538185000419617 0.003214721567928791 -0.022442160174250603 0.0 0.0 0.0 0.0
0.846 0.5941897630691528 -0.9545204043388367 0.0024320846423506737 -0.022419381886720657 0.0 0.0 0.0 0.0
0.847 0.592758059501648 -0.9546411037445068 0.0015878509730100632 -0.022396571934223175 0.0 0.0 0.0 0.0
0.848 0.5911638736724854 -0.9565891623497009 0.0008055362850427628 -0.02235426940023899 0.0 0.0 0.0 0.0
0.849 0.5921320915222168 -0.9569025039672852 7.986556738615036e-05 -0.022260798141360283 0.0 0.0 0.0 0.0
0.85 0.5903109312057495 -0.9574739933013916 -0.0006969794631004333 -0.022163977846503258 0.0 0.0 0.0 0.0
0.851 0.5882155299186707 -0.9591190218925476 -0.0014657210558652878 -0.021995827555656433 0.0 0.0 0.0 0.0
0.852 0.5875667929649353 -0.9605588316917419 -0.0021727774292230606 -0.021853219717741013 0.0 0.0 0.0 0.0
0.853 0.5881578326225281 -0.9603625535964966 -0.002867897041141987 -0.021662795916199684 0.0 0.0 0.0 0.0
0.854 0.585067629814148 -0.9624905586242676 -0.003580133430659771 -0.021449146792292595 0.0 0.0 0.0 0.0
0.855 0.584709107875824 -0.9633828997612 -0.004246855154633522 -0.021293582394719124 0.0 0.0 0.0 0.0
0.856 0.584577202796936 -0.9643581509590149 -0.004904458299279213 -0.021044766530394554 0.0 0.0 0.0 0.0
0.857 0.5827924013137817 -0.9647783041000366 -0.0055720629170536995 -0.020749343559145927 0.0 0.0 0.0 0.0
0.858 0.5803912878036499 -0.967836856842041 -0.006148413754999638 -0.020522942766547203 0.0 0.0 0.0 0.0
0.859 0.5807764530181885 -0.9666604399681091 -0.006751918233931065 -0.020221546292304993 0.0 0.0 0.0 0.0
0.86 0.5792913436889648 -0.9680391550064087 -0.007402961142361164 -0.019904429093003273 0.0 0.0 0.0 0.0
0.861 0.5766030550003052 -0.9686623215675354 -0.00800147745758295 -0.019625341519713402 0.0 0.0 0.0 0.0
0.862 0.5765488147735596 -0.9704558253288269 -0.008526338264346123 -0.019317809492349625 0.0 0.0 0.0 0.0
0.863 0.5764031410217285 -0.9706518054008484 -0.009076532907783985 -0.018989892676472664 0.0 0.0 0.0 0.0
0.864 0.5739017128944397 -0.9724135398864746 -0.009682871401309967 -0.018711382523179054 0.0 0.0 0.0 0.0
0.865 0.574038028717041 -0.9733285307884216 -0.010150257498025894 -0.018385546281933784 0.0 0.0 0.0 0.0
0.866 0.5735151767730713 -0.9733195900917053 -0.010680570267140865 -0.018020959571003914 0.0 0.0 0.0 0.0
0.867 0.5725483894348145 -0.9739140272140503 -0.011217561550438404 -0.017640244215726852 0.0 0.0 0.0 0.0
0.868 0.5698680281639099 -0.9757624864578247 -0.011694122105836868 -0.017331862822175026 0.0 0.0 0.0 0.0
0.869 0.569478452205658 -0.9771803021430969 -0.012165782041847706 -0.016927197575569153 0.0 0.0 0.0 0.0
0.87 0.5690091252326965 -0.977318525314331 -0.012663736008107662 -0.016550185158848763 0.0 0.0 0.0 0.0
0.871 0.5667613744735718 -0.9781760573387146 -0.013138990849256516 -0.016175704076886177 0.0 0.0 0.0 0.0
0.872 0.5652814507484436 -0.9803649187088013 -0.01359658781439066 -0.015784762799739838 0.0 0.0 0.0 0.0
0.873 0.5653280019760132 -0.9814556837081909 -0.014062205329537392 -0.015379024669528008 0.0 0.0 0.0 0.0
0.874 0.5627046823501587 -0.9817977547645569 -0.014547020196914673 -0.014993486925959587 0.0 0.0 0.0 0.0
0.875 0.562993586063385 -0.982950747013092 -0.014954859390854836 -0.014552370645105839 0.0 0.0 0.0 0.0
0.876 0.561436116695404 -0.9849867820739746 -0.015316096134483814 -0.014109110459685326 0.0 0.0 0.0 0.0
0.877 0.5623401403427124 -0.9838963747024536 -0.015775825828313828 -0.013719568029046059 0.0 0.0 0.0 0.0
0.878 0.5591120719909668 -0.9856129884719849 -0.016193335875868797 -0.013231495395302773 0.0 0.0 0.0 0.0
0.879 0.5595540404319763 -0.9866264462471008 -0.01658141054213047 -0.012817444279789925 0.0 0.0 0.0 0.0
0.88 0.5563401579856873 -0.98729407787323 -0.017010096460580826 -0.012273595668375492 0.0 0.0 0.0 0.0
0.881 0.5559373497962952 -0.9867081046104431 -0.01739010401070118 -0.011828288435935974 0.0 0.0 0.0 0.0
0.882 0.5550205707550049 -0.9896793365478516 -0.01781371980905533 -0.011313497088849545 0.0 0.0 0.0 0.0
0.883 0.5544455647468567 -0.9906120300292969 -0.018152954056859016 -0.01085855346173048 0.0 0.0 0.0 0.0
0.884 0.5532591342926025 -0.9902665019035339 -0.01855987124145031 -0.01030515693128109 0.0 0.0 0.0 0.0
0.885 0.5499674081802368 -0.9914135932922363 -0.018933499231934547 -0.009758955799043179 0.0 0.0 0.0 0.0
0.886 0.5510674118995667 -0.9920814037322998 -0.01927238702774048 -0.009227952919900417 0.0 0.0 0.0 0.0
0.887 0.5486928224563599 -0.9929509162902832 -0.019591964781284332 -0.008650707080960274 0.0 0.0 0.0 0.0
0.888 0.5445912480354309 -0.992713987827301 -0.01994846761226654 -0.008075634017586708 0.0 0.0 0.0 0.0
0.889 0.5456501245498657 -0.9953222274780273 -0.020260825753211975 -0.007467597723007202 0.0 0.0 0.0 0.0
0.89 0.5448173880577087 -0.9961414933204651 -0.020548008382320404 -0.006853820756077766 0.0 0.0 0.0 0.0
0.891 0.5451067090034485 -0.9965517520904541 -0.020847149193286896 -0.006283902563154697 0.0 0.0 0.0 0.0
0.892 0.542469322681427 -0.9981667995452881 -0.021154535934329033 -0.005584395490586758 0.0 0.0 0.0 0.0
0.893 0.5417224764823914 -1.0003583431243896 -0.021418118849396706 -0.004939721897244453 0.0 0.0 0.0 0.0
0.894 0.5408633947372437 -0.9987756013870239 -0.021612118929624557 -0.004323623143136501 0.0 0.0 0.0 0.0
0.895 0.5394753813743591 -0.9998050928115845 -0.02185714803636074 -0.003557911142706871 0.0 0.0 0.0 0.0
0.896 0.5394943952560425 -1.001349925994873 -0.022062042728066444 -0.002928316593170166 0.0 0.0 0.0 0.0
0.897 0.5369523167610168 -1.0047746896743774 -0.02227069064974785 -0.0021203774958848953 0.0 0.0 0.0 0.0
0.898 0.5352514386177063 -1.0026366710662842 -0.02234785445034504 -0.0013955999165773392 0.0 0.0 0.0 0.0
0.899 0.5341940522193909 -1.0037881135940552 -0.022529711946845055 -0.0006479620933532715 0.0 0.0 0.0 0.0
0.9 0.5314155220985413 -1.005869746208191 -0.022602079436182976 0.00013848021626472473 0.0 0.0 0.0 0.0
0.901 0.5305919051170349 -1.0069525241851807 -0.02271221950650215 0.0009142439812421799 0.0 0.0 0.0 0.0
0.902 0.5320174694061279 -1.007021427154541 -0.02279125154018402 0.0016966359689831734 0.0 0.0 0.0 0.0
0.903 0.5297369956970215 -1.0089205503463745 -0.0228237584233284 0.0025390172377228737 0.0 0.0 0.0 0.0
0.904 0.5275894403457642 -1.01021409034729 -0.022798161953687668 0.0033453181385993958 0.0 0.0 0.0 0.0
0.905 0.5266725420951843 -1.0100809335708618 -0.022708648815751076 0.004128580912947655 0.0 0.0 0.0 0.0
0.906 0.5256137847900391 -1.0103726387023926 -0.022615084424614906 0.0050086695700883865 0.0 0.0 0.0 0.0
0.907 0.5240777134895325 -1.0114892721176147 -0.022533763200044632 0.005820512771606445 0.0 0.0 0.0 0.0
0.908 0.5230660438537598 -1.012774109840393 -0.022365354001522064 0.006631025113165379 0.0 0.0 0.0 0.0
0.909 0.521405816078186 -1.0134837627410889 -0.022157803177833557 0.007492072880268097 0.0 0.0 0.0 0.0
0.91 0.5225025415420532 -1.0136876106262207 -0.021940505132079124 0.00826916005462408 0.0 0.0 0.0 0.0
0.911 0.5181712508201599 -1.015386700630188 -0.021662728860974312 0.009156317450106144 0.0 0.0 0.0 0.0
0.912 0.5199475288391113 -1.0156261920928955 -0.021361369639635086 0.009891605004668236 0.0 0.0 0.0 0.0
0.913 0.5171453952789307 -1.0156190395355225 -0.021039990708231926 0.010703193955123425 0.0 0.0 0.0 0.0
0.914 0.515465497970581 -1.0183265209197998 -0.020639922469854355 0.01152648776769638 0.0 0.0 0.0 0.0
0.915 0.5137357115745544 -1.0190361738204956 -0.020204389467835426 0.012288659811019897 0.0 0.0 0.0 0.0
0.916 0.5138199329376221 -1.019521951675415 -0.019784875214099884 0.013053149916231632 0.0 0.0 0.0 0.0
0.917 0.5122117400169373 -1.0193651914596558 -0.01926119439303875 0.01370936818420887 0.0 0.0 0.0 0.0
0.918 0.5104430317878723 -1.0211479663848877 -0.01873914711177349 0.014468974433839321 0.0 0.0 0.0 0.0
0.919 0.5095994472503662 -1.021245002746582 -0.018148289993405342 0.015124152414500713 0.0 0.0 0.0 0.0
0.92 0.5080178380012512 -1.0222880840301514 -0.017637841403484344 0.01581738516688347 0.0 0.0 0.0 0.0
0.921 0.5070527195930481 -1.0230507850646973 -0.01702662743628025 0.01641240529716015 0.0 0.0 0.0 0.0
0.922 0.5046796202659607 -1.02605140209198 -0.016380367800593376 0.017047135159373283 0.0 0.0 0.0 0.0
0.923 0.5054535865783691 -1.0244821310043335 -0.015743358060717583 0.017548684030771255 0.0 0.0 0.0 0.0
0.924 0.5013793110847473 -1.0263335704803467 -0.015040758065879345 0.01806655153632164 0.0 0.0 0.0 0.0
0.925 0.502839207649231 -1.0262202024459839 -0.01436900906264782 0.018553979694843292 0.0 0.0 0.0 0.0
0.926 0.5003350377082825 -1.0277893543243408 -0.013690088875591755 0.01905825175344944 0.0 0.0 0.0 0.0
0.927 0.4998185634613037 -1.0291472673416138 -0.012972751632332802 0.01944873481988907 0.0 0.0 0.0 0.0
0.928 0.4984709322452545 -1.0291019678115845 -0.01224485132843256 0.019805951043963432 0.0 0.0 0.0 0.0
0.929 0.49764135479927063 -1.0294045209884644 -0.011503114365041256 0.02022210881114006 0.0 0.0 0.0 0.0
0.93 0.49396032094955444 -1.0309137105941772 -0.010715269483625889 0.02060103602707386 0.0 0.0 0.0 0.0
0.931 0.49359145760536194 -1.0316897630691528 -0.009985482320189476 0.020832886919379234 0.0 0.0 0.0 0.0
0.932 0.49289560317993164 -1.033132553100586 -0.00924864411354065 0.02109641395509243 0.0 0.0 0.0 0.0
0.933 0.4893881380558014 -1.0330411195755005 -0.008482318371534348 0.021294590085744858 0.0 0.0 0.0 0.0
0.934 0.49105000495910645 -1.0339826345443726 -0.007797038182616234 0.021526183933019638 0.0 0.0 0.0 0.0
0.935 0.4881986677646637 -1.0358610153198242 -0.007009555585682392 0.021733712404966354 0.0 0.0 0.0 0.0
0.936 0.4884728789329529 -1.037296175956726 -0.006322834640741348 0.02185262180864811 0.0 0.0 0.0 0.0
0.937 0.4867549240589142 -1.0365426540374756 -0.005540741607546806 0.021960150450468063 0.0 0.0 0.0 0.0
0.938 0.48397335410118103 -1.0371593236923218 -0.004798995330929756 0.02210315689444542 0.0 0.0 0.0 0.0
0.939 0.4831399917602539 -1.040367603302002 -0.004095960408449173 0.022173041477799416 0.0 0.0 0.0 0.0
0.94 0.48292410373687744 -1.0383532047271729 -0.0034185200929641724 0.022183857858181 0.0 0.0 0.0 0.0
0.941 0.4809068441390991 -1.0389418601989746 -0.0026834653690457344 0.022230593487620354 0.0 0.0 0.0 0.0
0.942 0.48031696677207947 -1.0407072305679321 -0.0019053928554058075 0.022214598953723907 0.0 0.0 0.0 0.0
0.943 0.47727057337760925 -1.0422403812408447 -0.001276269555091858 0.02221807837486267 0.0 0.0 0.0 0.0
0.944 0.4762807786464691 -1.0421301126480103 -0.0005897246301174164 0.022139746695756912 0.0 0.0 0.0 0.0
0.945 0.4742683172225952 -1.0423508882522583 9.821448475122452e-05 0.022105194628238678 0.0 0.0 0.0 0.0
0.946 0.4756739139556885 -1.042691946029663 0.000731288455426693 0.022083284333348274 0.0 0.0 0.0 0.0
0.947 0.4723260700702667 -1.0447556972503662 0.001407642848789692 0.022003624588251114 0.0 0.0 0.0 0.0
0.948 0.4731626510620117 -1.0441057682037354 0.002076399512588978 0.02194255404174328 0.0 0.0 0.0 0.0
0.949 0.4689887762069702 -1.0455940961837769 0.0027524959295988083 0.0217953622341156 0.0 0.0 0.0 0.0
0.95 0.46914976835250854 -1.0469365119934082 0.0032988646999001503 0.021661262959241867 0.0 0.0 0.0 0.0
0.951 0.46774742007255554 -1.0477674007415771 0.003975803032517433 0.02152968943119049 0.0 0.0 0.0 0.0
0.952 0.46506384015083313 -1.0479240417480469 0.004600623622536659 0.021367456763982773 0.0 0.0 0.0 0.0
0.953 0.46419763565063477 -1.0493847131729126 0.005152631551027298 0.021224988624453545 0.0 0.0 0.0 0.0
0.954 0.4620342552661896 -1.0489492416381836 0.005799825303256512 0.021049607545137405 0.0 0.0 0.0 0.0
0.955 0.46291056275367737 -1.0500481128692627 0.006406955420970917 0.02089643105864525 0.0 0.0 0.0 0.0
0.956 0.4594692885875702 -1.0514463186264038 0.006987122818827629 0.020704269409179688 0.0 0.0 0.0 0.0
0.957 0.45892468094825745 -1.0516327619552612 0.0075989337638020515 0.020518148317933083 0.0 0.0 0.0 0.0
0.958 0.45790189504623413 -1.0527046918869019 0.008147354237735271 0.020307525992393494 0.0 0.0 0.0 0.0
0.959 0.45435667037963867 -1.0534318685531616 0.00880768895149231 0.02003641240298748 0.0 0.0 0.0 0.0
0.96 0.4553060233592987 -1.0557962656021118 0.009270593523979187 0.019878102466464043 0.0 0.0 0.0 0.0
0.961 0.45269614458084106 -1.0542809963226318 0.009904149919748306 0.019604045897722244 0.0 0.0 0.0 0.0
0.962 0.4521156847476959 -1.055078387260437 0.010464279912412167 0.019331684336066246 0.0 0.0 0.0 0.0
0.963 0.4503099322319031 -1.0572946071624756 0.011063574813306332 0.01905565708875656 0.0 0.0 0.0 0.0
0.964 0.449249804019928 -1.0567656755447388 0.011605660431087017 0.018808387219905853 0.0 0.0 0.0 0.0
0.965 0.44817793369293213 -1.0572493076324463 0.012146402150392532 0.01850186474621296 0.0 0.0 0.0 0.0
0.966 0.44331124424934387 -1.0585553646087646 0.012745644897222519 0.01821475476026535 0.0 0.0 0.0 0.0
0.967 0.4444498121738434 -1.0593913793563843 0.013293730095028877 0.01788671687245369 0.0 0.0 0.0 0.0
0.968 0.44401344656944275 -1.05965256690979 0.01385439746081829 0.01754171773791313 0.0 0.0 0.0 0.0
0.969 0.443459153175354 -1.0594159364700317 0.014447418041527271 0.017206009477376938 0.0 0.0 0.0 0.0
0.97 0.44038158655166626 -1.0606088638305664 0.01495356485247612 0.016857419162988663 0.0 0.0 0.0 0.0
0.971 0.4406512677669525 -1.060871958732605 0.015538436360657215 0.016521818935871124 0.0 0.0 0.0 0.0
0.972 0.4389238953590393 -1.0627052783966064 0.0161019004881382 0.01609254628419876 0.0 0.0 0.0 0.0
0.973 0.43440955877304077 -1.0634409189224243 0.016627967357635498 0.015682823956012726 0.0 0.0 0.0 0.0
0.974 0.43489953875541687 -1.06352698802948 0.017184045165777206 0.015296442434191704 0.0 0.0 0.0 0.0
0.975 0.433467835187912 -1.064138650894165 0.0177347119897604 0.01485505048185587 0.0 0.0 0.0 0.0
0.976 0.4314010441303253 -1.0640521049499512 0.01830405928194523 0.014342371374368668 0.0 0.0 0.0 0.0
0.977 0.429705411195755 -1.065639853477478 0.018834806978702545 0.013871937990188599 0.0 0.0 0.0 0.0
0.978 0.42855602502822876 -1.0659570693969727 0.019314773380756378 0.013377949595451355 0.0 0.0 0.0 0.0
0.979 0.428024023771286 -1.066145658493042 0.019900737330317497 0.012830919586122036 0.0 0.0 0.0 0.0
0.98 0.42518436908721924 -1.0669811964035034 0.02041143737733364 0.012247329577803612 0.0 0.0 0.0 0.0
0.981 0.42361119389533997 -1.068375825881958 0.020960712805390358 0.011639516800642014 0.0 0.0 0.0 0.0
0.982 0.4240916669368744 -1.0685906410217285 0.0214688777923584 0.011055048555135727 0.0 0.0 0.0 0.0
0.983 0.42108872532844543 -1.069417119026184 0.0219198539853096 0.010412821546196938 0.0 0.0 0.0 0.0
0.984 0.4192888140678406 -1.0708194971084595 0.022429706528782845 0.009761851280927658 0.0 0.0 0.0 0.0
0.985 0.41753020882606506 -1.0700383186340332 0.022880155593156815 0.009049182757735252 0.0 0.0 0.0 0.0
0.986 0.4163566827774048 -1.0707643032073975 0.023385224863886833 0.008281653746962547 0.0 0.0 0.0 0.0
0.987 0.41728267073631287 -1.0719375610351562 0.023754997178912163 0.007592032663524151 0.0 0.0 0.0 0.0
0.988 0.41519346833229065 -1.0724819898605347 0.024154258891940117 0.006830424070358276 0.0 0.0 0.0 0.0
0.989 0.4134373068809509 -1.07155179977417 0.024542564526200294 0.005991972982883453 0.0 0.0 0.0 0.0
0.99 0.4108920395374298 -1.0735520124435425 0.024931691586971283 0.005185752175748348 0.0 0.0 0.0 0.0
0.991 0.4105502665042877 -1.0735886096954346 0.02529565617442131 0.004295178689062595 0.0 0.0 0.0 0.0
0.992 0.407774955034256 -1.0736663341522217 0.025578392669558525 0.0034066708758473396 0.0 0.0 0.0 0.0
0.993 0.40724098682403564 -1.0749801397323608 0.025858692824840546 0.0024760980159044266 0.0 0.0 0.0 0.0
0.994 0.40585261583328247 -1.0748765468597412 0.026055390015244484 0.00154220312833786 0.0 0.0 0.0 0.0
0.995 0.4055672883987427 -1.0757956504821777 0.026249144226312637 0.0006141206249594688 0.0 0.0 0.0 0.0
0.996 0.40191441774368286 -1.07680344581604 0.02638300694525242 -0.00045075733214616776 0.0 0.0 0.0 0.0
0.997 0.4007432758808136 -1.076979160308838 0.026488255709409714 -0.0014698784798383713 0.0 0.0 0.0 0.0
0.998 0.39983195066452026 -1.0772970914840698 0.026577122509479523 -0.002439003437757492 0.0 0.0 0.0 0.0
0.999 0.3990814983844757 -1.0781532526016235 0.026558637619018555 -0.0034934980794787407 0.0 0.0 0.0 0.0
1.0 0.39510127902030945 -1.0794978141784668 0.02652653679251671 -0.004542176611721516 0.0 0.0 0.0 0.0
1.001 0.39502766728401184 -1.077982783317566 0.03099249303340912 0.008384734392166138 0.0 0.0 0.0 0.0
1.002 0.393480122089386 -1.0803494453430176 0.031480636447668076 0.0064393337815999985 0.0 0.0 0.0 0.0
1.003 0.39266860485076904 -1.0791560411453247 0.031788717955350876 0.0043927934020757675 0.0 0.0 0.0 0.0
1.004 0.39152657985687256 -1.0792784690856934 0.03190477937459946 0.0023309802636504173 0.0 0.0 0.0 0.0
1.005 0.38854750990867615 -1.080294132232666 0.03182976692914963 0.0002108439803123474 0.0 0.0 0.0 0.0
1.006 0.38838818669319153 -1.0807734727859497 0.03155593201518059 -0.001756950281560421 0.0 0.0 0.0 0.0
1.007 0.3866455554962158 -1.0809305906295776 0.03105500154197216 -0.0038218479603528976 0.0 0.0 0.0 0.0
1.008 0.38429689407348633 -1.0820800065994263 0.030387697741389275 -0.005759211257100105 0.0 0.0 0.0 0.0
1.009 0.3827410042285919 -1.0839359760284424 0.02950282022356987 -0.007555565796792507 0.0 0.0 0.0 0.0
1.01 0.3824181854724884 -1.0823372602462769 0.028529871255159378 -0.0092114033177495 0.0 0.0 0.0 0.0
1.011 0.37975460290908813 -1.0829263925552368 0.02742316573858261 -0.01076954510062933 0.0 0.0 0.0 0.0
1.012 0.37750622630119324 -1.084964394569397 0.0262136273086071 -0.01213363092392683 0.0 0.0 0.0 0.0
1.013 0.3776863217353821 -1.0848180055618286 0.024953272193670273 -0.013282984495162964 0.0 0.0 0.0 0.0
1.014 0.378829687833786 -1.084781527519226 0.02363487519323826 -0.014339904300868511 0.0 0.0 0.0 0.0
1.015 0.37434327602386475 -1.0859286785125732 0.022312384098768234 -0.015229837968945503 0.0 0.0 0.0 0.0
1.016 0.3718724846839905 -1.0873504877090454 0.02094714157283306 -0.016031818464398384 0.0 0.0 0.0 0.0
1.017 0.37226855754852295 -1.0842852592468262 0.019617535173892975 -0.016558397561311722 0.0 0.0 0.0 0.0
1.018 0.36967939138412476 -1.0863581895828247 0.018349621444940567 -0.01711435616016388 0.0 0.0 0.0 0.0
1.019 0.3683941960334778 -1.0876476764678955 0.017102157697081566 -0.01748098060488701 0.0 0.0 0.0 0.0
1.02 0.3682139217853546 -1.08828866481781 0.015893295407295227 -0.01771990954875946 0.0 0.0 0.0 0.0
1.021 0.36543938517570496 -1.0886934995651245 0.014714856632053852 -0.017948204651474953 0.0 0.0 0.0 0.0
1.022 0.3631180226802826 -1.0890071392059326 0.013638713397085667 -0.018093271180987358 0.0 0.0 0.0 0.0
1.023 0.36234012246131897 -1.0891865491867065 0.012567429803311825 -0.01816902868449688 0.0 0.0 0.0 0.0
1.024 0.3611780107021332 -1.0896940231323242 0.011578799225389957 -0.018165525048971176 0.0 0.0 0.0 0.0
1.025 0.35773444175720215 -1.0900993347167969 0.010641067288815975 -0.018115226179361343 0.0 0.0 0.0 0.0
1.026 0.35822799801826477 -1.0909614562988281 0.009744378738105297 -0.018100978806614876 0.0 0.0 0.0 0.0
1.027 0.3559187650680542 -1.0906575918197632 0.00888146460056305 -0.017941752448678017 0.0 0.0 0.0 0.0
1.028 0.3564903438091278 -1.0899981260299683 0.008074822835624218 -0.01782381162047386 0.0 0.0 0.0 0.0
1.029 0.35124653577804565 -1.0916748046875 0.007284999825060368 -0.01769520714879036 0.0 0.0 0.0 0.0
1.03 0.3513820469379425 -1.0932117700576782 0.006555088795721531 -0.017508819699287415 0.0 0.0 0.0 0.0
1.031 0.34964317083358765 -1.092365026473999 0.0059088123962283134 -0.01727384701371193 0.0 0.0 0.0 0.0
1.032 0.34776461124420166 -1.0934444665908813 0.005266126245260239 -0.017122948542237282 0.0 0.0 0.0 0.0
1.033 0.345568984746933 -1.093523621559143 0.0047081951051950455 -0.016883609816432 0.0 0.0 0.0 0.0
1.034 0.34440338611602783 -1.0934079885482788 0.00410290714353323 -0.01670699007809162 0.0 0.0 0.0 0.0
1.035 0.3437228798866272 -1.0939350128173828 0.0036124857142567635 -0.016522983089089394 0.0 0.0 0.0 0.0
1.036 0.3425002992153168 -1.0941674709320068 0.003126162104308605 -0.016287093982100487 0.0 0.0 0.0 0.0
1.037 0.340946763753891 -1.0944275856018066 0.002641012892127037 -0.016089443117380142 0.0 0.0 0.0 0.0
1.038 0.34044310450553894 -1.0949764251708984 0.0021786103025078773 -0.015886357054114342 0.0 0.0 0.0 0.0
1.039 0.3371540307998657 -1.0954523086547852 0.0017038322985172272 -0.01570691354572773 0.0 0.0 0.0 0.0
1.04 0.3351549208164215 -1.0959632396697998 0.001269252970814705 -0.015498043969273567 0.0 0.0 0.0 0.0
1.041 0.3332185745239258 -1.0965886116027832 0.000894518569111824 -0.01529458537697792 0.0 0.0 0.0 0.0
1.042 0.3307337462902069 -1.0973670482635498 0.0004360601305961609 -0.015078394673764706 0.0 0.0 0.0 0.0
1.043 0.3314189016819 -1.0960633754730225 0.0001237252727150917 -0.01485983282327652 0.0 0.0 0.0 0.0
1.044 0.3283321261405945 -1.0979684591293335 -0.0003151111304759979 -0.014695034362375736 0.0 0.0 0.0 0.0
1.045 0.3279143273830414 -1.098480463027954 -0.000572708435356617 -0.014474654570221901 0.0 0.0 0.0 0.0
1.046 0.32504138350486755 -1.0978690385818481 -0.0009521888568997383 -0.014238081872463226 0.0 0.0 0.0 0.0
1.047 0.32348012924194336 -1.0985033512115479 -0.0012736041098833084 -0.01405383087694645 0.0 0.0 0.0 0.0
1.048 0.3222976326942444 -1.0999969244003296 -0.0015685036778450012 -0.013868661597371101 0.0 0.0 0.0 0.0
1.049 0.32187995314598083 -1.0983752012252808 -0.0018283696845173836 -0.013673187233507633 0.0 0.0 0.0 0.0
1.05 0.3197289705276489 -1.09780752658844 -0.0021016011014580727 -0.013475628569722176 0.0 0.0 0.0 0.0
1.051 0.31828564405441284 -1.0995012521743774 -0.0024179695174098015 -0.01330749224871397 0.0 0.0 0.0 0.0
1.052 0.31754589080810547 -1.0984516143798828 -0.0026700086891651154 -0.01310046762228012 0.0 0.0 0.0 0.0
1.053 0.3136897087097168 -1.1001063585281372 -0.002956913784146309 -0.012936852872371674 0.0 0.0 0.0 0.0
1.054 0.31317657232284546 -1.100534439086914 -0.003233412280678749 -0.012763157486915588 0.0 0.0 0.0 0.0
1.055 0.31147295236587524 -1.1002197265625 -0.003467559814453125 -0.01260153017938137 0.0 0.0 0.0 0.0
1.056 0.3096761703491211 -1.1012836694717407 -0.003697369247674942 -0.012438464909791946 0.0 0.0 0.0 0.0
1.057 0.30800431966781616 -1.1006128787994385 -0.003972252830862999 -0.012266101315617561 0.0 0.0 0.0 0.0
1.058 0.30668556690216064 -1.1009225845336914 -0.004235243424773216 -0.012081410735845566 0.0 0.0 0.0 0.0
1.059 0.30429893732070923 -1.101638674736023 -0.004465095698833466 -0.011924253776669502 0.0 0.0 0.0 0.0
1.06 0.3043164312839508 -1.1009488105773926 -0.00467828381806612 -0.011735353618860245 0.0 0.0 0.0 0.0
1.061 0.3029668629169464 -1.101291298866272 -0.004925713874399662 -0.011556653305888176 0.0 0.0 0.0 0.0
1.062 0.30095648765563965 -1.1017309427261353 -0.0051724715158343315 -0.011362385004758835 0.0 0.0 0.0 0.0
1.063 0.2987995147705078 -1.1020407676696777 -0.005402714014053345 -0.011192228645086288 0.0 0.0 0.0 0.0
1.064 0.2962566912174225 -1.1024733781814575 -0.005570579320192337 -0.011034326627850533 0.0 0.0 0.0 0.0
1.065 0.29476168751716614 -1.1033278703689575 -0.0058496734127402306 -0.010845559649169445 0.0 0.0 0.0 0.0
1.066 0.29468274116516113 -1.101763129234314 -0.006035430356860161 -0.010689937509596348 0.0 0.0 0.0 0.0
1.067 0.2913218140602112 -1.102953314781189 -0.006263423711061478 -0.010527823120355606 0.0 0.0 0.0 0.0
1.068 0.28837549686431885 -1.1023645401000977 -0.006460981443524361 -0.010306261479854584 0.0 0.0 0.0 0.0
1.069 0.29011040925979614 -1.1028021574020386 -0.0066564204171299934 -0.010158469900488853 0.0 0.0 0.0 0.0
1.07 0.2863214313983917 -1.1027204990386963 -0.006899986416101456 -0.009998084977269173 0.0 0.0 0.0 0.0
1.071 0.2844524085521698 -1.1041861772537231 -0.00708998367190361 -0.009779216721653938 0.0 0.0 0.0 0.0
1.072 0.2837587594985962 -1.1045258045196533 -0.0073169199749827385 -0.009633909910917282 0.0 0.0 0.0 0.0
1.073 0.2845931053161621 -1.10288405418396 -0.007494447752833366 -0.0094429487362504 0.0 0.0 0.0 0.0
1.074 0.28170448541641235 -1.1033836603164673 -0.007727239280939102 -0.00917880516499281 0.0 0.0 0.0 0.0
1.075 0.2791369557380676 -1.1040382385253906 -0.007916782051324844 -0.009022966958582401 0.0 0.0 0.0 0.0
1.076 0.27465856075286865 -1.1043403148651123 -0.008070062845945358 -0.00880565494298935 0.0 0.0 0.0 0.0
1.077 0.27753403782844543 -1.1026371717453003 -0.008267098106443882 -0.008637447841465473 0.0 0.0 0.0 0.0
1.078 0.27551236748695374 -1.1035425662994385 -0.008464195765554905 -0.008416211232542992 0.0 0.0 0.0 0.0
1.079 0.2739230990409851 -1.1049752235412598 -0.00860541220754385 -0.008219932205975056 0.0 0.0 0.0 0.0
1.08 0.27018168568611145 -1.1027662754058838 -0.008826175704598427 -0.007986225187778473 0.0 0.0 0.0 0.0
1.081 0.27099451422691345 -1.1042896509170532 -0.008994889445602894 -0.007827291265130043 0.0 0.0 0.0 0.0
1.082 0.267939954996109 -1.1054539680480957 -0.009123004972934723 -0.007643405348062515 0.0 0.0 0.0 0.0
1.083 0.26560068130493164 -1.1055480241775513 -0.009305807761847973 -0.007385799661278725 0.0 0.0 0.0 0.0
1.084 0.2655852437019348 -1.105440616607666 -0.009461558423936367 -0.007190914824604988 0.0 0.0 0.0 0.0
1.085 0.26236411929130554 -1.1050595045089722 -0.009653105400502682 -0.006960098631680012 0.0 0.0 0.0 0.0
1.086 0.2628559172153473 -1.104841709136963 -0.009830772876739502 -0.006795682944357395 0.0 0.0 0.0 0.0
1.087 0.2600240707397461 -1.1045026779174805 -0.009958184324204922 -0.006577916443347931 0.0 0.0 0.0 0.0
1.088 0.2597661018371582 -1.104852318763733 -0.01010243408381939 -0.006373243406414986 0.0 0.0 0.0 0.0
1.089 0.25689053535461426 -1.1044927835464478 -0.010286521166563034 -0.0061522480100393295 0.0 0.0 0.0 0.0
1.09 0.2544894814491272 -1.104716181755066 -0.010425953194499016 -0.005916194058954716 0.0 0.0 0.0 0.0
1.091 0.253038227558136 -1.1056323051452637 -0.010597032494843006 -0.005706015974283218 0.0 0.0 0.0 0.0
1.092 0.2530175745487213 -1.1069837808609009 -0.010755716823041439 -0.005484006367623806 0.0 0.0 0.0 0.0
1.093 0.2517452538013458 -1.1042743921279907 -0.010931522585451603 -0.005263331346213818 0.0 0.0 0.0 0.0
1.094 0.24886757135391235 -1.10593843460083 -0.011133091524243355 -0.005000727251172066 0.0 0.0 0.0 0.0
1.095 0.24833109974861145 -1.1047844886779785 -0.011282345280051231 -0.004758862778544426 0.0 0.0 0.0 0.0
1.096 0.24724093079566956 -1.1041284799575806 -0.011424090713262558 -0.004447155632078648 0.0 0.0 0.0 0.0
1.097 0.24465996026992798 -1.1050004959106445 -0.011581825092434883 -0.004169081337749958 0.0 0.0 0.0 0.0
1.098 0.24132153391838074 -1.1068003177642822 -0.011741168797016144 -0.003876308910548687 0.0 0.0 0.0 0.0
1.099 0.24096260964870453 -1.1053394079208374 -0.011843300424516201 -0.0036383839324116707 0.0 0.0 0.0 0.0
1.1 0.23854856193065643 -1.10458505153656 -0.011930733919143677 -0.0033629024401307106 0.0 0.0 0.0 0.0
1.101 0.23930779099464417 -1.1055715084075928 -0.012051815167069435 -0.003118172287940979 0.0 0.0 0.0 0.0
1.102 0.23521549999713898 -1.1054435968399048 -0.012197828851640224 -0.0028012674301862717 0.0 0.0 0.0 0.0
1.103 0.23656517267227173 -1.104493260383606 -0.01228911429643631 -0.002527741715312004 0.0 0.0 0.0 0.0
1.104 0.23240718245506287 -1.104403018951416 -0.012418067082762718 -0.0022097695618867874 0.0 0.0 0.0 0.0
1.105 0.23141585290431976 -1.1058176755905151 -0.012494628317654133 -0.0019449610263109207 0.0 0.0 0.0 0.0
1.106 0.23052164912223816 -1.105035662651062 -0.012605790048837662 -0.0016732914373278618 0.0 0.0 0.0 0.0
1.107 0.22938714921474457 -1.1039786338806152 -0.012728367000818253 -0.0013694828376173973 0.0 0.0 0.0 0.0
1.108 0.22708085179328918 -1.1044483184814453 -0.012832066975533962 -0.0010711662471294403 0.0 0.0 0.0 0.0
1.109 0.22717177867889404 -1.1050479412078857 -0.012958426959812641 -0.0007760375738143921 0.0 0.0 0.0 0.0
1.11 0.222823828458786 -1.1050835847854614 -0.013046490959823132 -0.0004015667364001274 0.0 0.0 0.0 0.0
1.111 0.22350116074085236 -1.1040688753128052 -0.013171810656785965 -9.0000219643116e-05 0.0 0.0 0.0 0.0
1.112 0.22054056823253632 -1.1047353744506836 -0.013220353052020073 0.00025904085487127304 0.0 0.0 0.0 0.0
1.113 0.22097261250019073 -1.1043392419815063 -0.013311061076819897 0.0005713449791073799 0.0 0.0 0.0 0.0
1.114 0.21818511188030243 -1.10347580909729 -0.013358291238546371 0.0009572496637701988 0.0 0.0 0.0 0.0
1.115 0.21706819534301758 -1.1033333539962769 -0.013459570705890656 0.0012443559244275093 0.0 0.0 0.0 0.0
1.116 0.21288222074508667 -1.1034348011016846 -0.013528172858059406 0.001599636860191822 0.0 0.0 0.0 0.0
1.117 0.21394965052604675 -1.103454828262329 -0.013551722280681133 0.0020051803439855576 0.0 0.0 0.0 0.0
1.118 0.2110241800546646 -1.1043862104415894 -0.01361264381557703 0.002374955452978611 0.0 0.0 0.0 0.0
1.119 0.21057310700416565 -1.103208065032959 -0.013619931414723396 0.0027561355382204056 0.0 0.0 0.0 0.0
1.12 0.20883136987686157 -1.1040061712265015 -0.01364915817975998 0.0031734751537442207 0.0 0.0 0.0 0.0
1.121 0.2075366973876953 -1.1032836437225342 -0.013640924356877804 0.0035744570195674896 0.0 0.0 0.0 0.0
1.122 0.20487335324287415 -1.103521466255188 -0.013613659888505936 0.003951109014451504 0.0 0.0 0.0 0.0
1.123 0.20563919842243195 -1.103066325187683 -0.013642869889736176 0.004313606768846512 0.0 0.0 0.0 0.0
1.124 0.20140500366687775 -1.1027518510818481 -0.013606881722807884 0.00474337674677372 0.0 0.0 0.0 0.0
1.125 0.19970622658729553 -1.10258150100708 -0.013624411076307297 0.005140733905136585 0.0 0.0 0.0 0.0
1.126 0.19816674292087555 -1.10218346118927 -0.01356437150388956 0.005551261827349663 0.0 0.0 0.0 0.0
1.127 0.19821828603744507 -1.1023956537246704 -0.013523937202990055 0.005967849865555763 0.0 0.0 0.0 0.0
1.128 0.19666972756385803 -1.1020033359527588 -0.013438612222671509 0.006398286670446396 0.0 0.0 0.0 0.0
1.129 0.1944301873445511 -1.103271722793579 -0.01340592559427023 0.006827962584793568 0.0 0.0 0.0 0.0
1.13 0.19419905543327332 -1.1018086671829224 -0.013299251906573772 0.00722155999392271 0.0 0.0 0.0 0.0
1.131 0.19194084405899048 -1.1014976501464844 -0.013245975598692894 0.007715481333434582 0.0 0.0 0.0 0.0
1.132 0.19075219333171844 -1.102027416229248 -0.01310575008392334 0.008161795325577259 0.0 0.0 0.0 0.0
1.133 0.1877976953983307 -1.1014121770858765 -0.012987717986106873 0.008573710918426514 0.0 0.0 0.0 0.0
1.134 0.18853318691253662 -1.0994763374328613 -0.012874611653387547 0.009024577215313911 0.0 0.0 0.0 0.0
1.135 0.18475337326526642 -1.1009293794631958 -0.012740153819322586 0.009502480737864971 0.0 0.0 0.0 0.0
1.136 0.184867262840271 -1.100997805595398 -0.01256030797958374 0.00992851797491312 0.0 0.0 0.0 0.0
1.137 0.18263345956802368 -1.1015204191207886 -0.012387041002511978 0.010368386283516884 0.0 0.0 0.0 0.0
1.138 0.18262387812137604 -1.100578784942627 -0.012163762003183365 0.010823918506503105 0.0 0.0 0.0 0.0
1.139 0.17982788383960724 -1.100725531578064 -0.011975879780948162 0.011286947876214981 0.0 0.0 0.0 0.0
1.14 0.1784851998090744 -1.1009713411331177 -0.011743730865418911 0.01174427941441536 0.0 0.0 0.0 0.0
1.141 0.17638641595840454 -1.099103569984436 -0.011460848152637482 0.01215427927672863 0.0 0.0 0.0 0.0
1.142 0.17557893693447113 -1.0980641841888428 -0.011267725378274918 0.012572362087666988 0.0 0.0 0.0 0.0
1.143 0.17123301327228546 -1.098838448524475 -0.01100847590714693 0.013003828935325146 0.0 0.0 0.0 0.0
1.144 0.1726781576871872 -1.0991889238357544 -0.01078714057803154 0.013461696915328503 0.0 0.0 0.0 0.0
1.145 0.16974548995494843 -1.098252534866333 -0.010497341863811016 0.013914890587329865 0.0 0.0 0.0 0.0
1.146 0.1684228926897049 -1.0985636711120605 -0.010245278477668762 0.014333861880004406 0.0 0.0 0.0 0.0
1.147 0.16745612025260925 -1.0982916355133057 -0.009961563162505627 0.014825058169662952 0.0 0.0 0.0 0.0
1.148 0.16586460173130035 -1.0973602533340454 -0.009566920809447765 0.015370349399745464 0.0 0.0 0.0 0.0
1.149 0.1636289358139038 -1.0975114107131958 -0.009326867759227753 0.015790211036801338 0.0 0.0 0.0 0.0
1.15 0.16387508809566498 -1.0974159240722656 -0.00897891167551279 0.01626725308597088 0.0 0.0 0.0 0.0
1.151 0.16201193630695343 -1.095823049545288 -0.008586169220507145 0.016795534640550613 0.0 0.0 0.0 0.0
1.152 0.15965014696121216 -1.0975368022918701 -0.008219920098781586 0.017339225858449936 0.0 0.0 0.0 0.0
1.153 0.1589554250240326 -1.0966531038284302 -0.007768329232931137 0.017815662547945976 0.0 0.0 0.0 0.0
1.154 0.159878209233284 -1.09586501121521 -0.007346649654209614 0.018295004963874817 0.0 0.0 0.0 0.0
1.155 0.15455028414726257 -1.095141887664795 -0.006765201687812805 0.018794048577547073 0.0 0.0 0.0 0.0
1.156 0.15423746407032013 -1.0951460599899292 -0.006290102377533913 0.01927587389945984 0.0 0.0 0.0 0.0
1.157 0.15265320241451263 -1.0950310230255127 -0.005709221586585045 0.019779428839683533 0.0 0.0 0.0 0.0
1.158 0.15177702903747559 -1.093458652496338 -0.00511871837079525 0.020213177427649498 0.0 0.0 0.0 0.0
1.159 0.1476990133523941 -1.0947777032852173 -0.004455113783478737 0.020713577046990395 0.0 0.0 0.0 0.0
1.16 0.1475607454776764 -1.0943710803985596 -0.003846009261906147 0.02111627534031868 0.0 0.0 0.0 0.0
1.161 0.145806223154068 -1.091994047164917 -0.0031369589269161224 0.02154131792485714 0.0 0.0 0.0 0.0
1.162 0.1442192941904068 -1.0938069820404053 -0.0024846401065587997 0.022003844380378723 0.0 0.0 0.0 0.0
1.163 0.14260026812553406 -1.0930756330490112 -0.001736464910209179 0.02242925763130188 0.0 0.0 0.0 0.0
1.164 0.14012470841407776 -1.0924752950668335 -0.0009171236306428909 0.022797245532274246 0.0 0.0 0.0 0.0
1.165 0.14110052585601807 -1.0911777019500732 -0.00017504114657640457 0.023202918469905853 0.0 0.0 0.0 0.0
1.166 0.14005397260189056 -1.0916017293930054 0.0006110696122050285 0.023570450022816658 0.0 0.0 0.0 0.0
1.167 0.13836947083473206 -1.0912373065948486 0.0015519177541136742 0.02395196445286274 0.0 0.0 0.0 0.0
1.168 0.13590429723262787 -1.0906952619552612 0.002493344247341156 0.02431468851864338 0.0 0.0 0.0 0.0
1.169 0.13458147644996643 -1.0903420448303223 0.0034161582589149475 0.024632105603814125 0.0 0.0 0.0 0.0
1.17 0.1348007619380951 -1.0894755125045776 0.004415576346218586 0.024903515353798866 0.0 0.0 0.0 0.0
1.171 0.13180479407310486 -1.0892359018325806 0.005551159381866455 0.02515692636370659 0.0 0.0 0.0 0.0
1.172 0.1297069787979126 -1.0897263288497925 0.006623830646276474 0.025418879464268684 0.0 0.0 0.0 0.0
1.173 0.1284211128950119 -1.0901482105255127 0.007790395990014076 0.025626348331570625 0.0 0.0 0.0 0.0
1.174 0.128173828125 -1.0887423753738403 0.009028498083353043 0.025764308869838715 0.0 0.0 0.0 0.0
1.175 0.12538866698741913 -1.0873873233795166 0.010309731587767601 0.025837454944849014 0.0 0.0 0.0 0.0
1.176 0.1225331723690033 -1.0890116691589355 0.011696547269821167 0.02587871067225933 0.0 0.0 0.0 0.0
1.177 0.12241704016923904 -1.0870023965835571 0.013110746629536152 0.02579079009592533 0.0 0.0 0.0 0.0
1.178 0.12207016348838806 -1.0859017372131348 0.014569668099284172 0.025661926716566086 0.0 0.0 0.0 0.0
1.179 0.12039830535650253 -1.0865193605422974 0.016106877475976944 0.0254046767950058 0.0 0.0 0.0 0.0
1.18 0.1179560124874115 -1.086065649986267 0.01767713390290737 0.024980731308460236 0.0 0.0 0.0 0.0
1.181 0.11844170838594437 -1.0852000713348389 0.019219014793634415 0.024478241801261902 0.0 0.0 0.0 0.0
1.182 0.11543326079845428 -1.0844905376434326 0.020841289311647415 0.023823395371437073 0.0 0.0 0.0 0.0
1.183 0.11492886394262314 -1.084594964981079 0.022359831258654594 0.023066338151693344 0.0 0.0 0.0 0.0
1.184 0.11420127004384995 -1.0839526653289795 0.02393319271504879 0.022135024890303612 0.0 0.0 0.0 0.0
1.185 0.1129973754286766 -1.0836315155029297 0.02543746307492256 0.021036915481090546 0.0 0.0 0.0 0.0
1.186 0.11213681101799011 -1.0831265449523926 0.02683432586491108 0.01991443894803524 0.0 0.0 0.0 0.0
1.187 0.10893537104129791 -1.0832037925720215 0.028240272775292397 0.018533632159233093 0.0 0.0 0.0 0.0
1.188 0.10880228132009506 -1.0825093984603882 0.029557224363088608 0.01710401102900505 0.0 0.0 0.0 0.0
1.189 0.10662755370140076 -1.0807708501815796 0.030803006142377853 0.015532202087342739 0.0 0.0 0.0 0.0
1.19 0.10524535179138184 -1.08113431930542 0.03186068311333656 0.013845973648130894 0.0 0.0 0.0 0.0
1.191 0.10519005358219147 -1.0817675590515137 0.0328291654586792 0.01206952054053545 0.0 0.0 0.0 0.0
1.192 0.1036728248000145 -1.0798075199127197 0.033693790435791016 0.010167785920202732 0.0 0.0 0.0 0.0
1.193 0.10181078314781189 -1.0793548822402954 0.03434218093752861 0.008293631486594677 0.0 0.0 0.0 0.0
1.194 0.10039113461971283 -1.0789700746536255 0.03490685671567917 0.006264562718570232 0.0 0.0 0.0 0.0
1.195 0.09886568039655685 -1.0788872241973877 0.03525232523679733 0.004129219800233841 0.0 0.0 0.0 0.0
1.196 0.09717588871717453 -1.0777138471603394 0.03551885858178139 0.0020134486258029938 0.0 0.0 0.0 0.0
1.197 0.09493307024240494 -1.0771617889404297 0.03553931415081024 -2.8489157557487488e-05 0.0 0.0 0.0 0.0
1.198 0.09699253737926483 -1.0772042274475098 0.03538816422224045 -0.002198837697505951 0.0 0.0 0.0 0.0
1.199 0.09371057152748108 -1.0762745141983032 0.0350867323577404 -0.004348031245172024 0.0 0.0 0.0 0.0
1.2 0.09128410369157791 -1.07644784450531 0.03452801704406738 -0.0064468830823898315 0.0 0.0 0.0 0.0
1.201 0.09053438156843185 -1.0755575895309448 0.03380817547440529 -0.008386367000639439 0.0 0.0 0.0 0.0
1.202 0.08897677063941956 -1.0737437009811401 0.03293830156326294 -0.01031323242932558 0.0 0.0 0.0 0.0
1.203 0.08788620680570602 -1.0737721920013428 0.03192565590143204 -0.011974693275988102 0.0 0.0 0.0 0.0
1.204 0.08681105077266693 -1.074129581451416 0.03086729906499386 -0.013638841919600964 0.0 0.0 0.0 0.0
1.205 0.08612866699695587 -1.073543667793274 0.02964906580746174 -0.015108896419405937 0.0 0.0 0.0 0.0
1.206 0.08450978994369507 -1.073686122894287 0.028400767594575882 -0.01647067256271839 0.0 0.0 0.0 0.0
1.207 0.08325303345918655 -1.0726567506790161 0.027112683281302452 -0.017658714205026627 0.0 0.0 0.0 0.0
1.208 0.08377540856599808 -1.0721004009246826 0.025797434151172638 -0.01871250569820404 0.0 0.0 0.0 0.0
1.209 0.08263865858316422 -1.0723159313201904 0.024427950382232666 -0.019701596349477768 0.0 0.0 0.0 0.0
1.21 0.0792742669582367 -1.0708802938461304 0.023009400814771652 -0.02053896337747574 0.0 0.0 0.0 0.0
1.211 0.07804102450609207 -1.0706120729446411 0.02157588303089142 -0.021313553676009178 0.0 0.0 0.0 0.0
1.212 0.07861289381980896 -1.0697274208068848 0.02015525847673416 -0.021912861615419388 0.0 0.0 0.0 0.0
1.213 0.07717163115739822 -1.0691790580749512 0.018830865621566772 -0.022389302030205727 0.0 0.0 0.0 0.0
1.214 0.07402462512254715 -1.068920373916626 0.01743086613714695 -0.02287217788398266 0.0 0.0 0.0 0.0
1.215 0.07383184134960175 -1.0687777996063232 0.016151227056980133 -0.023167598992586136 0.0 0.0 0.0 0.0
1.216 0.07281018793582916 -1.0681402683258057 0.014847015030682087 -0.02340092323720455 0.0 0.0 0.0 0.0
1.217 0.07105381786823273 -1.0672577619552612 0.013593277893960476 -0.02356964908540249 0.0 0.0 0.0 0.0
1.218 0.06793062388896942 -1.066781997680664 0.012403005734086037 -0.02368670143187046 0.0 0.0 0.0 0.0
1.219 0.06748011708259583 -1.0661308765411377 0.011199467815458775 -0.02372402884066105 0.0 0.0 0.0 0.0
1.22 0.0676257312297821 -1.0650907754898071 0.010084224864840508 -0.023684464395046234 0.0 0.0 0.0 0.0
1.221 0.06472700089216232 -1.065978765487671 0.008992567658424377 -0.02366749383509159 0.0 0.0 0.0 0.0
1.222 0.06417778879404068 -1.0651674270629883 0.00799323245882988 -0.02352704294025898 0.0 0.0 0.0 0.0
1.223 0.06443752348423004 -1.0647170543670654 0.006950617767870426 -0.023401785641908646 0.0 0.0 0.0 0.0
1.224 0.06337649375200272 -1.0638009309768677 0.00604961346834898 -0.023219149559736252 0.0 0.0 0.0 0.0
1.225 0.05939965695142746 -1.063785433769226 0.00510151032358408 -0.02303224615752697 0.0 0.0 0.0 0.0
1.226 0.05814514681696892 -1.0631732940673828 0.00421841349452734 -0.02277763932943344 0.0 0.0 0.0 0.0
1.227 0.05907658860087395 -1.0622669458389282 0.00341611634939909 -0.022545382380485535 0.0 0.0 0.0 0.0
1.228 0.056332651525735855 -1.0608994960784912 0.002596295438706875 -0.022293375805020332 0.0 0.0 0.0 0.0
1.229 0.0569426603615284 -1.0612726211547852 0.0019231084734201431 -0.022008048370480537 0.0 0.0 0.0 0.0
1.23 0.05553508177399635 -1.0598853826522827 0.001180620864033699 -0.02173205092549324 0.0 0.0 0.0 0.0
1.231 0.05386209487915039 -1.0593347549438477 0.0004865247756242752 -0.021418198943138123 0.0 0.0 0.0 0.0
1.232 0.052844125777482986 -1.0584408044815063 -0.00012627989053726196 -0.021118411794304848 0.0 0.0 0.0 0.0
1.233 0.0507766492664814 -1.059578776359558 -0.0008088825270533562 -0.020823221653699875 0.0 0.0 0.0 0.0
1.234 0.049313414841890335 -1.0587724447250366 -0.0014013340696692467 -0.020492296665906906 0.0 0.0 0.0 0.0
1.235 0.04820873215794563 -1.0571918487548828 -0.001964152790606022 -0.02017059177160263 0.0 0.0 0.0 0.0
1.236 0.045559778809547424 -1.0564000606536865 -0.0025670696049928665 -0.01986856758594513 0.0 0.0 0.0 0.0
1.237 0.04684179648756981 -1.0569252967834473 -0.0030899811536073685 -0.019548479467630386 0.0 0.0 0.0 0.0
1.238 0.04365433007478714 -1.055869221687317 -0.0036413203924894333 -0.019229967147111893 0.0 0.0 0.0 0.0
1.239 0.044125284999608994 -1.0549908876419067 -0.0041189780458807945 -0.018890976905822754 0.0 0.0 0.0 0.0
1.24 0.042284391820430756 -1.0547620058059692 -0.004583449102938175 -0.01857168599963188 0.0 0.0 0.0 0.0
1.241 0.04115193709731102 -1.0536038875579834 -0.005068473517894745 -0.018248004838824272 0.0 0.0 0.0 0.0
1.242 0.03979836031794548 -1.0532913208007812 -0.005528231151401997 -0.0179368294775486 0.0 0.0 0.0 0.0
1.243 0.03868631273508072 -1.0534297227859497 -0.0059956395998597145 -0.017606236040592194 0.0 0.0 0.0 0.0
1.244 0.03782970830798149 -1.0523964166641235 -0.0064334385097026825 -0.017214486375451088 0.0 0.0 0.0 0.0
1.245 0.038252394646406174 -1.0520552396774292 -0.006831823848187923 -0.016944166272878647 0.0 0.0 0.0 0.0
1.246 0.03390459343791008 -1.050416350364685 -0.007255892269313335 -0.01653446815907955 0.0 0.0 0.0 0.0
1.247 0.03378384932875633 -1.050049066543579 -0.007584555074572563 -0.016190243884921074 0.0 0.0 0.0 0.0
1.248 0.03552611172199249 -1.0496455430984497 -0.007940374314785004 -0.015882624313235283 0.0 0.0 0.0 0.0
1.249 0.03149791061878204 -1.0485869646072388 -0.008302014321088791 -0.015514315105974674 0.0 0.0 0.0 0.0
1.25 0.02830471843481064 -1.0490487813949585 -0.008737878873944283 -0.01515180803835392 0.0 0.0 0.0 0.0
1.251 0.030077755451202393 -1.0481072664260864 -0.009049811400473118 -0.014813324436545372 0.0 0.0 0.0 0.0
1.252 0.028256621211767197 -1.0470795631408691 -0.009419616311788559 -0.014467760920524597 0.0 0.0 0.0 0.0
1.253 0.02780698612332344 -1.0461370944976807 -0.009703010320663452 -0.014131584204733372 0.0 0.0 0.0 0.0
1.254 0.02642993815243244 -1.0460538864135742 -0.010012746788561344 -0.013759560883045197 0.0 0.0 0.0 0.0
1.255 0.024807803332805634 -1.0451765060424805 -0.010298342444002628 -0.013410414569079876 0.0 0.0 0.0 0.0
1.256 0.022841664031147957 -1.0442588329315186 -0.01062171533703804 -0.013037948869168758 0.0 0.0 0.0 0.0
1.257 0.022839298471808434 -1.044507384300232 -0.010913293808698654 -0.01268929522484541 0.0 0.0 0.0 0.0
1.258 0.021250927820801735 -1.0431839227676392 -0.011203533969819546 -0.012318757362663746 0.0 0.0 0.0 0.0
1.259 0.022693663835525513 -1.0420713424682617 -0.011466646566987038 -0.011974121443927288 0.0 0.0 0.0 0.0
1.26 0.018639687448740005 -1.0414491891860962 -0.011815328150987625 -0.011559576727449894 0.0 0.0 0.0 0.0
1.261 0.015612520277500153 -1.041427493095398 -0.012048608623445034 -0.01118312869220972 0.0 0.0 0.0 0.0
1.262 0.017475981265306473 -1.0407418012619019 -0.012303178198635578 -0.010756716132164001 0.0 0.0 0.0 0.0
1.263 0.017635619267821312 -1.039669394493103 -0.01287697535008192 -0.010056775063276291 0.0 0.0 0.0 0.0
1.264 0.014553530141711235 -1.038346529006958 -0.01307411678135395 -0.009611990302801132 0.0 0.0 0.0 0.0
1.265 0.013034532777965069 -1.0380779504776 -0.013317416422069073 -0.00917438231408596 0.0 0.0 0.0 0.0
1.266 0.013244648464024067 -1.038196086883545 -0.013600540347397327 -0.008686376735568047 0.0 0.0 0.0 0.0
1.267 0.01135480497032404 -1.0372462272644043 -0.013681543990969658 -0.008365722373127937 0.0 0.0 0.0 0.0
1.268 0.011243804357945919 -1.0369606018066406 -0.013818335719406605 -0.007986034266650677 0.0 0.0 0.0 0.0
1.269 0.009908945299685001 -1.0355842113494873 -0.014059843495488167 -0.0074853431433439255 0.0 0.0 0.0 0.0
1.27 0.009024152532219887 -1.0347098112106323 -0.01421115081757307 -0.00707654282450676 0.0 0.0 0.0 0.0
1.271 0.006860863417387009 -1.033760666847229 -0.014299237169325352 -0.006652026437222958 0.0 0.0 0.0 0.0
1.272 0.008327068760991096 -1.0347683429718018 -0.014406492002308369 -0.006284904666244984 0.0 0.0 0.0 0.0
1.273 0.005038350820541382 -1.033373236656189 -0.014505602419376373 -0.00585614237934351 0.0 0.0 0.0 0.0
1.274 0.0021492857486009598 -1.032192587852478 -0.014608435332775116 -0.005432962439954281 0.0 0.0 0.0 0.0
1.275 0.002650986425578594 -1.0316132307052612 -0.014659278094768524 -0.005079976283013821 0.0 0.0 0.0 0.0
1.276 0.0028756847605109215 -1.0307822227478027 -0.014769455417990685 -0.004672517068684101 0.0 0.0 0.0 0.0
1.277 0.0010690158233046532 -1.030056118965149 -0.01484461035579443 -0.004216550849378109 0.0 0.0 0.0 0.0
1.278 -0.00016180146485567093 -1.0300012826919556 -0.01489870622754097 -0.003736204467713833 0.0 0.0 0.0 0.0
1.279 0.00017885491251945496 -1.0293550491333008 -0.014958198182284832 -0.00334918312728405 0.0 0.0 0.0 0.0
1.28 -0.0030450113117694855 -1.0279934406280518 -0.015012909658253193 -0.0029185283929109573 0.0 0.0 0.0 0.0
1.281 -0.003559296950697899 -1.0277740955352783 -0.015037616714835167 -0.0024517690762877464 0.0 0.0 0.0 0.0
1.282 -0.005034939385950565 -1.027374267578125 -0.015023354440927505 -0.001952960155904293 0.0 0.0 0.0 0.0
1.283 -0.004486926831305027 -1.0262548923492432 -0.014978768303990364 -0.0016314983367919922 0.0 0.0 0.0 0.0
1.284 -0.007932070642709732 -1.0258771181106567 -0.014969294890761375 -0.0012001143768429756 0.0 0.0 0.0 0.0
1.285 -0.008043668232858181 -1.0244888067245483 -0.014958013780415058 -0.0007693320512771606 0.0 0.0 0.0 0.0
1.286 -0.0069631049409508705 -1.0241423845291138 -0.014943028800189495 -0.00033492129296064377 0.0 0.0 0.0 0.0
1.287 -0.009670644998550415 -1.024124026298523 -0.014892554841935635 0.00019028689712285995 0.0 0.0 0.0 0.0
1.288 -0.009115724824368954 -1.0225086212158203 -0.014832592569291592 0.0006209732964634895 0.0 0.0 0.0 0.0
1.289 -0.011522137559950352 -1.022742509841919 -0.014762170612812042 0.001024472527205944 0.0 0.0 0.0 0.0
1.29 -0.012272169813513756 -1.0206092596054077 -0.01470822561532259 0.0014385133981704712 0.0 0.0 0.0 0.0
1.291 -0.013169837184250355 -1.020493984222412 -0.014563614502549171 0.0018223458901047707 0.0 0.0 0.0 0.0
1.292 -0.015032641589641571 -1.019869327545166 -0.01451081596314907 0.002147204242646694 0.0 0.0 0.0 0.0
1.293 -0.017992738634347916 -1.019307017326355 -0.014410506933927536 0.0025128088891506195 0.0 0.0 0.0 0.0
1.294 -0.015441671013832092 -1.0183179378509521 -0.014328867197036743 0.0028203725814819336 0.0 0.0 0.0 0.0
1.295 -0.0170946903526783 -1.0182843208312988 -0.014207853004336357 0.003190879710018635 0.0 0.0 0.0 0.0
1.296 -0.01808416098356247 -1.017898678779602 -0.01406045351177454 0.0035663647577166557 0.0 0.0 0.0 0.0
1.297 -0.019069069996476173 -1.0166940689086914 -0.01395651139318943 0.0039000269025564194 0.0 0.0 0.0 0.0
1.298 -0.019845403730869293 -1.0158973932266235 -0.013721100054681301 0.004506940953433514 0.0 0.0 0.0 0.0
1.299 -0.02174520306289196 -1.0148364305496216 -0.01350779552012682 0.004955913871526718 0.0 0.0 0.0 0.0
1.3 -0.02124779112637043 -1.013792634010315 -0.013347676955163479 0.00535198301076889 0.0 0.0 0.0 0.0
1.301 -0.023352840915322304 -1.0130798816680908 -0.013135862536728382 0.005679870955646038 0.0 0.0 0.0 0.0
1.302 -0.02454432100057602 -1.0121634006500244 -0.012970076873898506 0.005956767126917839 0.0 0.0 0.0 0.0
1.303 -0.02629711665213108 -1.0123074054718018 -0.012738584540784359 0.00644262321293354 0.0 0.0 0.0 0.0
1.304 -0.025433523580431938 -1.0109809637069702 -0.012502727098762989 0.006801576353609562 0.0 0.0 0.0 0.0
1.305 -0.02579762600362301 -1.01203453540802 -0.012229973450303078 0.00719311460852623 0.0 0.0 0.0 0.0
1.306 -0.0296157393604517 -1.009853720664978 -0.011904152110219002 0.0077118780463933945 0.0 0.0 0.0 0.0
1.307 -0.02790699526667595 -1.0094707012176514 -0.011421793140470982 0.008499871008098125 0.0 0.0 0.0 0.0
1.308 -0.030246898531913757 -1.0098353624343872 -0.01094947848469019 0.009174948558211327 0.0 0.0 0.0 0.0
1.309 -0.03172139823436737 -1.008089303970337 -0.010525890626013279 0.009801703505218029 0.0 0.0 0.0 0.0
1.31 -0.03088121861219406 -1.007392406463623 -0.010101111605763435 0.010223465971648693 0.0 0.0 0.0 0.0
1.311 -0.03382574021816254 -1.0068527460098267 -0.009666753932833672 0.010815277695655823 0.0 0.0 0.0 0.0
1.312 -0.03364159166812897 -1.0057051181793213 -0.009186914190649986 0.01142142154276371 0.0 0.0 0.0 0.0
1.313 -0.03400860354304314 -1.0048002004623413 -0.00878820288926363 0.011823386885225773 0.0 0.0 0.0 0.0
1.314 -0.03536296635866165 -1.0030094385147095 -0.00827313307672739 0.012325785122811794 0.0 0.0 0.0 0.0
1.315 -0.036983732134103775 -1.0030263662338257 -0.007884562015533447 0.012671997770667076 0.0 0.0 0.0 0.0
1.316 -0.03774820640683174 -1.0026439428329468 -0.007391628809273243 0.013131825253367424 0.0 0.0 0.0 0.0
1.317 -0.03791746497154236 -1.0026627779006958 -0.006971539929509163 0.013503721915185452 0.0 0.0 0.0 0.0
1.318 -0.03865199163556099 -1.001624345779419 -0.006386547349393368 0.014087732881307602 0.0 0.0 0.0 0.0
1.319 -0.041264258325099945 -1.000878930091858 -0.005834333598613739 0.014476598240435123 0.0 0.0 0.0 0.0
1.32 -0.04037034884095192 -1.000065803527832 -0.005237697623670101 0.014911551959812641 0.0 0.0 0.0 0.0
1.321 -0.04083244502544403 -0.9991896152496338 -0.004629128612577915 0.01542552188038826 0.0 0.0 0.0 0.0
1.322 -0.04304586350917816 -0.9974742531776428 -0.004109778441488743 0.015751225873827934 0.0 0.0 0.0 0.0
1.323 -0.04514344781637192 -0.9975652694702148 -0.003428197465837002 0.016221100464463234 0.0 0.0 0.0 0.0
1.324 -0.04481058940291405 -0.9969577789306641 -0.0028524482622742653 0.016563722863793373 0.0 0.0 0.0 0.0
1.325 -0.04597780480980873 -0.995920717716217 -0.0022718701511621475 0.01677749492228031 0.0 0.0 0.0 0.0
1.326 -0.04741508513689041 -0.9959398508071899 -0.0017809532582759857 0.016995592042803764 0.0 0.0 0.0 0.0
1.327 -0.049932125955820084 -0.9946691393852234 -0.0012146756052970886 0.01717769354581833 0.0 0.0 0.0 0.0
1.328 -0.048789143562316895 -0.9944726228713989 -0.0006962781772017479 0.01732705347239971 0.0 0.0 0.0 0.0
1.329 -0.04943002015352249 -0.9926154613494873 -0.00018549244850873947 0.017448564991354942 0.0 0.0 0.0 0.0
1.33 -0.052329860627651215 -0.992769718170166 0.0004342682659626007 0.01762215420603752 0.0 0.0 0.0 0.0
1.331 -0.04730214923620224 -0.9917954802513123 0.0009358590468764305 0.017741214483976364 0.0 0.0 0.0 0.0
1.332 -0.05126862972974777 -0.992103099822998 0.0015784446150064468 0.017886044457554817 0.0 0.0 0.0 0.0
1.333 -0.05307573080062866 -0.9908381104469299 0.0021606869995594025 0.017954103648662567 0.0 0.0 0.0 0.0
1.334 -0.05267924815416336 -0.989578127861023 0.0027235178276896477 0.017972083762288094 0.0 0.0 0.0 0.0
1.335 -0.05429413542151451 -0.9888560771942139 0.003381401300430298 0.01807382144033909 0.0 0.0 0.0 0.0
1.336 -0.05783247947692871 -0.9879142045974731 0.003994729369878769 0.01812083274126053 0.0 0.0 0.0 0.0
1.337 -0.05493520200252533 -0.9876562356948853 0.00456578191369772 0.01810765266418457 0.0 0.0 0.0 0.0
1.338 -0.05633184313774109 -0.9866966605186462 0.005219070240855217 0.018089426681399345 0.0 0.0 0.0 0.0
1.339 -0.061285290867090225 -0.9853110313415527 0.0059153735637664795 0.018045753240585327 0.0 0.0 0.0 0.0
1.34 -0.05997492000460625 -0.9854639172554016 0.006496801041066647 0.017993610352277756 0.0 0.0 0.0 0.0
1.341 -0.05867497995495796 -0.9857204556465149 0.00717119500041008 0.017950644716620445 0.0 0.0 0.0 0.0
1.342 -0.060017336159944534 -0.9834692478179932 0.007884325459599495 0.017839819192886353 0.0 0.0 0.0 0.0
1.343 -0.06328447163105011 -0.9832420349121094 0.00846719741821289 0.017689507454633713 0.0 0.0 0.0 0.0
1.344 -0.060466520488262177 -0.9832376837730408 0.00907541997730732 0.01756935939192772 0.0 0.0 0.0 0.0
1.345 -0.06264389306306839 -0.981467604637146 0.009804329834878445 0.017354121431708336 0.0 0.0 0.0 0.0
1.346 -0.06285551190376282 -0.9809930920600891 0.010375960730016232 0.017167331650853157 0.0 0.0 0.0 0.0
1.347 -0.06331920623779297 -0.9805886745452881 0.010959860868752003 0.016978580504655838 0.0 0.0 0.0 0.0
1.348 -0.06736616045236588 -0.9800789952278137 0.01164896972477436 0.01665879786014557 0.0 0.0 0.0 0.0
1.349 -0.06444960832595825 -0.9786626100540161 0.012268450111150742 0.0163909699767828 0.0 0.0 0.0 0.0
1.35 -0.06575866788625717 -0.9784526824951172 0.012921144254505634 0.01608733832836151 0.0 0.0 0.0 0.0
1.351 -0.06626463681459427 -0.9774605631828308 0.013655044138431549 0.015705963596701622 0.0 0.0 0.0 0.0
1.352 -0.07290443778038025 -0.9755766987800598 0.014403400011360645 0.015292774885892868 0.0 0.0 0.0 0.0
1.353 -0.06892551481723785 -0.9765762090682983 0.015058455057442188 0.01490416657179594 0.0 0.0 0.0 0.0
1.354 -0.0712038204073906 -0.9755426049232483 0.015731677412986755 0.014427866786718369 0.0 0.0 0.0 0.0
1.355 -0.0704842209815979 -0.9748800992965698 0.016385748982429504 0.01398465409874916 0.0 0.0 0.0 0.0
1.356 -0.07404422760009766 -0.9741373062133789 0.016918666660785675 0.013439354486763477 0.0 0.0 0.0 0.0
1.357 -0.07141181826591492 -0.9729759693145752 0.017472676932811737 0.012887516990303993 0.0 0.0 0.0 0.0
1.358 -0.07435167580842972 -0.9720227718353271 0.018086442723870277 0.012308256700634956 0.0 0.0 0.0 0.0
1.359 -0.07411476224660873 -0.9712088108062744 0.018576541915535927 0.011783627793192863 0.0 0.0 0.0 0.0
1.36 -0.07737121731042862 -0.970681369304657 0.019113531336188316 0.011129670776426792 0.0 0.0 0.0 0.0
1.361 -0.07514715939760208 -0.9699614644050598 0.019569391384720802 0.010529364459216595 0.0 0.0 0.0 0.0
1.362 -0.07703522592782974 -0.9695263504981995 0.020088067278265953 0.009854547679424286 0.0 0.0 0.0 0.0
1.363 -0.07739841938018799 -0.9688515663146973 0.020593972876667976 0.009077207185328007 0.0 0.0 0.0 0.0
1.364 -0.07716004550457001 -0.9676672220230103 0.021074185147881508 0.008273939602077007 0.0 0.0 0.0 0.0
1.365 -0.07817919552326202 -0.9674161672592163 0.021516041830182076 0.00750681571662426 0.0 0.0 0.0 0.0
1.366 -0.0806458368897438 -0.9668737649917603 0.021855037659406662 0.006692110560834408 0.0 0.0 0.0 0.0
1.367 -0.08227153867483139 -0.9661861658096313 0.022172974422574043 0.005866019055247307 0.0 0.0 0.0 0.0
1.368 -0.08089727908372879 -0.965060293674469 0.02242947369813919 0.005030950531363487 0.0 0.0 0.0 0.0
1.369 -0.08327732980251312 -0.964145839214325 0.022670721635222435 0.004247189499437809 0.0 0.0 0.0 0.0
1.37 -0.08408936113119125 -0.9642730355262756 0.022865762934088707 0.0034481678158044815 0.0 0.0 0.0 0.0
1.371 -0.0848393514752388 -0.9632408022880554 0.022999603301286697 0.0026085451245307922 0.0 0.0 0.0 0.0
1.372 -0.08214738219976425 -0.9621259570121765 0.023133719339966774 0.0018182052299380302 0.0 0.0 0.0 0.0
1.373 -0.08652211725711823 -0.9608573317527771 0.023264257237315178 0.0008749505504965782 0.0 0.0 0.0 0.0
1.374 -0.08562999963760376 -0.9605297446250916 0.02335938811302185 7.898639887571335e-05 0.0 0.0 0.0 0.0
1.375 -0.08711418509483337 -0.9601865410804749 0.023347945883870125 -0.00085423793643713 0.0 0.0 0.0 0.0
1.376 -0.08789157122373581 -0.960059404373169 0.023361528292298317 -0.0017043007537722588 0.0 0.0 0.0 0.0
1.377 -0.08871018141508102 -0.9577611684799194 0.02331523410975933 -0.0025180093944072723 0.0 0.0 0.0 0.0
1.378 -0.08862233906984329 -0.9585219621658325 0.023243246600031853 -0.0033979862928390503 0.0 0.0 0.0 0.0
1.379 -0.08806990087032318 -0.9577416777610779 0.023091139271855354 -0.0042481496930122375 0.0 0.0 0.0 0.0
1.38 -0.09354479610919952 -0.9560680389404297 0.022935232147574425 -0.00518789142370224 0.0 0.0 0.0 0.0
1.381 -0.09256274253129959 -0.9560418725013733 0.022762872278690338 -0.005947507917881012 0.0 0.0 0.0 0.0
1.382 -0.09200917184352875 -0.9559196829795837 0.022563518956303596 -0.006761997938156128 0.0 0.0 0.0 0.0
1.383 -0.09357928484678268 -0.9540945887565613 0.022299770265817642 -0.007621459662914276 0.0 0.0 0.0 0.0
1.384 -0.09513433277606964 -0.9537827372550964 0.02204279974102974 -0.008406572043895721 0.0 0.0 0.0 0.0
1.385 -0.09168688952922821 -0.953967809677124 0.021788304671645164 -0.00906408578157425 0.0 0.0 0.0 0.0
1.386 -0.09418428689241409 -0.952885091304779 0.021378155797719955 -0.009933567605912685 0.0 0.0 0.0 0.0
1.387 -0.09641416370868683 -0.9509744644165039 0.02107064612209797 -0.010648711584508419 0.0 0.0 0.0 0.0
1.388 -0.09754648804664612 -0.9510817527770996 0.02069256082177162 -0.011368082836270332 0.0 0.0 0.0 0.0
1.389 -0.09775741398334503 -0.949822187423706 0.020315021276474 -0.012020516209304333 0.0 0.0 0.0 0.0
1.39 -0.09793262183666229 -0.949564516544342 0.019890235736966133 -0.012748491950333118 0.0 0.0 0.0 0.0
1.391 -0.09934031963348389 -0.9490944147109985 0.019459005445241928 -0.013430670835077763 0.0 0.0 0.0 0.0
1.392 -0.10133161395788193 -0.9484162926673889 0.019008157774806023 -0.0140608511865139 0.0 0.0 0.0 0.0
1.393 -0.10001137107610703 -0.947492778301239 0.018559157848358154 -0.014701233245432377 0.0 0.0 0.0 0.0
1.394 -0.09817398339509964 -0.9467952251434326 0.01805446669459343 -0.015296531841158867 0.0 0.0 0.0 0.0
1.395 -0.1041770875453949 -0.946047842502594 0.017501983791589737 -0.016011202707886696 0.0 0.0 0.0 0.0
1.396 -0.10103381425142288 -0.9457553029060364 0.017003996297717094 -0.016577690839767456 0.0 0.0 0.0 0.0
1.397 -0.10154179483652115 -0.9445526599884033 0.01642759144306183 -0.017201155424118042 0.0 0.0 0.0 0.0
1.398 -0.10614325106143951 -0.9434617757797241 0.015799980610609055 -0.01785697042942047 0.0 0.0 0.0 0.0
1.399 -0.10428221523761749 -0.9437302350997925 0.01533258706331253 -0.01830296590924263 0.0 0.0 0.0 0.0
1.4 -0.10484899580478668 -0.9436601400375366 0.014719933271408081 -0.018870051950216293 0.0 0.0 0.0 0.0
1.401 -0.10543330758810043 -0.9416457414627075 0.014181493781507015 -0.019326958805322647 0.0 0.0 0.0 0.0
1.402 -0.10611674189567566 -0.9418281316757202 0.013564085587859154 -0.019841045141220093 0.0 0.0 0.0 0.0
1.403 -0.10797351598739624 -0.9409424662590027 0.012978983111679554 -0.020288430154323578 0.0 0.0 0.0 0.0
1.404 -0.1062752828001976 -0.9398393034934998 0.012380853295326233 -0.020738013088703156 0.0 0.0 0.0 0.0
1.405 -0.10922667384147644 -0.9395758509635925 0.01172327995300293 -0.021260403096675873 0.0 0.0 0.0 0.0
1.406 -0.10866372287273407 -0.9393422603607178 0.01115562953054905 -0.02163631282746792 0.0 0.0 0.0 0.0
1.407 -0.10900760442018509 -0.9388761520385742 0.010500711388885975 -0.022037774324417114 0.0 0.0 0.0 0.0
1.408 -0.11110562086105347 -0.9375712275505066 0.009850515983998775 -0.022448565810918808 0.0 0.0 0.0 0.0
1.409 -0.11428182572126389 -0.9369193911552429 0.009175521321594715 -0.022857343778014183 0.0 0.0 0.0 0.0
1.41 -0.11289811879396439 -0.9365929961204529 0.008547712117433548 -0.023183094337582588 0.0 0.0 0.0 0.0
1.411 -0.11236882954835892 -0.9351966381072998 0.007914725691080093 -0.023485751822590828 0.0 0.0 0.0 0.0
1.412 -0.11510655283927917 -0.9354618787765503 0.007166474126279354 -0.023910189047455788 0.0 0.0 0.0 0.0
1.413 -0.11535689979791641 -0.9335731863975525 0.006517866626381874 -0.02420058287680149 0.0 0.0 0.0 0.0
1.414 -0.11416590958833694 -0.9336760640144348 0.005789724178612232 -0.02452188916504383 0.0 0.0 0.0 0.0
1.415 -0.11516986787319183 -0.9334790706634521 0.005057499743998051 -0.024855898693203926 0.0 0.0 0.0 0.0
1.416 -0.11923804879188538 -0.9318492412567139 0.004231606610119343 -0.025154894217848778 0.0 0.0 0.0 0.0
1.417 -0.11774737387895584 -0.9311302900314331 0.0035554366186261177 -0.025407712906599045 0.0 0.0 0.0 0.0
1.418 -0.11776509881019592 -0.9298502802848816 0.0027656229212880135 -0.02562469057738781 0.0 0.0 0.0 0.0
1.419 -0.11951366066932678 -0.9310063719749451 0.001954423263669014 -0.025927947834134102 0.0 0.0 0.0 0.0
1.42 -0.1183670312166214 -0.9304493069648743 0.0012086136266589165 -0.02613222971558571 0.0 0.0 0.0 0.0
1.421 -0.12125767767429352 -0.9280306100845337 0.00025011971592903137 -0.02627585642039776 0.0 0.0 0.0 0.0
1.422 -0.11879167705774307 -0.9285227060317993 -0.0005289660766720772 -0.026509147137403488 0.0 0.0 0.0 0.0
1.423 -0.12211022526025772 -0.9272478818893433 -0.001468488946557045 -0.026633543893694878 0.0 0.0 0.0 0.0
1.424 -0.12073107808828354 -0.9273499250411987 -0.002314317040145397 -0.02673572115600109 0.0 0.0 0.0 0.0
1.425 -0.1262967437505722 -0.9257164001464844 -0.0034486185759305954 -0.026834849268198013 0.0 0.0 0.0 0.0
1.426 -0.12261456996202469 -0.925669252872467 -0.004187296144664288 -0.026889290660619736 0.0 0.0 0.0 0.0
1.427 -0.1260758340358734 -0.9248954057693481 -0.005208360962569714 -0.02694174274802208 0.0 0.0 0.0 0.0
1.428 -0.12473642826080322 -0.9247393608093262 -0.006193614564836025 -0.02695509046316147 0.0 0.0 0.0 0.0
1.429 -0.12580204010009766 -0.9240967035293579 -0.007189856842160225 -0.02687673829495907 0.0 0.0 0.0 0.0
1.43 -0.12613753974437714 -0.9236803650856018 -0.008127122186124325 -0.026795946061611176 0.0 0.0 0.0 0.0
1.431 -0.125711590051651 -0.9224283695220947 -0.00916999764740467 -0.026672275736927986 0.0 0.0 0.0 0.0
1.432 -0.12680386006832123 -0.9221431016921997 -0.010219380259513855 -0.02645030803978443 0.0 0.0 0.0 0.0
1.433 -0.12963443994522095 -0.9213927984237671 -0.011241797357797623 -0.0262531116604805 0.0 0.0 0.0 0.0
1.434 -0.12813366949558258 -0.9206383228302002 -0.012334134429693222 -0.025957394391298294 0.0 0.0 0.0 0.0
1.435 -0.12872837483882904 -0.9194467663764954 -0.013308573514223099 -0.02566562034189701 0.0 0.0 0.0 0.0
1.436 -0.13201594352722168 -0.9194303750991821 -0.014414964243769646 -0.025273609906435013 0.0 0.0 0.0 0.0
1.437 -0.13005430996418 -0.9186112284660339 -0.015394099056720734 -0.02483499050140381 0.0 0.0 0.0 0.0
1.438 -0.12941622734069824 -0.9180958271026611 -0.01639309898018837 -0.024371569976210594 0.0 0.0 0.0 0.0
1.439 -0.13522660732269287 -0.9169899225234985 -0.017519347369670868 -0.02379254251718521 0.0 0.0 0.0 0.0
1.44 -0.1321449875831604 -0.9169971346855164 -0.01847074180841446 -0.023217521607875824 0.0 0.0 0.0 0.0
1.441 -0.13304255902767181 -0.9159299731254578 -0.01945090852677822 -0.022523514926433563 0.0 0.0 0.0 0.0
1.442 -0.1351095587015152 -0.9147728085517883 -0.020422860980033875 -0.021779630333185196 0.0 0.0 0.0 0.0
1.443 -0.1362949013710022 -0.9146219491958618 -0.021266546100378036 -0.02110273391008377 0.0 0.0 0.0 0.0
1.444 -0.13217899203300476 -0.914189338684082 -0.022137055173516273 -0.020324477925896645 0.0 0.0 0.0 0.0
1.445 -0.1353558897972107 -0.9138225317001343 -0.023004768416285515 -0.019415853545069695 0.0 0.0 0.0 0.0
1.446 -0.13848993182182312 -0.9119807481765747 -0.02386791631579399 -0.018408166244626045 0.0 0.0 0.0 0.0
1.447 -0.137149378657341 -0.9125590324401855 -0.0245868731290102 -0.01750033348798752 0.0 0.0 0.0 0.0
1.448 -0.13847792148590088 -0.9110040068626404 -0.025331873446702957 -0.016420770436525345 0.0 0.0 0.0 0.0
1.449 -0.14063206315040588 -0.9100979566574097 -0.025992436334490776 -0.015472288243472576 0.0 0.0 0.0 0.0
1.45 -0.13949821889400482 -0.9113333821296692 -0.026532651856541634 -0.014434130862355232 0.0 0.0 0.0 0.0
1.451 -0.14023594558238983 -0.910207211971283 -0.02704974077641964 -0.013297881931066513 0.0 0.0 0.0 0.0
1.452 -0.14011092483997345 -0.9088612198829651 -0.027512166649103165 -0.012147693894803524 0.0 0.0 0.0 0.0
1.453 -0.1418953388929367 -0.908443808555603 -0.027957849204540253 -0.011064371094107628 0.0 0.0 0.0 0.0
1.454 -0.14302466809749603 -0.9082852602005005 -0.02827964909374714 -0.009906153194606304 0.0 0.0 0.0 0.0
1.455 -0.1434851735830307 -0.9063708186149597 -0.028574595227837563 -0.00872220378369093 0.0 0.0 0.0 0.0
1.456 -0.1442895084619522 -0.9061501622200012 -0.028774064034223557 -0.007563679479062557 0.0 0.0 0.0 0.0
1.457 -0.14622068405151367 -0.9054789543151855 -0.02899203822016716 -0.00636695884168148 0.0 0.0 0.0 0.0
1.458 -0.1443428248167038 -0.904516875743866 -0.029106007888913155 -0.005240348167717457 0.0 0.0 0.0 0.0
1.459 -0.1463836282491684 -0.904272735118866 -0.02912862040102482 -0.004091242328286171 0.0 0.0 0.0 0.0
1.46 -0.14697152376174927 -0.9054651260375977 -0.0291301216930151 -0.002994357608258724 0.0 0.0 0.0 0.0
1.461 -0.14415965974330902 -0.9048689603805542 -0.029081683605909348 -0.001990322954952717 0.0 0.0 0.0 0.0
1.462 -0.1486549824476242 -0.9027044773101807 -0.02898828312754631 -0.0007960312068462372 0.0 0.0 0.0 0.0
1.463 -0.14856916666030884 -0.902970552444458 -0.02881857194006443 0.0002586180344223976 0.0 0.0 0.0 0.0
1.464 -0.14775051176548004 -0.9025449752807617 -0.028646880760788918 0.0012791464105248451 0.0 0.0 0.0 0.0
1.465 -0.1480540782213211 -0.90115886926651 -0.02844066359102726 0.0023201080039143562 0.0 0.0 0.0 0.0
1.466 -0.15104243159294128 -0.9009031653404236 -0.028221087530255318 0.0033220332115888596 0.0 0.0 0.0 0.0
1.467 -0.15047234296798706 -0.9002344012260437 -0.027956748381257057 0.004306926392018795 0.0 0.0 0.0 0.0
1.468 -0.15116439759731293 -0.8997161984443665 -0.027630435302853584 0.005309469066560268 0.0 0.0 0.0 0.0
1.469 -0.15241692960262299 -0.8988876938819885 -0.027308180928230286 0.0061792973428964615 0.0 0.0 0.0 0.0
1.47 -0.15389202535152435 -0.8995211124420166 -0.026965906843543053 0.007099677808582783 0.0 0.0 0.0 0.0
1.471 -0.15308265388011932 -0.898200511932373 -0.026573529466986656 0.00795006938278675 0.0 0.0 0.0 0.0
1.472 -0.1538013368844986 -0.8976853489875793 -0.02617632783949375 0.008735168725252151 0.0 0.0 0.0 0.0
1.473 -0.15871690213680267 -0.8954454064369202 -0.02574736811220646 0.009644567035138607 0.0 0.0 0.0 0.0
1.474 -0.1560898721218109 -0.8959012031555176 -0.025351792573928833 0.010388411581516266 0.0 0.0 0.0 0.0
1.475 -0.15435931086540222 -0.8961014747619629 -0.02491144835948944 0.0111374631524086 0.0 0.0 0.0 0.0
1.476 -0.1566062718629837 -0.8955004811286926 -0.024501046165823936 0.011924929916858673 0.0 0.0 0.0 0.0
1.477 -0.15946447849273682 -0.8945361375808716 -0.02405017428100109 0.01265142485499382 0.0 0.0 0.0 0.0
1.478 -0.15874503552913666 -0.8934122323989868 -0.02358541265130043 0.013342533260583878 0.0 0.0 0.0 0.0
1.479 -0.15754912793636322 -0.8935511708259583 -0.023144172504544258 0.014021513052284718 0.0 0.0 0.0 0.0
1.48 -0.15915773808956146 -0.8921660780906677 -0.022617921233177185 0.014711054041981697 0.0 0.0 0.0 0.0
1.481 -0.15934982895851135 -0.8923361301422119 -0.02215311862528324 0.015352648682892323 0.0 0.0 0.0 0.0
1.482 -0.15955686569213867 -0.8921822309494019 -0.021622348576784134 0.016028819605708122 0.0 0.0 0.0 0.0
1.483 -0.16179078817367554 -0.8908362984657288 -0.021093012765049934 0.01669316180050373 0.0 0.0 0.0 0.0
1.484 -0.16323041915893555 -0.8901054263114929 -0.020582152530550957 0.017217673361301422 0.0 0.0 0.0 0.0
1.485 -0.1630554050207138 -0.8898773193359375 -0.020024098455905914 0.017822055146098137 0.0 0.0 0.0 0.0
1.486 -0.1651134192943573 -0.8886461853981018 -0.01941630057990551 0.018405530601739883 0.0 0.0 0.0 0.0
1.487 -0.16390615701675415 -0.8888891339302063 -0.01886826567351818 0.018931323662400246 0.0 0.0 0.0 0.0
1.488 -0.16561846435070038 -0.8870401978492737 -0.01824784092605114 0.01946418173611164 0.0 0.0 0.0 0.0
1.489 -0.16563156247138977 -0.8867589235305786 -0.017615923658013344 0.019981086254119873 0.0 0.0 0.0 0.0
1.49 -0.1659739762544632 -0.8863764405250549 -0.017040589824318886 0.020478704944252968 0.0 0.0 0.0 0.0
1.491 -0.16809675097465515 -0.8868860006332397 -0.016353389248251915 0.02102581225335598 0.0 0.0 0.0 0.0
1.492 -0.16858908534049988 -0.8855721950531006 -0.01571548916399479 0.021483108401298523 0.0 0.0 0.0 0.0
1.493 -0.167749285697937 -0.8847887516021729 -0.01511550322175026 0.021910136565566063 0.0 0.0 0.0 0.0
1.494 -0.17040109634399414 -0.8840298056602478 -0.014453337527811527 0.02234947681427002 0.0 0.0 0.0 0.0
1.495 -0.1706896722316742 -0.8841894865036011 -0.013816172257065773 0.022750696167349815 0.0 0.0 0.0 0.0
1.496 -0.1681097447872162 -0.8836261034011841 -0.013155993074178696 0.023151738569140434 0.0 0.0 0.0 0.0
1.497 -0.1698765605688095 -0.8832764029502869 -0.012422332540154457 0.02357221022248268 0.0 0.0 0.0 0.0
1.498 -0.17304228246212006 -0.8818701505661011 -0.011633705347776413 0.023963311687111855 0.0 0.0 0.0 0.0
1.499 -0.1722109615802765 -0.8816319108009338 -0.010970351286232471 0.02432738058269024 0.0 0.0 0.0 0.0
1.5 -0.1719346046447754 -0.8801520466804504 -0.010280673392117023 0.02463248372077942 0.0 0.0 0.0 0.0
1.501 -0.17577815055847168 -0.8809013962745667 -0.009496411308646202 0.025044238194823265 0.0 0.0 0.0 0.0
1.502 -0.1762719303369522 -0.8803955912590027 -0.00873509794473648 0.025357063859701157 0.0 0.0 0.0 0.0
1.503 -0.17420746386051178 -0.8796844482421875 -0.008005068637430668 0.025635873898863792 0.0 0.0 0.0 0.0
1.504 -0.17606954276561737 -0.8792076110839844 -0.007232682779431343 0.025942934677004814 0.0 0.0 0.0 0.0
1.505 -0.17802880704402924 -0.8780493140220642 -0.006374368444085121 0.026221418753266335 0.0 0.0 0.0 0.0
1.506 -0.17810794711112976 -0.8766830563545227 -0.005673163570463657 0.02639826573431492 0.0 0.0 0.0 0.0
1.507 -0.1780608892440796 -0.8772628903388977 -0.004750593565404415 0.026667028665542603 0.0 0.0 0.0 0.0
1.508 -0.18035678565502167 -0.8755140900611877 -0.003938685171306133 0.02686532773077488 0.0 0.0 0.0 0.0
1.509 -0.1797439008951187 -0.8757350444793701 -0.003138873726129532 0.027054158970713615 0.0 0.0 0.0 0.0
1.51 -0.17815622687339783 -0.8763805627822876 -0.0023179175332188606 0.02722133696079254 0.0 0.0 0.0 0.0
1.511 -0.18011470139026642 -0.8746631741523743 -0.001366487704217434 0.027318749576807022 0.0 0.0 0.0 0.0
1.512 -0.19108179211616516 -0.8732033371925354 -0.00012047961354255676 0.027440469712018967 0.0 0.0 0.0 0.0
1.513 -0.18251624703407288 -0.8737486600875854 0.00040837377309799194 0.027496300637722015 0.0 0.0 0.0 0.0
1.514 -0.18222561478614807 -0.8728429079055786 0.0013232771307229996 0.027530672028660774 0.0 0.0 0.0 0.0
1.515 -0.18172655999660492 -0.8732807040214539 0.0021452344954013824 0.027555974200367928 0.0 0.0 0.0 0.0
1.516 -0.185731440782547 -0.8719420433044434 0.0031559355556964874 0.027518711984157562 0.0 0.0 0.0 0.0
1.517 -0.18377654254436493 -0.8716332316398621 0.004055359400808811 0.027468858286738396 0.0 0.0 0.0 0.0
1.518 -0.18451285362243652 -0.8723464012145996 0.005023181438446045 0.027405057102441788 0.0 0.0 0.0 0.0
1.519 -0.18671250343322754 -0.8703342080116272 0.005930501967668533 0.02725285291671753 0.0 0.0 0.0 0.0
1.52 -0.18827444314956665 -0.870356559753418 0.006921079009771347 0.02711706981062889 0.0 0.0 0.0 0.0
1.521 -0.1863315850496292 -0.8696092963218689 0.007831973023712635 0.02690405212342739 0.0 0.0 0.0 0.0
1.522 -0.18662936985492706 -0.868606686592102 0.008762105368077755 0.026627756655216217 0.0 0.0 0.0 0.0
1.523 -0.18865208327770233 -0.868224561214447 0.009694833308458328 0.026395857334136963 0.0 0.0 0.0 0.0
1.524 -0.18790940940380096 -0.8739098310470581 0.010591677390038967 0.026270706206560135 0.0 0.0 0.0 0.0
1.525 -0.1896914541721344 -0.8678178787231445 0.01160154864192009 0.025732191279530525 0.0 0.0 0.0 0.0
1.526 -0.19224536418914795 -0.8668487668037415 0.012533947825431824 0.02532651089131832 0.0 0.0 0.0 0.0
1.527 -0.19208693504333496 -0.8670273423194885 0.01338410284370184 0.024900050833821297 0.0 0.0 0.0 0.0
1.528 -0.19315944612026215 -0.8654884696006775 0.014284500852227211 0.024425100535154343 0.0 0.0 0.0 0.0
1.529 -0.1938246488571167 -0.8639727234840393 0.015129881910979748 0.023876719176769257 0.0 0.0 0.0 0.0
1.53 -0.19257918000221252 -0.8655007481575012 0.01587115041911602 0.02344072051346302 0.0 0.0 0.0 0.0
1.531 -0.19388581812381744 -0.8646329045295715 0.016792619600892067 0.022789547219872475 0.0 0.0 0.0 0.0
1.532 -0.192774698138237 -0.8630427718162537 0.017521336674690247 0.022176146507263184 0.0 0.0 0.0 0.0
1.533 -0.19597181677818298 -0.8620159029960632 0.01834990456700325 0.02147686667740345 0.0 0.0 0.0 0.0
1.534 -0.1950269341468811 -0.863448441028595 0.018998971208930016 0.02086222544312477 0.0 0.0 0.0 0.0
1.535 -0.19556854665279388 -0.8624276518821716 0.019747711718082428 0.02010970376431942 0.0 0.0 0.0 0.0
1.536 -0.2061464637517929 -0.8634905219078064 0.020615100860595703 0.019432762637734413 0.0 0.0 0.0 0.0
1.537 -0.19883273541927338 -0.8608860373497009 0.021028071641921997 0.018636556342244148 0.0 0.0 0.0 0.0
1.538 -0.19918079674243927 -0.860892117023468 0.021657025441527367 0.017841467633843422 0.0 0.0 0.0 0.0
1.539 -0.19910062849521637 -0.858986496925354 0.02221493609249592 0.017052000388503075 0.0 0.0 0.0 0.0
1.54 -0.20159812271595 -0.8598566055297852 0.022754227742552757 0.01628684811294079 0.0 0.0 0.0 0.0
1.541 -0.20067013800144196 -0.8592716455459595 0.0232407134026289 0.015445023775100708 0.0 0.0 0.0 0.0
1.542 -0.20124629139900208 -0.8578373789787292 0.02372118830680847 0.014549041166901588 0.0 0.0 0.0 0.0
1.543 -0.20264030992984772 -0.8581914901733398 0.02412770874798298 0.013717804104089737 0.0 0.0 0.0 0.0
1.544 -0.20331165194511414 -0.8565331697463989 0.024548698216676712 0.012853516265749931 0.0 0.0 0.0 0.0
1.545 -0.20505039393901825 -0.8562650680541992 0.024897033348679543 0.01195622980594635 0.0 0.0 0.0 0.0
1.546 -0.20465953648090363 -0.8562864661216736 0.025213874876499176 0.01113120373338461 0.0 0.0 0.0 0.0
1.547 -0.20569783449172974 -0.8562601208686829 0.025497080758213997 0.01021234504878521 0.0 0.0 0.0 0.0
1.548 -0.20778845250606537 -0.8530267477035522 0.025746695697307587 0.009341571480035782 0.0 0.0 0.0 0.0
1.549 -0.20623721182346344 -0.8546793460845947 0.025976238772273064 0.00844936165958643 0.0 0.0 0.0 0.0
1.55 -0.20661544799804688 -0.8541547060012817 0.02617870829999447 0.007543545216321945 0.0 0.0 0.0 0.0
1.551 -0.20903807878494263 -0.8534250259399414 0.02632293477654457 0.006716017611324787 0.0 0.0 0.0 0.0
1.552 -0.20911477506160736 -0.8516519069671631 0.02641003206372261 0.005817437544465065 0.0 0.0 0.0 0.0
1.553 -0.20917116105556488 -0.8523317575454712 0.026504041627049446 0.00494877714663744 0.0 0.0 0.0 0.0
1.554 -0.20967236161231995 -0.8530530333518982 0.026559751480817795 0.004180620424449444 0.0 0.0 0.0 0.0
1.555 -0.21307267248630524 -0.8504250049591064 0.026588086038827896 0.0033175013959407806 0.0 0.0 0.0 0.0
1.556 -0.21184928715229034 -0.8495661616325378 0.02655469812452793 0.002406671643257141 0.0 0.0 0.0 0.0
1.557 -0.2120184302330017 -0.849467396736145 0.026539450511336327 0.0016464749351143837 0.0 0.0 0.0 0.0
1.558 -0.21700875461101532 -0.8479353785514832 0.026512404903769493 0.0007910588756203651 0.0 0.0 0.0 0.0
1.559 -0.21128571033477783 -0.8492216467857361 0.026423882693052292 5.533918738365173e-06 0.0 0.0 0.0 0.0
1.56 -0.2192160189151764 -0.8559300899505615 0.026368649676442146 -0.0007689604535698891 0.0 0.0 0.0 0.0
1.561 -0.21734951436519623 -0.8459581732749939 0.026258833706378937 -0.0016323644667863846 0.0 0.0 0.0 0.0
1.562 -0.21546904742717743 -0.8471346497535706 0.026136841624975204 -0.002376871183514595 0.0 0.0 0.0 0.0
1.563 -0.21618147194385529 -0.8464614152908325 0.02600354328751564 -0.0031679747626185417 0.0 0.0 0.0 0.0
1.564 -0.2190452367067337 -0.8452410697937012 0.02583184652030468 -0.003919372335076332 0.0 0.0 0.0 0.0
1.565 -0.2179422527551651 -0.845213770866394 0.02570047229528427 -0.004614789970219135 0.0 0.0 0.0 0.0
1.566 -0.21830619871616364 -0.8459693789482117 0.025497451424598694 -0.005425449460744858 0.0 0.0 0.0 0.0
1.567 -0.21958884596824646 -0.8443325161933899 0.025261927396059036 -0.0061301980167627335 0.0 0.0 0.0 0.0
1.568 -0.2193252593278885 -0.8443787693977356 0.025075677782297134 -0.006825370714068413 0.0 0.0 0.0 0.0
1.569 -0.22157973051071167 -0.8435298204421997 0.024779323488473892 -0.007544904947280884 0.0 0.0 0.0 0.0
1.57 -0.22350335121154785 -0.8414517641067505 0.024544671177864075 -0.008300388231873512 0.0 0.0 0.0 0.0
1.571 -0.22296887636184692 -0.8422662615776062 0.02427653782069683 -0.008942988701164722 0.0 0.0 0.0 0.0
1.572 -0.22579114139080048 -0.8419129848480225 0.024007687345147133 -0.009565547108650208 0.0 0.0 0.0 0.0
1.573 -0.2222447544336319 -0.8415160179138184 0.023753676563501358 -0.010304578579962254 0.0 0.0 0.0 0.0
1.574 -0.22532185912132263 -0.8408984541893005 0.023424284532666206 -0.01099821925163269 0.0 0.0 0.0 0.0
1.575 -0.22731119394302368 -0.8408839702606201 0.02309916354715824 -0.01170120295137167 0.0 0.0 0.0 0.0
1.576 -0.2261011004447937 -0.841346025466919 0.02281537465751171 -0.01234342996031046 0.0 0.0 0.0 0.0
1.577 -0.2264503538608551 -0.8395547270774841 0.02246624231338501 -0.012950237840414047 0.0 0.0 0.0 0.0
1.578 -0.22711476683616638 -0.837368369102478 0.022106928750872612 -0.01358589343726635 0.0 0.0 0.0 0.0
1.579 -0.22924338281154633 -0.8373882174491882 0.021754182875156403 -0.014234529808163643 0.0 0.0 0.0 0.0
1.58 -0.2268618941307068 -0.8383824229240417 0.021406982094049454 -0.014806763269007206 0.0 0.0 0.0 0.0
1.581 -0.2311001420021057 -0.8377324342727661 0.020970940589904785 -0.015469811856746674 0.0 0.0 0.0 0.0
1.582 -0.23127618432044983 -0.8336939811706543 0.020571772009134293 -0.015997951850295067 0.0 0.0 0.0 0.0
1.583 -0.23233596980571747 -0.836409866809845 0.020159216597676277 -0.016713501885533333 0.0 0.0 0.0 0.0
1.584 -0.231760174036026 -0.8451820611953735 0.01973072439432144 -0.01747140660881996 0.0 0.0 0.0 0.0
1.585 -0.23261292278766632 -0.834376871585846 0.019299743697047234 -0.01789170876145363 0.0 0.0 0.0 0.0
1.586 -0.23465903103351593 -0.8338119387626648 0.01878209598362446 -0.01853577420115471 0.0 0.0 0.0 0.0
1.587 -0.23544946312904358 -0.8340708017349243 0.018318960443139076 -0.019070403650403023 0.0 0.0 0.0 0.0
1.588 -0.23545020818710327 -0.835336446762085 0.017834670841693878 -0.01971898414194584 0.0 0.0 0.0 0.0
1.589 -0.23652806878089905 -0.8322882056236267 0.01728271134197712 -0.020267551764845848 0.0 0.0 0.0 0.0
1.59 -0.23945564031600952 -0.8310068845748901 0.016782177612185478 -0.020802602171897888 0.0 0.0 0.0 0.0
1.591 -0.2361031025648117 -0.8345960378646851 0.016293127089738846 -0.021450791507959366 0.0 0.0 0.0 0.0
1.592 -0.238022580742836 -0.8310502171516418 0.015691662207245827 -0.021899135783314705 0.0 0.0 0.0 0.0
1.593 -0.24049988389015198 -0.8304286599159241 0.014991147443652153 -0.022556422278285027 0.0 0.0 0.0 0.0
1.594 -0.24008210003376007 -0.8319844007492065 0.014508028514683247 -0.023079318925738335 0.0 0.0 0.0 0.0
1.595 -0.24032865464687347 -0.8297795653343201 0.01381983608007431 -0.023589031770825386 0.0 0.0 0.0 0.0
1.596 -0.23937052488327026 -0.8247005939483643 0.01322464644908905 -0.02398623898625374 0.0 0.0 0.0 0.0
1.597 -0.24296854436397552 -0.8267837166786194 0.012485673651099205 -0.024576788768172264 0.0 0.0 0.0 0.0
1.598 -0.2443305253982544 -0.8286531567573547 0.011814354918897152 -0.0251265000551939 0.0 0.0 0.0 0.0
1.599 -0.2416004091501236 -0.8285048604011536 0.011145096272230148 -0.025566792115569115 0.0 0.0 0.0 0.0
1.6 -0.2444944679737091 -0.8286982178688049 0.010345092974603176 -0.026123011484742165 0.0 0.0 0.0 0.0
1.601 -0.24626120924949646 -0.8259137272834778 0.009580451995134354 -0.026454469189047813 0.0 0.0 0.0 0.0
1.602 -0.2473783940076828 -0.8276157975196838 0.008753085508942604 -0.027032993733882904 0.0 0.0 0.0 0.0
1.603 -0.24632790684700012 -0.8246269226074219 0.007969778031110764 -0.02736203558743 0.0 0.0 0.0 0.0
1.604 -0.24821116030216217 -0.8248326182365417 0.0070843081921339035 -0.027754317969083786 0.0 0.0 0.0 0.0
1.605 -0.24956336617469788 -0.8242381811141968 0.006229427643120289 -0.028143223375082016 0.0 0.0 0.0 0.0
1.606 -0.24778448045253754 -0.8241868019104004 0.00544220395386219 -0.02849023975431919 0.0 0.0 0.0 0.0
1.607 -0.24910855293273926 -0.8232599496841431 0.004428425803780556 -0.028785787522792816 0.0 0.0 0.0 0.0
1.608 -0.24746206402778625 -0.8270293474197388 0.0036582667380571365 -0.029258307069540024 0.0 0.0 0.0 0.0
1.609 -0.2503514289855957 -0.8205221891403198 0.0025631720200181007 -0.029265740886330605 0.0 0.0 0.0 0.0
1.61 -0.2516830861568451 -0.8213483095169067 0.0015970924869179726 -0.029528988525271416 0.0 0.0 0.0 0.0
1.611 -0.25347355008125305 -0.8200857639312744 0.0005531013011932373 -0.029742354527115822 0.0 0.0 0.0 0.0
1.612 -0.2551006078720093 -0.8199922442436218 -0.0004611928015947342 -0.029865607619285583 0.0 0.0 0.0 0.0
1.613 -0.2551840841770172 -0.8209166526794434 -0.001550065353512764 -0.030008632689714432 0.0 0.0 0.0 0.0
1.614 -0.2541792094707489 -0.8197100162506104 -0.002563762478530407 -0.030079208314418793 0.0 0.0 0.0 0.0
1.615 -0.2568402588367462 -0.8181074261665344 -0.003662681207060814 -0.030104544013738632 0.0 0.0 0.0 0.0
1.616 -0.2575524151325226 -0.8188090920448303 -0.004700828343629837 -0.030100394040346146 0.0 0.0 0.0 0.0
1.617 -0.25663262605667114 -0.8166176080703735 -0.005770795978605747 -0.029972096905112267 0.0 0.0 0.0 0.0
1.618 -0.25952592492103577 -0.8174540400505066 -0.006990338675677776 -0.02994503453373909 0.0 0.0 0.0 0.0
1.619 -0.26117435097694397 -0.8167938590049744 -0.008070136420428753 -0.02982330322265625 0.0 0.0 0.0 0.0
1.62 -0.2621680498123169 -0.8105714917182922 -0.009134732186794281 -0.029448959976434708 0.0 0.0 0.0 0.0
1.621 -0.2585969865322113 -0.8176059722900391 -0.01014783326536417 -0.029422258958220482 0.0 0.0 0.0 0.0
1.622 -0.2626369893550873 -0.8149791359901428 -0.011329904198646545 -0.029093319550156593 0.0 0.0 0.0 0.0
1.623 -0.2633831202983856 -0.8162407875061035 -0.012370405718684196 -0.028809132054448128 0.0 0.0 0.0 0.0
1.624 -0.2650873363018036 -0.8141508102416992 -0.013521053828299046 -0.02834477834403515 0.0 0.0 0.0 0.0
1.625 -0.2634340524673462 -0.8132954835891724 -0.014587446115911007 -0.0278244037181139 0.0 0.0 0.0 0.0
1.626 -0.26514092087745667 -0.8131316900253296 -0.015604314394295216 -0.027416815981268883 0.0 0.0 0.0 0.0
1.627 -0.26697084307670593 -0.8127397894859314 -0.016596950590610504 -0.026906028389930725 0.0 0.0 0.0 0.0
1.628 -0.2676055431365967 -0.8114008903503418 -0.01766144298017025 -0.02624749206006527 0.0 0.0 0.0 0.0
1.629 -0.2683822512626648 -0.8117802739143372 -0.018614593893289566 -0.025723351165652275 0.0 0.0 0.0 0.0
1.63 -0.2690161168575287 -0.8069700598716736 -0.019584717229008675 -0.024948202073574066 0.0 0.0 0.0 0.0
1.631 -0.26894888281822205 -0.8104623556137085 -0.020446088165044785 -0.024368546903133392 0.0 0.0 0.0 0.0
1.632 -0.2614198327064514 -0.8053197264671326 -0.02112007699906826 -0.02350679598748684 0.0 0.0 0.0 0.0
1.633 -0.27033716440200806 -0.8102301955223083 -0.02226339653134346 -0.02279648929834366 0.0 0.0 0.0 0.0
1.634 -0.2733762264251709 -0.8077465295791626 -0.023088080808520317 -0.02196318842470646 0.0 0.0 0.0 0.0
1.635 -0.27284476161003113 -0.8080347180366516 -0.023811662569642067 -0.021184490993618965 0.0 0.0 0.0 0.0
1.636 -0.27086377143859863 -0.8082515001296997 -0.024487439543008804 -0.020377792418003082 0.0 0.0 0.0 0.0
1.637 -0.27437523007392883 -0.8060858249664307 -0.025331182405352592 -0.019392570480704308 0.0 0.0 0.0 0.0
1.638 -0.27685317397117615 -0.8063063025474548 -0.02602340653538704 -0.0185044277459383 0.0 0.0 0.0 0.0
1.639 -0.2763793468475342 -0.8082976937294006 -0.026579780504107475 -0.017643066123127937 0.0 0.0 0.0 0.0
1.64 -0.2766510844230652 -0.806240439414978 -0.027224499732255936 -0.016645027324557304 0.0 0.0 0.0 0.0
1.641 -0.27902334928512573 -0.8045504689216614 -0.02782909758388996 -0.015604760497808456 0.0 0.0 0.0 0.0
1.642 -0.27762189507484436 -0.8044484257698059 -0.028230799362063408 -0.01466948352754116 0.0 0.0 0.0 0.0
1.643 -0.27943846583366394 -0.8030303716659546 -0.02877720445394516 -0.013645485043525696 0.0 0.0 0.0 0.0
1.644 -0.278779000043869 -0.8055629134178162 -0.029179347679018974 -0.012690560892224312 0.0 0.0 0.0 0.0
1.645 -0.28327101469039917 -0.8015145659446716 -0.029621761292219162 -0.011589141562581062 0.0 0.0 0.0 0.0
1.646 -0.28258079290390015 -0.8019431233406067 -0.03001103736460209 -0.01049630157649517 0.0 0.0 0.0 0.0
1.647 -0.28318992257118225 -0.8016407489776611 -0.03029816597700119 -0.00954524613916874 0.0 0.0 0.0 0.0
1.648 -0.28597569465637207 -0.802094578742981 -0.030614711344242096 -0.008480089716613293 0.0 0.0 0.0 0.0
1.649 -0.2847752273082733 -0.8003324270248413 -0.030837221071124077 -0.00755389966070652 0.0 0.0 0.0 0.0
1.65 -0.28639307618141174 -0.800276517868042 -0.03104880079627037 -0.006453332491219044 0.0 0.0 0.0 0.0
1.651 -0.2842812240123749 -0.7997598648071289 -0.03124939650297165 -0.005386351607739925 0.0 0.0 0.0 0.0
1.652 -0.28853940963745117 -0.7965795397758484 -0.031374964863061905 -0.004236593842506409 0.0 0.0 0.0 0.0
1.653 -0.287835031747818 -0.7984622716903687 -0.03153235837817192 -0.003319378010928631 0.0 0.0 0.0 0.0
1.654 -0.28644275665283203 -0.7958305478096008 -0.031603407114744186 -0.0021830005571246147 0.0 0.0 0.0 0.0
1.655 -0.2909817099571228 -0.7963728904724121 -0.031666744500398636 -0.00118172075599432 0.0 0.0 0.0 0.0
1.656 -0.28650227189064026 -0.7878627181053162 -0.031678907573223114 -0.00019852910190820694 0.0 0.0 0.0 0.0
1.657 -0.2906699478626251 -0.7976604104042053 -0.03171338886022568 0.0008691679686307907 0.0 0.0 0.0 0.0
1.658 -0.29159021377563477 -0.7950200438499451 -0.03165988624095917 0.0018734205514192581 0.0 0.0 0.0 0.0
1.659 -0.29310470819473267 -0.794145405292511 -0.031601376831531525 0.002946905791759491 0.0 0.0 0.0 0.0
1.66 -0.2915678918361664 -0.7946340441703796 -0.031464558094739914 0.003991099074482918 0.0 0.0 0.0 0.0
1.661 -0.29538244009017944 -0.7933404445648193 -0.03134393319487572 0.0050092944875359535 0.0 0.0 0.0 0.0
1.662 -0.29709216952323914 -0.7915216684341431 -0.031187988817691803 0.006090260110795498 0.0 0.0 0.0 0.0
1.663 -0.30031120777130127 -0.7909771203994751 -0.030987121164798737 0.007098379544913769 0.0 0.0 0.0 0.0
1.664 -0.29730767011642456 -0.7913633584976196 -0.03078640066087246 0.008109272457659245 0.0 0.0 0.0 0.0
1.665 -0.29830676317214966 -0.7919648885726929 -0.030603736639022827 0.008937117643654346 0.0 0.0 0.0 0.0
1.666 -0.2981829047203064 -0.7909225821495056 -0.030328474938869476 0.010049226693809032 0.0 0.0 0.0 0.0
1.667 -0.29974794387817383 -0.7906424403190613 -0.02999577671289444 0.01107612531632185 0.0 0.0 0.0 0.0
1.668 -0.295657753944397 -0.7897594571113586 -0.02971462346613407 0.012117953971028328 0.0 0.0 0.0 0.0
1.669 -0.30349215865135193 -0.7901777029037476 -0.02933606691658497 0.013096393086016178 0.0 0.0 0.0 0.0
1.67 -0.30273494124412537 -0.7887893319129944 -0.02891334518790245 0.014065493829548359 0.0 0.0 0.0 0.0
1.671 -0.30382826924324036 -0.7874295115470886 -0.028511758893728256 0.015020405873656273 0.0 0.0 0.0 0.0
1.672 -0.3059416115283966 -0.7865510582923889 -0.02806714177131653 0.016023948788642883 0.0 0.0 0.0 0.0
1.673 -0.3070417046546936 -0.7855322360992432 -0.027626754716038704 0.016946852207183838 0.0 0.0 0.0 0.0
1.674 -0.30582118034362793 -0.7871397137641907 -0.027174178510904312 0.01786075159907341 0.0 0.0 0.0 0.0
1.675 -0.3092581629753113 -0.7849774956703186 -0.02654205821454525 0.018798425793647766 0.0 0.0 0.0 0.0
1.676 -0.3106248378753662 -0.7839272022247314 -0.025957707315683365 0.01976090855896473 0.0 0.0 0.0 0.0
1.677 -0.3081308901309967 -0.7844173908233643 -0.025392241775989532 0.020646845921874046 0.0 0.0 0.0 0.0
1.678 -0.3073871433734894 -0.7821645736694336 -0.024770552292466164 0.02160917967557907 0.0 0.0 0.0 0.0
1.679 -0.31286054849624634 -0.7817529439926147 -0.024130387231707573 0.022476039826869965 0.0 0.0 0.0 0.0
1.68 -0.312048077583313 -0.7760907411575317 -0.023428019136190414 0.023236777633428574 0.0 0.0 0.0 0.0
1.681 -0.31240957975387573 -0.7799223065376282 -0.022647317498922348 0.024206267669796944 0.0 0.0 0.0 0.0
1.682 -0.3159666061401367 -0.779024600982666 -0.0218032319098711 0.025141436606645584 0.0 0.0 0.0 0.0
1.683 -0.31594520807266235 -0.7799901366233826 -0.021055918186903 0.025914056226611137 0.0 0.0 0.0 0.0
1.684 -0.314172625541687 -0.7785369753837585 -0.020151881501078606 0.02672615833580494 0.0 0.0 0.0 0.0
1.685 -0.3180595934391022 -0.7782938480377197 -0.019320588558912277 0.027491822838783264 0.0 0.0 0.0 0.0
1.686 -0.3170897364616394 -0.7781549692153931 -0.018453165888786316 0.02823411300778389 0.0 0.0 0.0 0.0
1.687 -0.3187260031700134 -0.7790555357933044 -0.017397280782461166 0.029073096811771393 0.0 0.0 0.0 0.0
1.688 -0.3181869089603424 -0.7769955992698669 -0.016445579007267952 0.02965168096125126 0.0 0.0 0.0 0.0
1.689 -0.32124754786491394 -0.7763153314590454 -0.015392541885375977 0.030328331515192986 0.0 0.0 0.0 0.0
1.69 -0.31899380683898926 -0.7761651277542114 -0.014399363659322262 0.030891740694642067 0.0 0.0 0.0 0.0
1.691 -0.3231208324432373 -0.7752746343612671 -0.013198314234614372 0.0315692201256752 0.0 0.0 0.0 0.0
1.692 -0.3282468318939209 -0.777144730091095 -0.011933038011193275 0.03223521634936333 0.0 0.0 0.0 0.0
1.693 -0.3232746422290802 -0.7733834385871887 -0.010940209031105042 0.03249069303274155 0.0 0.0 0.0 0.0
1.694 -0.32389211654663086 -0.7739894986152649 -0.00976827647536993 0.0330033078789711 0.0 0.0 0.0 0.0
1.695 -0.3267468214035034 -0.772174596786499 -0.008535949513316154 0.03344781696796417 0.0 0.0 0.0 0.0
1.696 -0.3268907964229584 -0.7715227007865906 -0.0072997696697711945 0.03371547907590866 0.0 0.0 0.0 0.0
1.697 -0.326663076877594 -0.7726181745529175 -0.0060390206053853035 0.03406872972846031 0.0 0.0 0.0 0.0
1.698 -0.32938772439956665 -0.7714594006538391 -0.004725061357021332 0.034330811351537704 0.0 0.0 0.0 0.0
1.699 -0.3315446972846985 -0.7701328992843628 -0.0034384364262223244 0.034476522356271744 0.0 0.0 0.0 0.0
1.7 -0.3312510550022125 -0.7692251801490784 -0.0021305764093995094 0.034605272114276886 0.0 0.0 0.0 0.0
1.701 -0.3318399488925934 -0.7686460614204407 -0.0008141743019223213 0.03465082868933678 0.0 0.0 0.0 0.0
1.702 -0.3348795473575592 -0.7681616544723511 0.00044548604637384415 0.03464415669441223 0.0 0.0 0.0 0.0
1.703 -0.33300045132637024 -0.7677039504051208 0.0017216727137565613 0.034606073051691055 0.0 0.0 0.0 0.0
1.704 -0.336750864982605 -0.7639966011047363 0.0031812936067581177 0.03433982655405998 0.0 0.0 0.0 0.0
1.705 -0.3355928063392639 -0.7660022974014282 0.0043679820373654366 0.03430521488189697 0.0 0.0 0.0 0.0
1.706 -0.3360626697540283 -0.7656711935997009 0.005547570995986462 0.03408898040652275 0.0 0.0 0.0 0.0
1.707 -0.3370808959007263 -0.7652880549430847 0.006890159100294113 0.033784184604883194 0.0 0.0 0.0 0.0
1.708 -0.33736005425453186 -0.7648861408233643 0.008092261850833893 0.03346081078052521 0.0 0.0 0.0 0.0
1.709 -0.3404083847999573 -0.7638922333717346 0.009348160587251186 0.033089883625507355 0.0 0.0 0.0 0.0
1.71 -0.3393790125846863 -0.7635127902030945 0.010464520193636417 0.03263430669903755 0.0 0.0 0.0 0.0
1.711 -0.34093254804611206 -0.7625368237495422 0.011749842204153538 0.03213244304060936 0.0 0.0 0.0 0.0
1.712 -0.3420376777648926 -0.7612183094024658 0.01284074317663908 0.031590402126312256 0.0 0.0 0.0 0.0
1.713 -0.3418651819229126 -0.7608280181884766 0.013931670226156712 0.030956434085965157 0.0 0.0 0.0 0.0
1.714 -0.3433394134044647 -0.7615621089935303 0.015032307244837284 0.030387159436941147 0.0 0.0 0.0 0.0
1.715 -0.3440684378147125 -0.7597047090530396 0.016077866777777672 0.02968781813979149 0.0 0.0 0.0 0.0
1.716 -0.3472851514816284 -0.754449725151062 0.017118563875555992 0.02882281504571438 0.0 0.0 0.0 0.0
1.717 -0.34563103318214417 -0.7590135335922241 0.017976872622966766 0.028296684846282005 0.0 0.0 0.0 0.0
1.718 -0.3475169837474823 -0.7590985298156738 0.01890864223241806 0.027558844536542892 0.0 0.0 0.0 0.0
1.719 -0.34926939010620117 -0.7567641735076904 0.019847536459565163 0.026691941544413567 0.0 0.0 0.0 0.0
1.72 -0.34864914417266846 -0.7578151226043701 0.02058412879705429 0.025977587327361107 0.0 0.0 0.0 0.0
1.721 -0.3501524031162262 -0.7560753226280212 0.021487407386302948 0.02504884824156761 0.0 0.0 0.0 0.0
1.722 -0.3540036976337433 -0.7548550367355347 0.022276785224676132 0.024234192445874214 0.0 0.0 0.0 0.0
1.723 -0.35151270031929016 -0.7560452222824097 0.022921698167920113 0.02338608354330063 0.0 0.0 0.0 0.0
1.724 -0.3518601655960083 -0.7542200684547424 0.023620648309588432 0.02242150902748108 0.0 0.0 0.0 0.0
1.725 -0.35586604475975037 -0.7537702918052673 0.024341337382793427 0.021543385460972786 0.0 0.0 0.0 0.0
1.726 -0.35656633973121643 -0.7530052661895752 0.024895677343010902 0.020657232031226158 0.0 0.0 0.0 0.0
1.727 -0.35547852516174316 -0.7527587413787842 0.02548179216682911 0.01963813416659832 0.0 0.0 0.0 0.0
1.728 -0.3633962869644165 -0.7521970868110657 0.026135891675949097 0.018775636330246925 0.0 0.0 0.0 0.0
1.729 -0.3592160642147064 -0.7519754767417908 0.02649921178817749 0.017882414162158966 0.0 0.0 0.0 0.0
1.73 -0.3590560555458069 -0.7501302361488342 0.026933247223496437 0.016902312636375427 0.0 0.0 0.0 0.0
1.731 -0.3585352897644043 -0.7509479522705078 0.027366595342755318 0.015976691618561745 0.0 0.0 0.0 0.0
1.732 -0.3618791997432709 -0.7491176128387451 0.027794206514954567 0.014979168772697449 0.0 0.0 0.0 0.0
1.733 -0.3630300760269165 -0.7488361597061157 0.028102051466703415 0.014081277884542942 0.0 0.0 0.0 0.0
1.734 -0.36275699734687805 -0.7473639845848083 0.028431443497538567 0.013148238882422447 0.0 0.0 0.0 0.0
1.735 -0.3637286424636841 -0.7477388381958008 0.028733931481838226 0.012202085927128792 0.0 0.0 0.0 0.0
1.736 -0.3655005991458893 -0.746464192867279 0.029017973691225052 0.011258388869464397 0.0 0.0 0.0 0.0
1.737 -0.36563050746917725 -0.7463449835777283 0.029213424772024155 0.010393330827355385 0.0 0.0 0.0 0.0
1.738 -0.3693463206291199 -0.7440857887268066 0.02943873591721058 0.009317541494965553 0.0 0.0 0.0 0.0
1.739 -0.3679189682006836 -0.7440256476402283 0.02963063307106495 0.0084137674421072 0.0 0.0 0.0 0.0
1.74 -0.37277650833129883 -0.7407453060150146 0.02978280559182167 0.007497540675103664 0.0 0.0 0.0 0.0
1.741 -0.36836501955986023 -0.7432010769844055 0.029853807762265205 0.006640461273491383 0.0 0.0 0.0 0.0
1.742 -0.370452344417572 -0.7426120042800903 0.029976315796375275 0.005656532011926174 0.0 0.0 0.0 0.0
1.743 -0.37262624502182007 -0.7416542768478394 0.030050599947571754 0.004726435989141464 0.0 0.0 0.0 0.0
1.744 -0.3738359808921814 -0.741459310054779 0.030102912336587906 0.003894721157848835 0.0 0.0 0.0 0.0
1.745 -0.3737446665763855 -0.7404672503471375 0.030146336182951927 0.0029861554503440857 0.0 0.0 0.0 0.0
1.746 -0.3775750994682312 -0.7400463819503784 0.03017289750277996 0.0020380625501275063 0.0 0.0 0.0 0.0
1.747 -0.37710365653038025 -0.7396281361579895 0.03016527183353901 0.0011751335114240646 0.0 0.0 0.0 0.0
1.748 -0.3744658827781677 -0.7389681339263916 0.030109331011772156 0.00030129123479127884 0.0 0.0 0.0 0.0
1.749 -0.37675967812538147 -0.7382994890213013 0.030083050951361656 -0.0005091642960906029 0.0 0.0 0.0 0.0
1.75 -0.379442423582077 -0.7371028065681458 0.03001871146261692 -0.0014474093914031982 0.0 0.0 0.0 0.0
1.751 -0.379680871963501 -0.7371314764022827 0.029899196699261665 -0.00233412254601717 0.0 0.0 0.0 0.0
1.752 -0.38825705647468567 -0.7368162870407104 0.029758235439658165 -0.003164743073284626 0.0 0.0 0.0 0.0
1.753 -0.38190457224845886 -0.7351980209350586 0.029700227081775665 -0.004141322337090969 0.0 0.0 0.0 0.0
1.754 -0.38381510972976685 -0.7343007326126099 0.029561234638094902 -0.004830676130950451 0.0 0.0 0.0 0.0
1.755 -0.3853723406791687 -0.7335541844367981 0.02937048114836216 -0.005866924300789833 0.0 0.0 0.0 0.0
1.756 -0.38312166929244995 -0.7346411347389221 0.02922205440700054 -0.006567714735865593 0.0 0.0 0.0 0.0
1.757 -0.3866819441318512 -0.7318077683448792 0.029038038104772568 -0.0074434224516153336 0.0 0.0 0.0 0.0
1.758 -0.38754570484161377 -0.7324395775794983 0.02879560925066471 -0.008298902772367 0.0 0.0 0.0 0.0
1.759 -0.3894110918045044 -0.7306693196296692 0.028538450598716736 -0.009218771941959858 0.0 0.0 0.0 0.0
1.76 -0.39045828580856323 -0.7296923995018005 0.028263600543141365 -0.01006792951375246 0.0 0.0 0.0 0.0
1.761 -0.3906707763671875 -0.7300496101379395 0.028058648109436035 -0.010864594019949436 0.0 0.0 0.0 0.0
1.762 -0.39325159788131714 -0.7262831330299377 0.027719007804989815 -0.01167646236717701 0.0 0.0 0.0 0.0
1.763 -0.3907039165496826 -0.7276067733764648 0.027408018708229065 -0.012522857636213303 0.0 0.0 0.0 0.0
1.764 -0.3920360207557678 -0.7309945821762085 0.027079394087195396 -0.0134617630392313 0.0 0.0 0.0 0.0
1.765 -0.3917224109172821 -0.7247309684753418 0.026720210909843445 -0.014127795584499836 0.0 0.0 0.0 0.0
1.766 -0.39306968450546265 -0.7256367206573486 0.026373857632279396 -0.014939242973923683 0.0 0.0 0.0 0.0
1.767 -0.3944379687309265 -0.724465548992157 0.025886597111821175 -0.015783336013555527 0.0 0.0 0.0 0.0
1.768 -0.3954756259918213 -0.7239346504211426 0.025477206334471703 -0.01660889759659767 0.0 0.0 0.0 0.0
1.769 -0.39685168862342834 -0.7226029634475708 0.024991903454065323 -0.01740315929055214 0.0 0.0 0.0 0.0
1.77 -0.39901864528656006 -0.7206831574440002 0.024507440626621246 -0.01822737231850624 0.0 0.0 0.0 0.0
1.771 -0.3979456126689911 -0.7211282849311829 0.024018561467528343 -0.018981460481882095 0.0 0.0 0.0 0.0
1.772 -0.4009304344654083 -0.7208303809165955 0.023428242653608322 -0.019751358777284622 0.0 0.0 0.0 0.0
1.773 -0.40212664008140564 -0.7199094295501709 0.022886719554662704 -0.020499257370829582 0.0 0.0 0.0 0.0
1.774 -0.4009704887866974 -0.7214499711990356 0.022272683680057526 -0.021437108516693115 0.0 0.0 0.0 0.0
1.775 -0.4039948880672455 -0.7185651063919067 0.02169063873589039 -0.022020956501364708 0.0 0.0 0.0 0.0
1.776 -0.40210703015327454 -0.712770402431488 0.02102982997894287 -0.02274143509566784 0.0 0.0 0.0 0.0
1.777 -0.4058416783809662 -0.715537965297699 0.020341459661722183 -0.0233759768307209 0.0 0.0 0.0 0.0
1.778 -0.40581825375556946 -0.7161902189254761 0.01966891810297966 -0.024134386330842972 0.0 0.0 0.0 0.0
1.779 -0.40837639570236206 -0.7144842743873596 0.018878107890486717 -0.024786638095974922 0.0 0.0 0.0 0.0
1.78 -0.40709665417671204 -0.7137446403503418 0.01826218143105507 -0.025384359061717987 0.0 0.0 0.0 0.0
1.781 -0.40880265831947327 -0.7147542238235474 0.01745764911174774 -0.026061436161398888 0.0 0.0 0.0 0.0
1.782 -0.41175970435142517 -0.711800217628479 0.01654263399541378 -0.026684410870075226 0.0 0.0 0.0 0.0
1.783 -0.4102567732334137 -0.7127228379249573 0.015821322798728943 -0.02732403203845024 0.0 0.0 0.0 0.0
1.784 -0.41200143098831177 -0.7111480236053467 0.014921647496521473 -0.027815567329525948 0.0 0.0 0.0 0.0
1.785 -0.4129084348678589 -0.7119433879852295 0.014026167802512646 -0.028417237102985382 0.0 0.0 0.0 0.0
1.786 -0.416607528924942 -0.7101873755455017 0.013069064356386662 -0.02888873964548111 0.0 0.0 0.0 0.0
1.787 -0.41557246446609497 -0.7093982696533203 0.0122383376583457 -0.029275454580783844 0.0 0.0 0.0 0.0
1.788 -0.41727688908576965 -0.7049169540405273 0.011289523914456367 -0.029575899243354797 0.0 0.0 0.0 0.0
1.789 -0.41774967312812805 -0.7085769772529602 0.010472508147358894 -0.03013623133301735 0.0 0.0 0.0 0.0
1.79 -0.42031383514404297 -0.706098198890686 0.009411454200744629 -0.030461877584457397 0.0 0.0 0.0 0.0
1.791 -0.41991087794303894 -0.7057159543037415 0.008498615585267544 -0.030782410874962807 0.0 0.0 0.0 0.0
1.792 -0.4197661876678467 -0.7079748511314392 0.007540741004049778 -0.031216654926538467 0.0 0.0 0.0 0.0
1.793 -0.4224929213523865 -0.7043264508247375 0.006554419174790382 -0.03138132020831108 0.0 0.0 0.0 0.0
1.794 -0.4247502386569977 -0.7043575644493103 0.005515989847481251 -0.03162406012415886 0.0 0.0 0.0 0.0
1.795 -0.4239608645439148 -0.7043072581291199 0.004609828814864159 -0.03183826059103012 0.0 0.0 0.0 0.0
1.796 -0.42780980467796326 -0.7004830837249756 0.0035370439291000366 -0.0319046787917614 0.0 0.0 0.0 0.0
1.797 -0.4293586015701294 -0.7003377079963684 0.002551034092903137 -0.031988248229026794 0.0 0.0 0.0 0.0
1.798 -0.4259822368621826 -0.7020661234855652 0.0017903847619891167 -0.03203326091170311 0.0 0.0 0.0 0.0
1.799 -0.4299560487270355 -0.6988824605941772 0.0009114304557442665 -0.03204253315925598 0.0 0.0 0.0 0.0
1.8 -0.4289705753326416 -0.6935346126556396 0.00046383682638406754 -0.03170580789446831 0.0 0.0 0.0 0.0
1.801 -0.43143901228904724 -0.6998351812362671 0.001213368959724903 -0.03171681612730026 0.0 0.0 0.0 0.0
1.802 -0.4333587884902954 -0.6960564255714417 7.105711847543716e-05 -0.03174945339560509 0.0 0.0 0.0 0.0
1.803 -0.4330334961414337 -0.6957529187202454 -0.002113519236445427 -0.03190885856747627 0.0 0.0 0.0 0.0
1.804 -0.43250635266304016 -0.6973128914833069 -0.0039169564843177795 -0.03194153308868408 0.0 0.0 0.0 0.0
1.805 -0.43513548374176025 -0.6945214867591858 -0.003391495905816555 -0.03264070302248001 0.0 0.0 0.0 0.0
1.806 -0.43681424856185913 -0.6924059987068176 0.005112848244607449 -0.035473208874464035 0.0 0.0 0.0 0.0
1.807 -0.43579477071762085 -0.6923868060112 0.0006416896358132362 -0.03359363228082657 0.0 0.0 0.0 0.0
1.808 -0.4355700612068176 -0.6926594376564026 0.0005233176052570343 -0.0345257893204689 0.0 0.0 0.0 0.0
1.809 -0.43856996297836304 -0.6916179060935974 -0.003918908536434174 -0.032658059149980545 0.0 0.0 0.0 0.0
1.81 -0.4401630163192749 -0.6936175227165222 -0.005259205587208271 -0.03260907903313637 0.0 0.0 0.0 0.0
1.811 -0.4403477907180786 -0.6891987323760986 -0.004634680226445198 -0.03380778059363365 0.0 0.0 0.0 0.0
1.812 -0.4450865089893341 -0.6888710260391235 -0.00520662683993578 -0.03481347858905792 0.0 0.0 0.0 0.0
1.813 -0.445737361907959 -0.6852596998214722 -0.007334480062127113 -0.033398523926734924 0.0 0.0 0.0 0.0
1.814 -0.4423876404762268 -0.6875309944152832 -0.008933892473578453 -0.03275833651423454 0.0 0.0 0.0 0.0
1.815 -0.4460048973560333 -0.6855066418647766 -0.0088135851547122 -0.03557456657290459 0.0 0.0 0.0 0.0
1.816 -0.4454989731311798 -0.6863026022911072 -0.010852502658963203 -0.03329642117023468 0.0 0.0 0.0 0.0
1.817 -0.4463142454624176 -0.6849965453147888 -0.012368342839181423 -0.03234635666012764 0.0 0.0 0.0 0.0
1.818 -0.44693878293037415 -0.683443546295166 -0.013824337162077427 -0.03125620260834694 0.0 0.0 0.0 0.0
1.819 -0.45186135172843933 -0.6829338669776917 -0.015945004299283028 -0.02910936065018177 0.0 0.0 0.0 0.0
1.82 -0.4519023597240448 -0.6819060444831848 -0.016807032749056816 -0.028747983276844025 0.0 0.0 0.0 0.0
1.821 -0.4499472677707672 -0.6818869113922119 -0.01846122182905674 -0.027110949158668518 0.0 0.0 0.0 0.0
1.822 -0.456155389547348 -0.6766238212585449 -0.020722946152091026 -0.025090480223298073 0.0 0.0 0.0 0.0
1.823 -0.4563051164150238 -0.6786143779754639 -0.022179456427693367 -0.02401127479970455 0.0 0.0 0.0 0.0
1.824 -0.4580834209918976 -0.6742634773254395 -0.022868318483233452 -0.023286696523427963 0.0 0.0 0.0 0.0
1.825 -0.4565233290195465 -0.6800099611282349 -0.02350654825568199 -0.022788558155298233 0.0 0.0 0.0 0.0
1.826 -0.45713940262794495 -0.6778176426887512 -0.024319026619195938 -0.02200748771429062 0.0 0.0 0.0 0.0
1.827 -0.4591493010520935 -0.6762496829032898 -0.025091502815485 -0.0211446862667799 0.0 0.0 0.0 0.0
1.828 -0.45922476053237915 -0.6737882494926453 -0.025704756379127502 -0.020320281386375427 0.0 0.0 0.0 0.0
1.829 -0.4617283344268799 -0.6735581755638123 -0.02637837454676628 -0.019543536007404327 0.0 0.0 0.0 0.0
1.83 -0.46243706345558167 -0.67353355884552 -0.02703884057700634 -0.018657678738236427 0.0 0.0 0.0 0.0
1.831 -0.4658217132091522 -0.6721964478492737 -0.027836425229907036 -0.017759721726179123 0.0 0.0 0.0 0.0
1.832 -0.46337467432022095 -0.6720081567764282 -0.0283720251172781 -0.016826597973704338 0.0 0.0 0.0 0.0
1.833 -0.4674677550792694 -0.6715701818466187 -0.02892792411148548 -0.015981873497366905 0.0 0.0 0.0 0.0
1.834 -0.46624109148979187 -0.6694689989089966 -0.029395250603556633 -0.0150245800614357 0.0 0.0 0.0 0.0
1.835 -0.4678007662296295 -0.6697266697883606 -0.029925907030701637 -0.014062036760151386 0.0 0.0 0.0 0.0
1.836 -0.4688355326652527 -0.6670193076133728 -0.030339278280735016 -0.013060561381280422 0.0 0.0 0.0 0.0
1.837 -0.468805193901062 -0.6668195724487305 -0.030744407325983047 -0.012076201848685741 0.0 0.0 0.0 0.0
1.838 -0.4710971415042877 -0.6668511033058167 -0.031135253608226776 -0.010966658592224121 0.0 0.0 0.0 0.0
1.839 -0.47169867157936096 -0.6654795408248901 -0.03150789067149162 -0.009927268140017986 0.0 0.0 0.0 0.0
1.84 -0.4746208190917969 -0.6675642132759094 -0.03186517208814621 -0.009010200388729572 0.0 0.0 0.0 0.0
1.841 -0.4745149612426758 -0.6639745831489563 -0.032109227031469345 -0.007833590731024742 0.0 0.0 0.0 0.0
1.842 -0.47430694103240967 -0.6646333336830139 -0.03258926048874855 -0.0068556033074855804 0.0 0.0 0.0 0.0
1.843 -0.4807318449020386 -0.6611242890357971 -0.03297622501850128 -0.005633292719721794 0.0 0.0 0.0 0.0
1.844 -0.4775790870189667 -0.6614201068878174 -0.03322557359933853 -0.004670450463891029 0.0 0.0 0.0 0.0
1.845 -0.4788822531700134 -0.662043035030365 -0.03354739770293236 -0.003547866828739643 0.0 0.0 0.0 0.0
1.846 -0.48167067766189575 -0.6602724194526672 -0.033783309161663055 -0.002475951798260212 0.0 0.0 0.0 0.0
1.847 -0.4808492064476013 -0.6584824323654175 -0.0338578075170517 -0.001309441402554512 0.0 0.0 0.0 0.0
1.848 -0.48776760697364807 -0.6591373682022095 -0.03391140326857567 -0.0002286592498421669 0.0 0.0 0.0 0.0
1.849 -0.48168206214904785 -0.6610954403877258 -0.034071970731019974 0.0010004015639424324 0.0 0.0 0.0 0.0
1.85 -0.4835070073604584 -0.6565794944763184 -0.03405242785811424 0.0021607456728816032 0.0 0.0 0.0 0.0
1.851 -0.484650194644928 -0.6550805568695068 -0.03396633267402649 0.003313785418868065 0.0 0.0 0.0 0.0
1.852 -0.486984521150589 -0.653391420841217 -0.03393076732754707 0.004595804959535599 0.0 0.0 0.0 0.0
1.853 -0.48795658349990845 -0.6534988880157471 -0.03385506570339203 0.005751600489020348 0.0 0.0 0.0 0.0
1.854 -0.48931562900543213 -0.6518615484237671 -0.03372066095471382 0.006930594332516193 0.0 0.0 0.0 0.0
1.855 -0.48832544684410095 -0.6520107984542847 -0.03339967876672745 0.008039666339755058 0.0 0.0 0.0 0.0
1.856 -0.4897397458553314 -0.6510464549064636 -0.03315729275345802 0.009272183291614056 0.0 0.0 0.0 0.0
1.857 -0.49341389536857605 -0.64833664894104 -0.03265467658638954 0.010476107709109783 0.0 0.0 0.0 0.0
1.858 -0.4932577908039093 -0.6528254151344299 -0.032353706657886505 0.011620759032666683 0.0 0.0 0.0 0.0
1.859 -0.4937624931335449 -0.6484997868537903 -0.031984757632017136 0.012808768078684807 0.0 0.0 0.0 0.0
1.86 -0.49819672107696533 -0.6476907730102539 -0.03154272213578224 0.013966217637062073 0.0 0.0 0.0 0.0
1.861 -0.49777939915657043 -0.6490797996520996 -0.030903004109859467 0.01511344499886036 0.0 0.0 0.0 0.0
1.862 -0.49695101380348206 -0.6447833180427551 -0.03025580197572708 0.016022419556975365 0.0 0.0 0.0 0.0
1.863 -0.5006161332130432 -0.6418830156326294 -0.0295745637267828 0.017083438113331795 0.0 0.0 0.0 0.0
1.864 -0.49986737966537476 -0.6442223787307739 -0.028954995796084404 0.01808224432170391 0.0 0.0 0.0 0.0
1.865 -0.5021114945411682 -0.6423958539962769 -0.02816244214773178 0.01912936568260193 0.0 0.0 0.0 0.0
1.866 -0.5011737942695618 -0.640907883644104 -0.02742961049079895 0.020030338317155838 0.0 0.0 0.0 0.0
1.867 -0.5031419992446899 -0.6432300806045532 -0.026868894696235657 0.02108008973300457 0.0 0.0 0.0 0.0
1.868 -0.502464234828949 -0.6432237029075623 -0.026124531403183937 0.02199055626988411 0.0 0.0 0.0 0.0
1.869 -0.5058982968330383 -0.6382444500923157 -0.025167975574731827 0.023021554574370384 0.0 0.0 0.0 0.0
1.87 -0.5073748230934143 -0.6406181454658508 -0.024360323324799538 0.024107972159981728 0.0 0.0 0.0 0.0
1.871 -0.508182168006897 -0.6367835402488708 -0.023539112880825996 0.024916594848036766 0.0 0.0 0.0 0.0
1.872 -0.5136955976486206 -0.6400063633918762 -0.022669341415166855 0.026127807796001434 0.0 0.0 0.0 0.0
1.873 -0.5092772841453552 -0.6337948441505432 -0.022213347256183624 0.02724592387676239 0.0 0.0 0.0 0.0
1.874 -0.5106640458106995 -0.6343135833740234 -0.021447312086820602 0.0286013875156641 0.0 0.0 0.0 0.0
1.875 -0.5123807787895203 -0.6327570676803589 -0.020603258162736893 0.02974439039826393 0.0 0.0 0.0 0.0
1.876 -0.5114576816558838 -0.631457507610321 -0.0197907742112875 0.030986305326223373 0.0 0.0 0.0 0.0
1.877 -0.5143519639968872 -0.6315183043479919 -0.01866276189684868 0.0319792814552784 0.0 0.0 0.0 0.0
1.878 -0.514650821685791 -0.6303509473800659 -0.017445681616663933 0.03284960612654686 0.0 0.0 0.0 0.0
1.879 -0.5149268507957458 -0.6269291043281555 -0.016496533527970314 0.03359576687216759 0.0 0.0 0.0 0.0
1.88 -0.5197287201881409 -0.6295439600944519 -0.015134080313146114 0.03470379859209061 0.0 0.0 0.0 0.0
1.881 -0.5188792943954468 -0.6290302276611328 -0.013822903856635094 0.035357844084501266 0.0 0.0 0.0 0.0
1.882 -0.5223696827888489 -0.6254628896713257 -0.012278767302632332 0.035561703145504 0.0 0.0 0.0 0.0
1.883 -0.5219094753265381 -0.6261288523674011 -0.011057169176638126 0.03604322671890259 0.0 0.0 0.0 0.0
1.884 -0.5229002833366394 -0.6283096671104431 -0.009484946727752686 0.0364459827542305 0.0 0.0 0.0 0.0
1.885 -0.5263911485671997 -0.6223506927490234 -0.008060682564973831 0.03645988926291466 0.0 0.0 0.0 0.0
1.886 -0.5254730582237244 -0.6211699843406677 -0.0068243443965911865 0.03648768365383148 0.0 0.0 0.0 0.0
1.887 -0.5270063877105713 -0.6211017370223999 -0.005395670421421528 0.03653070703148842 0.0 0.0 0.0 0.0
1.888 -0.5272098779678345 -0.6211713552474976 -0.004001821391284466 0.03661297261714935 0.0 0.0 0.0 0.0
1.889 -0.5291551351547241 -0.6185767650604248 -0.002752993255853653 0.036182206124067307 0.0 0.0 0.0 0.0
1.89 -0.5275487899780273 -0.6187146306037903 -0.0014859214425086975 0.035952914506196976 0.0 0.0 0.0 0.0
1.891 -0.5287669897079468 -0.6161804795265198 -0.00026764441281557083 0.03552442416548729 0.0 0.0 0.0 0.0
1.892 -0.533076822757721 -0.6150832176208496 0.0011750459671020508 0.03543714061379433 0.0 0.0 0.0 0.0
1.893 -0.535025417804718 -0.6150655746459961 0.00238040741533041 0.03502785041928291 0.0 0.0 0.0 0.0
1.894 -0.5323421955108643 -0.6125082969665527 0.003142452798783779 0.03402629867196083 0.0 0.0 0.0 0.0
1.895 -0.5364328622817993 -0.613012433052063 0.0037428317591547966 0.033052708953619 0.0 0.0 0.0 0.0
1.896 -0.5418131947517395 -0.6173076033592224 0.0041928980499506 0.03181296959519386 0.0 0.0 0.0 0.0
1.897 -0.5355530977249146 -0.6104445457458496 0.004971892572939396 0.03127030283212662 0.0 0.0 0.0 0.0
1.898 -0.5400129556655884 -0.6094650030136108 0.0061337510123848915 0.031042620539665222 0.0 0.0 0.0 0.0
1.899 -0.5391420722007751 -0.6103790998458862 0.006947285495698452 0.03077055886387825 0.0 0.0 0.0 0.0
1.9 -0.54047030210495 -0.6109815239906311 0.008033289574086666 0.03050112910568714 0.0 0.0 0.0 0.0
1.901 -0.5427046418190002 -0.6070865392684937 0.008944560773670673 0.029914788901805878 0.0 0.0 0.0 0.0
1.902 -0.5435833930969238 -0.6064069271087646 0.00956413522362709 0.02934972383081913 0.0 0.0 0.0 0.0
1.903 -0.5449564456939697 -0.6048390865325928 0.010076000355184078 0.028710125014185905 0.0 0.0 0.0 0.0
1.904 -0.5462662577629089 -0.604243814945221 0.01060754805803299 0.028069883584976196 0.0 0.0 0.0 0.0
1.905 -0.547676682472229 -0.6020762324333191 0.011072979308664799 0.027427025139331818 0.0 0.0 0.0 0.0
1.906 -0.5518711805343628 -0.6034875512123108 0.011505737900733948 0.026923878118395805 0.0 0.0 0.0 0.0
1.907 -0.5499499440193176 -0.6014203429222107 0.011895679868757725 0.02638840675354004 0.0 0.0 0.0 0.0
1.908 -0.5514423847198486 -0.5969015955924988 0.012482724152505398 0.02572665922343731 0.0 0.0 0.0 0.0
1.909 -0.551078736782074 -0.5962934494018555 0.013072428293526173 0.025296879932284355 0.0 0.0 0.0 0.0
1.91 -0.55294269323349 -0.5985310077667236 0.013552790507674217 0.024822082370519638 0.0 0.0 0.0 0.0
1.911 -0.5537272095680237 -0.5962841510772705 0.014087594114243984 0.024295205250382423 0.0 0.0 0.0 0.0
1.912 -0.5571681261062622 -0.5941473245620728 0.014614121988415718 0.023778311908245087 0.0 0.0 0.0 0.0
1.913 -0.5585597157478333 -0.5949681401252747 0.014863823540508747 0.023367878049612045 0.0 0.0 0.0 0.0
1.914 -0.5574579238891602 -0.5927552580833435 0.015150603838264942 0.022839432582259178 0.0 0.0 0.0 0.0
1.915 -0.5604132413864136 -0.5889087915420532 0.015353450551629066 0.022350110113620758 0.0 0.0 0.0 0.0
1.916 -0.5601642727851868 -0.5922337174415588 0.015608969144523144 0.02196403406560421 0.0 0.0 0.0 0.0
1.917 -0.5604986548423767 -0.589613139629364 0.01620177924633026 0.021409276872873306 0.0 0.0 0.0 0.0
1.918 -0.5654765963554382 -0.5924058556556702 0.016918061301112175 0.02108585089445114 0.0 0.0 0.0 0.0
1.919 -0.5638746619224548 -0.587552011013031 0.017522580921649933 0.020403267815709114 0.0 0.0 0.0 0.0
1.92 -0.5660114288330078 -0.589766263961792 0.01798257604241371 0.01995934173464775 0.0 0.0 0.0 0.0
1.921 -0.5661093592643738 -0.5876705050468445 0.018559930846095085 0.019406139850616455 0.0 0.0 0.0 0.0
1.922 -0.5682329535484314 -0.5832710266113281 0.018883349373936653 0.01886591874063015 0.0 0.0 0.0 0.0
1.923 -0.5705769062042236 -0.5831038355827332 0.019276561215519905 0.018453380092978477 0.0 0.0 0.0 0.0
1.924 -0.5678565502166748 -0.5844884514808655 0.019500691443681717 0.017984900623559952 0.0 0.0 0.0 0.0
1.925 -0.5707007646560669 -0.5819234251976013 0.019730718806385994 0.01752142235636711 0.0 0.0 0.0 0.0
1.926 -0.5728399157524109 -0.5806094408035278 0.019847018644213676 0.017216477543115616 0.0 0.0 0.0 0.0
1.927 -0.5757596492767334 -0.5785650610923767 0.02011220157146454 0.016815055161714554 0.0 0.0 0.0 0.0
1.928 -0.5735266804695129 -0.5777879953384399 0.020170364528894424 0.01651112362742424 0.0 0.0 0.0 0.0
1.929 -0.5773447751998901 -0.5767861008644104 0.020985882729291916 0.01567673310637474 0.0 0.0 0.0 0.0
1.93 -0.5774253010749817 -0.5739646553993225 0.021660782396793365 0.014885257929563522 0.0 0.0 0.0 0.0
1.931 -0.5788309574127197 -0.5731424689292908 0.022547822445631027 0.013961752876639366 0.0 0.0 0.0 0.0
1.932 -0.5772523880004883 -0.5776486992835999 0.023048847913742065 0.013376505114138126 0.0 0.0 0.0 0.0
1.933 -0.5824964642524719 -0.5710964798927307 0.023694878444075584 0.012431517243385315 0.0 0.0 0.0 0.0
1.934 -0.5808565020561218 -0.5715391039848328 0.024122782051563263 0.011726475320756435 0.0 0.0 0.0 0.0
1.935 -0.5843390226364136 -0.5679877996444702 0.024543749168515205 0.011018641293048859 0.0 0.0 0.0 0.0
1.936 -0.5826555490493774 -0.5665071606636047 0.02478744648396969 0.010402762331068516 0.0 0.0 0.0 0.0
1.937 -0.5833972692489624 -0.568058967590332 0.025048349052667618 0.009873108938336372 0.0 0.0 0.0 0.0
1.938 -0.5868454575538635 -0.5661550760269165 0.02523672953248024 0.009452905505895615 0.0 0.0 0.0 0.0
1.939 -0.5876868367195129 -0.5626617670059204 0.025391295552253723 0.008946200832724571 0.0 0.0 0.0 0.0
1.94 -0.5900600552558899 -0.5625350475311279 0.025634530931711197 0.008481374941766262 0.0 0.0 0.0 0.0
1.941 -0.5912536382675171 -0.5613290667533875 0.026027332991361618 0.007561760023236275 0.0 0.0 0.0 0.0
1.942 -0.5899577736854553 -0.5605373978614807 0.026453973725438118 0.0067340899258852005 0.0 0.0 0.0 0.0
1.943 -0.5929626822471619 -0.5591397881507874 0.026818078011274338 0.0056766327470541 0.0 0.0 0.0 0.0
1.944 -0.5931516885757446 -0.56095951795578 0.027188580483198166 0.004600057378411293 0.0 0.0 0.0 0.0
1.945 -0.595538318157196 -0.5573148727416992 0.02746807597577572 0.0036429744213819504 0.0 0.0 0.0 0.0
1.946 -0.594857394695282 -0.5571261048316956 0.027601031586527824 0.003047741949558258 0.0 0.0 0.0 0.0
1.947 -0.5970935821533203 -0.554259181022644 0.02778567746281624 0.0021616164594888687 0.0 0.0 0.0 0.0
1.948 -0.5985466837882996 -0.5519327521324158 0.027962084859609604 0.0012826398015022278 0.0 0.0 0.0 0.0
1.949 -0.600681722164154 -0.5514079332351685 0.028106994926929474 0.0004516085609793663 0.0 0.0 0.0 0.0
1.95 -0.601498007774353 -0.5522920489311218 0.028212783858180046 -0.00031297653913497925 0.0 0.0 0.0 0.0
1.951 -0.6003068089485168 -0.5511375665664673 0.02831902913749218 -0.0012375861406326294 0.0 0.0 0.0 0.0
1.952 -0.6024616360664368 -0.5494502186775208 0.028385421261191368 -0.0020432379096746445 0.0 0.0 0.0 0.0
1.953 -0.6052067875862122 -0.5468159317970276 0.028518665581941605 -0.002984125167131424 0.0 0.0 0.0 0.0
1.954 -0.602482259273529 -0.5452974438667297 0.028564754873514175 -0.00383054930716753 0.0 0.0 0.0 0.0
1.955 -0.6065781712532043 -0.5452887415885925 0.02855248562991619 -0.004786734469234943 0.0 0.0 0.0 0.0
1.956 -0.611264705657959 -0.5407668352127075 0.028504367917776108 -0.005679650232195854 0.0 0.0 0.0 0.0
1.957 -0.6087150573730469 -0.5440196990966797 0.028525324538350105 -0.006520718336105347 0.0 0.0 0.0 0.0
1.958 -0.6097046732902527 -0.5423345565795898 0.028482049703598022 -0.0073970770463347435 0.0 0.0 0.0 0.0
1.959 -0.6111635565757751 -0.540388822555542 0.02841833420097828 -0.008275502361357212 0.0 0.0 0.0 0.0
1.96 -0.6132851839065552 -0.5361930727958679 0.02828374318778515 -0.009169613011181355 0.0 0.0 0.0 0.0
1.961 -0.6152430772781372 -0.5364667177200317 0.028145473450422287 -0.010225937701761723 0.0 0.0 0.0 0.0
1.962 -0.6161203980445862 -0.5342658162117004 0.02798839844763279 -0.011061935685575008 0.0 0.0 0.0 0.0
1.963 -0.6168438792228699 -0.5317510962486267 0.02780349738895893 -0.012024357914924622 0.0 0.0 0.0 0.0
1.964 -0.618025004863739 -0.5321190357208252 0.027635401114821434 -0.012923149392008781 0.0 0.0 0.0 0.0
1.965 -0.6181765198707581 -0.5321259498596191 0.027402473613619804 -0.013734801672399044 0.0 0.0 0.0 0.0
1.966 -0.6228104829788208 -0.5320063829421997 0.02709348499774933 -0.014732683077454567 0.0 0.0 0.0 0.0
1.967 -0.6205381751060486 -0.5285782814025879 0.026787633076310158 -0.01585693657398224 0.0 0.0 0.0 0.0
1.968 -0.6207226514816284 -0.5284570455551147 0.026442090049386024 -0.01703408919274807 0.0 0.0 0.0 0.0
1.969 -0.6240074634552002 -0.5275350213050842 0.025977429002523422 -0.017803730443120003 0.0 0.0 0.0 0.0
1.97 -0.6237024664878845 -0.5253579020500183 0.02566940151154995 -0.018631568178534508 0.0 0.0 0.0 0.0
1.971 -0.6281248927116394 -0.5214170217514038 0.025280997157096863 -0.01954764500260353 0.0 0.0 0.0 0.0
1.972 -0.623943567276001 -0.5252429246902466 0.02547215111553669 -0.01993051916360855 0.0 0.0 0.0 0.0
1.973 -0.6271949410438538 -0.5217418074607849 0.025491900742053986 -0.020395901054143906 0.0 0.0 0.0 0.0
1.974 -0.6278977394104004 -0.5192290544509888 0.025551674887537956 -0.020969299599528313 0.0 0.0 0.0 0.0
1.975 -0.6314821243286133 -0.519366443157196 0.025654423981904984 -0.021660216152668 0.0 0.0 0.0 0.0
1.976 -0.6306927800178528 -0.5161740183830261 0.025935281068086624 -0.02212308533489704 0.0 0.0 0.0 0.0
1.977 -0.6308572888374329 -0.5152537822723389 0.02598247304558754 -0.022951588034629822 0.0 0.0 0.0 0.0
1.978 -0.635684072971344 -0.5117714405059814 0.026026619598269463 -0.023840274661779404 0.0 0.0 0.0 0.0
1.979 -0.634647011756897 -0.512833833694458 0.025898931547999382 -0.024844825267791748 0.0 0.0 0.0 0.0
1.98 -0.6387761235237122 -0.5106621980667114 0.025287115946412086 -0.025902532041072845 0.0 0.0 0.0 0.0
1.981 -0.6381554007530212 -0.5101315379142761 0.0247365590184927 -0.027114979922771454 0.0 0.0 0.0 0.0
1.982 -0.6389894485473633 -0.5083787441253662 0.02405235543847084 -0.02833840623497963 0.0 0.0 0.0 0.0
1.983 -0.6389802694320679 -0.5066394805908203 0.023138821125030518 -0.0295108649879694 0.0 0.0 0.0 0.0
1.984 -0.6414377689361572 -0.5066937208175659 0.022058933973312378 -0.030616197735071182 0.0 0.0 0.0 0.0
1.985 -0.6413006782531738 -0.5049031972885132 0.020908478647470474 -0.03170560672879219 0.0 0.0 0.0 0.0
1.986 -0.642542839050293 -0.5025692582130432 0.01964416541159153 -0.03282542899250984 0.0 0.0 0.0 0.0
1.987 -0.6442897915840149 -0.4986931383609772 0.018275240436196327 -0.03381601348519325 0.0 0.0 0.0 0.0
1.988 -0.6447263956069946 -0.49824258685112 0.016874808818101883 -0.03474055975675583 0.0 0.0 0.0 0.0
1.989 -0.6464312672615051 -0.4989219903945923 0.015615822747349739 -0.035752080380916595 0.0 0.0 0.0 0.0
1.99 -0.647687554359436 -0.4984542429447174 0.0140305794775486 -0.03675447031855583 0.0 0.0 0.0 0.0
1.991 -0.648330807685852 -0.4952162802219391 0.012323398143053055 -0.03730585426092148 0.0 0.0 0.0 0.0
1.992 -0.647771954536438 -0.49389228224754333 0.010917522944509983 -0.0377773642539978 0.0 0.0 0.0 0.0
1.993 -0.6489690542221069 -0.49174416065216064 0.009239599108695984 -0.03829960525035858 0.0 0.0 0.0 0.0
1.994 -0.6516214609146118 -0.49112188816070557 0.007233200594782829 -0.03889501467347145 0.0 0.0 0.0 0.0
1.995 -0.6534916162490845 -0.489722341299057 0.005334717221558094 -0.03931136429309845 0.0 0.0 0.0 0.0
1.996 -0.6547397971153259 -0.4891623556613922 0.003646588884294033 -0.039518922567367554 0.0 0.0 0.0 0.0
1.997 -0.6547876000404358 -0.48736822605133057 0.0018379511311650276 -0.039618633687496185 0.0 0.0 0.0 0.0
1.998 -0.6571393609046936 -0.48425033688545227 0.00017024017870426178 -0.0397912971675396 0.0 0.0 0.0 0.0
1.999 -0.6562795639038086 -0.4848862588405609 -0.0010971613228321075 -0.03998947516083717 0.0 0.0 0.0 0.0
2.0 -0.6583611965179443 -0.4835144281387329 -0.0030783861875534058 -0.04002441093325615 0.0 0.0 0.0 0.0
2.001 -0.6585966348648071 -0.4840371310710907 -0.012642402201890945 -0.03146200254559517 0.0 0.0 0.0 0.0
2.002 -0.6646775603294373 -0.4799150824546814 -0.014095364138484001 -0.03094790317118168 0.0 0.0 0.0 0.0
2.003 -0.6623436808586121 -0.4779910147190094 -0.014870579354465008 -0.030426934361457825 0.0 0.0 0.0 0.0
2.004 -0.6615854501724243 -0.477120578289032 -0.015717508271336555 -0.02995261177420616 0.0 0.0 0.0 0.0
2.005 -0.6630752682685852 -0.47361549735069275 -0.016787638887763023 -0.029286064207553864 0.0 0.0 0.0 0.0
2.006 -0.666010320186615 -0.4739898145198822 -0.01785566657781601 -0.02886083908379078 0.0 0.0 0.0 0.0
2.007 -0.6675020456314087 -0.47271275520324707 -0.01878371275961399 -0.028335941955447197 0.0 0.0 0.0 0.0
2.008 -0.6677350401878357 -0.47179725766181946 -0.019627882167696953 -0.02771993726491928 0.0 0.0 0.0 0.0
2.009 -0.6682419776916504 -0.47055256366729736 -0.020589755848050117 -0.026999933645129204 0.0 0.0 0.0 0.0
2.01 -0.6720089912414551 -0.466225802898407 -0.021553708240389824 -0.026306431740522385 0.0 0.0 0.0 0.0
2.011 -0.6720190048217773 -0.4687097370624542 -0.02235005982220173 -0.025758171454072 0.0 0.0 0.0 0.0
2.012 -0.6721776723861694 -0.4656449854373932 -0.023215744644403458 -0.024942953139543533 0.0 0.0 0.0 0.0
2.013 -0.6732613444328308 -0.4645342528820038 -0.024084532633423805 -0.02416752278804779 0.0 0.0 0.0 0.0
2.014 -0.6767613887786865 -0.4570852518081665 -0.024884190410375595 -0.023230960592627525 0.0 0.0 0.0 0.0
2.015 -0.6763834953308105 -0.4608110785484314 -0.025622712448239326 -0.022590739652514458 0.0 0.0 0.0 0.0
2.016 -0.6773478984832764 -0.4578538239002228 -0.02643556147813797 -0.02167058177292347 0.0 0.0 0.0 0.0
2.017 -0.6776187419891357 -0.4566328227519989 -0.027170898392796516 -0.020791949704289436 0.0 0.0 0.0 0.0
2.018 -0.6796060800552368 -0.4565820097923279 -0.027844995260238647 -0.020042935386300087 0.0 0.0 0.0 0.0
2.019 -0.6813740730285645 -0.4547319710254669 -0.028536930680274963 -0.019085360690951347 0.0 0.0 0.0 0.0
2.02 -0.6814361214637756 -0.4518958032131195 -0.029224205762147903 -0.018120160326361656 0.0 0.0 0.0 0.0
2.021 -0.683652400970459 -0.45105698704719543 -0.02981307916343212 -0.017246795818209648 0.0 0.0 0.0 0.0
2.022 -0.684360921382904 -0.4505802094936371 -0.030462827533483505 -0.016263404861092567 0.0 0.0 0.0 0.0
2.023 -0.6840564012527466 -0.44907522201538086 -0.03096434846520424 -0.015310477465391159 0.0 0.0 0.0 0.0
2.024 -0.6871887445449829 -0.44588664174079895 -0.0315953753888607 -0.014231756329536438 0.0 0.0 0.0 0.0
2.025 -0.6879979372024536 -0.44763994216918945 -0.03211010992527008 -0.013340925797820091 0.0 0.0 0.0 0.0
2.026 -0.6888903379440308 -0.4429439902305603 -0.0326102040708065 -0.01215532049536705 0.0 0.0 0.0 0.0
2.027 -0.6920508742332458 -0.43851473927497864 -0.033068686723709106 -0.011025531217455864 0.0 0.0 0.0 0.0
2.028 -0.6897216439247131 -0.4415248930454254 -0.033388953655958176 -0.010264544747769833 0.0 0.0 0.0 0.0
2.029 -0.6935262680053711 -0.43592897057533264 -0.033900439739227295 -0.008879861794412136 0.0 0.0 0.0 0.0
2.03 -0.6935901045799255 -0.436521977186203 -0.034239038825035095 -0.007828730158507824 0.0 0.0 0.0 0.0
2.031 -0.695829451084137 -0.4337410628795624 -0.03459960222244263 -0.0066945357248187065 0.0 0.0 0.0 0.0
2.032 -0.6934635043144226 -0.4378450810909271 -0.034778449684381485 -0.005783381871879101 0.0 0.0 0.0 0.0
2.033 -0.6963540315628052 -0.43379026651382446 -0.03504817187786102 -0.004546680487692356 0.0 0.0 0.0 0.0
2.034 -0.6975396871566772 -0.4298901855945587 -0.03532155230641365 -0.003193284384906292 0.0 0.0 0.0 0.0
2.035 -0.6979963183403015 -0.428362101316452 -0.03547322005033493 -0.001984085887670517 0.0 0.0 0.0 0.0
2.036 -0.6991538405418396 -0.4296096861362457 -0.035619284957647324 -0.0008620824664831161 0.0 0.0 0.0 0.0
2.037 -0.6994662284851074 -0.4275835156440735 -0.035739075392484665 0.0003621019423007965 0.0 0.0 0.0 0.0
2.038 -0.7019070386886597 -0.42131057381629944 -0.035815391689538956 0.0016391370445489883 0.0 0.0 0.0 0.0
2.039 -0.7033628225326538 -0.4232991933822632 -0.03580573573708534 0.0028103068470954895 0.0 0.0 0.0 0.0
2.04 -0.7038024663925171 -0.4210840165615082 -0.03572456166148186 0.004090907052159309 0.0 0.0 0.0 0.0
2.041 -0.7038187980651855 -0.41982629895210266 -0.0356905572116375 0.005319349467754364 0.0 0.0 0.0 0.0
2.042 -0.7074596881866455 -0.41735929250717163 -0.0355105958878994 0.0066053178161382675 0.0 0.0 0.0 0.0
2.043 -0.706670880317688 -0.41888314485549927 -0.0353567972779274 0.007850381545722485 0.0 0.0 0.0 0.0
2.044 -0.7090697884559631 -0.4141518473625183 -0.03505010902881622 0.009138333611190319 0.0 0.0 0.0 0.0
2.045 -0.7101330161094666 -0.4126291871070862 -0.03479155898094177 0.010426816530525684 0.0 0.0 0.0 0.0
2.046 -0.7119255065917969 -0.41018784046173096 -0.03447527438402176 0.011555982753634453 0.0 0.0 0.0 0.0
2.047 -0.7113655209541321 -0.4110630750656128 -0.03406798094511032 0.012967165559530258 0.0 0.0 0.0 0.0
2.048 -0.7125717997550964 -0.40784892439842224 -0.03366389125585556 0.014089949429035187 0.0 0.0 0.0 0.0
2.049 -0.7151663899421692 -0.4053097367286682 -0.03314365819096565 0.01537112146615982 0.0 0.0 0.0 0.0
2.05 -0.7165667414665222 -0.40339934825897217 -0.03250125050544739 0.016433261334896088 0.0 0.0 0.0 0.0
2.051 -0.7151595950126648 -0.404588520526886 -0.03197736293077469 0.01769750937819481 0.0 0.0 0.0 0.0
2.052 -0.7172441482543945 -0.3985278010368347 -0.03129790723323822 0.018803460523486137 0.0 0.0 0.0 0.0
2.053 -0.7204501628875732 -0.39947637915611267 -0.030543912202119827 0.019947638735175133 0.0 0.0 0.0 0.0
2.054 -0.7197296619415283 -0.3985118567943573 -0.029910791665315628 0.02111826464533806 0.0 0.0 0.0 0.0
2.055 -0.7197628617286682 -0.3960857093334198 -0.029099982231855392 0.022210411727428436 0.0 0.0 0.0 0.0
2.056 -0.7210018038749695 -0.3940151631832123 -0.028351999819278717 0.023212620988488197 0.0 0.0 0.0 0.0
2.057 -0.7225785255432129 -0.39384719729423523 -0.02737540565431118 0.02421479858458042 0.0 0.0 0.0 0.0
2.058 -0.7233338952064514 -0.39171862602233887 -0.026447152718901634 0.02525673434138298 0.0 0.0 0.0 0.0
2.059 -0.7258146405220032 -0.3905429244041443 -0.02548915147781372 0.026212213560938835 0.0 0.0 0.0 0.0
2.06 -0.7259871363639832 -0.38827213644981384 -0.024492619559168816 0.026984408497810364 0.0 0.0 0.0 0.0
2.061 -0.7261785864830017 -0.38691526651382446 -0.023397047072649002 0.02786833979189396 0.0 0.0 0.0 0.0
2.062 -0.7288724780082703 -0.38582220673561096 -0.022278565913438797 0.028936952352523804 0.0 0.0 0.0 0.0
2.063 -0.7294648885726929 -0.3823207914829254 -0.021167214959859848 0.029524410143494606 0.0 0.0 0.0 0.0
2.064 -0.7309541702270508 -0.38328927755355835 -0.0199985820800066 0.0302431620657444 0.0 0.0 0.0 0.0
2.065 -0.7299139499664307 -0.379943311214447 -0.018987273797392845 0.030934367328882217 0.0 0.0 0.0 0.0
2.066 -0.7320829033851624 -0.3772047460079193 -0.01776205562055111 0.03149237856268883 0.0 0.0 0.0 0.0
2.067 -0.7332704067230225 -0.37738266587257385 -0.0166225116699934 0.03207283467054367 0.0 0.0 0.0 0.0
2.068 -0.7336137890815735 -0.37346500158309937 -0.015234161168336868 0.03247503936290741 0.0 0.0 0.0 0.0
2.069 -0.7355191707611084 -0.37292343378067017 -0.013990780338644981 0.03309239447116852 0.0 0.0 0.0 0.0
2.07 -0.7366974353790283 -0.36976149678230286 -0.012763681821525097 0.0334446094930172 0.0 0.0 0.0 0.0
2.071 -0.7380177974700928 -0.3699014186859131 -0.011408621445298195 0.033698149025440216 0.0 0.0 0.0 0.0
2.072 -0.7385364174842834 -0.36789700388908386 -0.010090447962284088 0.03411605581641197 0.0 0.0 0.0 0.0
2.073 -0.739997923374176 -0.36521491408348083 -0.008753681555390358 0.0343613438308239 0.0 0.0 0.0 0.0
2.074 -0.7397645711898804 -0.3653768301010132 -0.007682806812226772 0.03453557565808296 0.0 0.0 0.0 0.0
2.075 -0.7404265403747559 -0.36411717534065247 -0.006456364877521992 0.03464433178305626 0.0 0.0 0.0 0.0
2.076 -0.7431586384773254 -0.36121100187301636 -0.004928026348352432 0.03478375822305679 0.0 0.0 0.0 0.0
2.077 -0.7433573007583618 -0.3588295578956604 -0.003842117264866829 0.0347118116915226 0.0 0.0 0.0 0.0
2.078 -0.7445688247680664 -0.35858839750289917 -0.0025712475180625916 0.03467116504907608 0.0 0.0 0.0 0.0
2.079 -0.744151771068573 -0.3576640486717224 -0.0013679498806595802 0.03455234691500664 0.0 0.0 0.0 0.0
2.08 -0.7454128861427307 -0.3544791340827942 -0.0002707354724407196 0.034505654126405716 0.0 0.0 0.0 0.0
2.081 -0.7475624680519104 -0.3517242670059204 0.0011066468432545662 0.03422205150127411 0.0 0.0 0.0 0.0
2.082 -0.7472894191741943 -0.351330429315567 0.0022103674709796906 0.033973321318626404 0.0 0.0 0.0 0.0
2.083 -0.7511036396026611 -0.34648922085762024 0.0036793798208236694 0.03372064232826233 0.0 0.0 0.0 0.0
2.084 -0.7500667572021484 -0.3488171696662903 0.004450665786862373 0.03346623107790947 0.0 0.0 0.0 0.0
2.085 -0.7509844899177551 -0.34511736035346985 0.005585606209933758 0.03306619077920914 0.0 0.0 0.0 0.0
2.086 -0.7524117827415466 -0.34419652819633484 0.006774327717721462 0.03273754194378853 0.0 0.0 0.0 0.0
2.087 -0.7532234787940979 -0.34054818749427795 0.007711078971624374 0.03224313259124756 0.0 0.0 0.0 0.0
2.088 -0.7555544376373291 -0.33866769075393677 0.008832428604364395 0.03189006447792053 0.0 0.0 0.0 0.0
2.089 -0.7564291954040527 -0.33593904972076416 0.009803768247365952 0.03127425163984299 0.0 0.0 0.0 0.0
2.09 -0.7563032507896423 -0.3362860381603241 0.01077699288725853 0.030874282121658325 0.0 0.0 0.0 0.0
2.091 -0.7577182054519653 -0.3343147933483124 0.011613454669713974 0.03033830225467682 0.0 0.0 0.0 0.0
2.092 -0.7581822872161865 -0.33428120613098145 0.012419445440173149 0.029753148555755615 0.0 0.0 0.0 0.0
2.093 -0.7586362957954407 -0.33071520924568176 0.01334125455468893 0.02913779206573963 0.0 0.0 0.0 0.0
2.094 -0.7603870034217834 -0.32793697714805603 0.01427391916513443 0.02851940132677555 0.0 0.0 0.0 0.0
2.095 -0.761883556842804 -0.3258918821811676 0.014916403219103813 0.02794981561601162 0.0 0.0 0.0 0.0
2.096 -0.7614555954933167 -0.3261447548866272 0.01563522405922413 0.02731785550713539 0.0 0.0 0.0 0.0
2.097 -0.7623165845870972 -0.32434403896331787 0.016441674903035164 0.026670068502426147 0.0 0.0 0.0 0.0
2.098 -0.7644731998443604 -0.3183959424495697 0.01716913841664791 0.025908853858709335 0.0 0.0 0.0 0.0
2.099 -0.7651159167289734 -0.3197745680809021 0.017816953361034393 0.025364665314555168 0.0 0.0 0.0 0.0
2.1 -0.7658230662345886 -0.32051581144332886 0.018578262999653816 0.02476360648870468 0.0 0.0 0.0 0.0
2.101 -0.7668241262435913 -0.31431952118873596 0.019153883680701256 0.02397432178258896 0.0 0.0 0.0 0.0
2.102 -0.7683135271072388 -0.31351569294929504 0.01975153014063835 0.023320037871599197 0.0 0.0 0.0 0.0
2.103 -0.7688922882080078 -0.3130699694156647 0.020330725237727165 0.022630155086517334 0.0 0.0 0.0 0.0
2.104 -0.7688475251197815 -0.30990099906921387 0.0209189523011446 0.02187068574130535 0.0 0.0 0.0 0.0
2.105 -0.7710930109024048 -0.30536434054374695 0.021437009796500206 0.02118045650422573 0.0 0.0 0.0 0.0
2.106 -0.7714841365814209 -0.30654916167259216 0.02187294512987137 0.02052351087331772 0.0 0.0 0.0 0.0
2.107 -0.7715741395950317 -0.3069763779640198 0.022402500733733177 0.01979602500796318 0.0 0.0 0.0 0.0
2.108 -0.7731597423553467 -0.30095991492271423 0.022880686447024345 0.018981240689754486 0.0 0.0 0.0 0.0
2.109 -0.774449348449707 -0.3002149760723114 0.023292744532227516 0.01834331825375557 0.0 0.0 0.0 0.0
2.11 -0.7739638686180115 -0.29755187034606934 0.023636983707547188 0.017491796985268593 0.0 0.0 0.0 0.0
2.111 -0.7753240466117859 -0.2978699803352356 0.024181455373764038 0.016772544011473656 0.0 0.0 0.0 0.0
2.112 -0.7760459780693054 -0.2970772385597229 0.02451833337545395 0.016127917915582657 0.0 0.0 0.0 0.0
2.113 -0.7785377502441406 -0.2914358377456665 0.024988075718283653 0.01521447952836752 0.0 0.0 0.0 0.0
2.114 -0.7784991264343262 -0.2913070321083069 0.025422031059861183 0.014418297447264194 0.0 0.0 0.0 0.0
2.115 -0.7788474559783936 -0.2900451719760895 0.025738852098584175 0.013650654815137386 0.0 0.0 0.0 0.0
2.116 -0.7791172862052917 -0.2884178161621094 0.02608969248831272 0.012922378256917 0.0 0.0 0.0 0.0
2.117 -0.7820034623146057 -0.2833787202835083 0.02649245411157608 0.011963412165641785 0.0 0.0 0.0 0.0
2.118 -0.7824662327766418 -0.28203830122947693 0.02681749314069748 0.011150860227644444 0.0 0.0 0.0 0.0
2.119 -0.7824988961219788 -0.2839876115322113 0.026988033205270767 0.01052758190780878 0.0 0.0 0.0 0.0
2.12 -0.7844647765159607 -0.2784700095653534 0.027370896190404892 0.009575475007295609 0.0 0.0 0.0 0.0
2.121 -0.7849065661430359 -0.2764926552772522 0.027493970468640327 0.008792981505393982 0.0 0.0 0.0 0.0
2.122 -0.7848990559577942 -0.2758941948413849 0.027733800932765007 0.007967148907482624 0.0 0.0 0.0 0.0
2.123 -0.7857982516288757 -0.27386826276779175 0.027896620333194733 0.00726915430277586 0.0 0.0 0.0 0.0
2.124 -0.7866572737693787 -0.26963505148887634 0.028120696544647217 0.006394091062247753 0.0 0.0 0.0 0.0
2.125 -0.788294792175293 -0.27006444334983826 0.028277866542339325 0.005538402125239372 0.0 0.0 0.0 0.0
2.126 -0.7886686325073242 -0.2683475613594055 0.02843894623219967 0.004842016845941544 0.0 0.0 0.0 0.0
2.127 -0.7898592948913574 -0.2652384042739868 0.02849300019443035 0.004086107946932316 0.0 0.0 0.0 0.0
2.128 -0.7899808287620544 -0.2641706168651581 0.028693867847323418 0.0031679263338446617 0.0 0.0 0.0 0.0
2.129 -0.790738582611084 -0.26294395327568054 0.028700299561023712 0.002454616129398346 0.0 0.0 0.0 0.0
2.13 -0.7918360829353333 -0.25801509618759155 0.028785595670342445 0.0015975059941411018 0.0 0.0 0.0 0.0
2.131 -0.7934475541114807 -0.2578154504299164 0.028845280408859253 0.0008124653249979019 0.0 0.0 0.0 0.0
2.132 -0.7941235899925232 -0.2566169202327728 0.028862357139587402 -2.0740553736686707e-05 0.0 0.0 0.0 0.0
2.133 -0.7942067980766296 -0.25364628434181213 0.028892800211906433 -0.0009315349161624908 0.0 0.0 0.0 0.0
2.134 -0.7956961989402771 -0.25013870000839233 0.02890181355178356 -0.0017294986173510551 0.0 0.0 0.0 0.0
2.135 -0.7965792417526245 -0.24987637996673584 0.028864296153187752 -0.002490077167749405 0.0 0.0 0.0 0.0
2.136 -0.7954121232032776 -0.2511613070964813 0.028804928064346313 -0.003357495181262493 0.0 0.0 0.0 0.0
2.137 -0.798357367515564 -0.2446659356355667 0.028683526441454887 -0.0043487027287483215 0.0 0.0 0.0 0.0
2.138 -0.7986552119255066 -0.2424396574497223 0.028631383553147316 -0.00508398562669754 0.0 0.0 0.0 0.0
2.139 -0.7995155453681946 -0.2426525205373764 0.028481125831604004 -0.005782443098723888 0.0 0.0 0.0 0.0
2.14 -0.7992272973060608 -0.23987574875354767 0.02831563539803028 -0.006732581183314323 0.0 0.0 0.0 0.0
2.141 -0.8001013398170471 -0.2380146086215973 0.028122607618570328 -0.007572917267680168 0.0 0.0 0.0 0.0
2.142 -0.8019978404045105 -0.23494641482830048 0.028041644021868706 -0.008417255245149136 0.0 0.0 0.0 0.0
2.143 -0.8021685481071472 -0.23528386652469635 0.0278756245970726 -0.009165074676275253 0.0 0.0 0.0 0.0
2.144 -0.8023703694343567 -0.23251275718212128 0.027715951204299927 -0.00990044604986906 0.0 0.0 0.0 0.0
2.145 -0.8032463192939758 -0.22996725142002106 0.027307527139782906 -0.010786748491227627 0.0 0.0 0.0 0.0
2.146 -0.8047742247581482 -0.22597424685955048 0.027134785428643227 -0.011708652600646019 0.0 0.0 0.0 0.0
2.147 -0.8049440979957581 -0.22621221840381622 0.026890192180871964 -0.012422824278473854 0.0 0.0 0.0 0.0
2.148 -0.805696427822113 -0.22140255570411682 0.02636154182255268 -0.013327577151358128 0.0 0.0 0.0 0.0
2.149 -0.8063352704048157 -0.21934640407562256 0.026084939017891884 -0.01442683394998312 0.0 0.0 0.0 0.0
2.15 -0.8075485825538635 -0.21903328597545624 0.025674376636743546 -0.015438184142112732 0.0 0.0 0.0 0.0
2.151 -0.8077405691146851 -0.21926218271255493 0.025163931772112846 -0.016385570168495178 0.0 0.0 0.0 0.0
2.152 -0.8081197738647461 -0.21535877883434296 0.024576904252171516 -0.01733197458088398 0.0 0.0 0.0 0.0
2.153 -0.8086142539978027 -0.21472078561782837 0.024143964052200317 -0.018281346186995506 0.0 0.0 0.0 0.0
2.154 -0.8091318011283875 -0.2126452475786209 0.023449022322893143 -0.019206946715712547 0.0 0.0 0.0 0.0
2.155 -0.8093283772468567 -0.2114042490720749 0.022784294560551643 -0.020139846950769424 0.0 0.0 0.0 0.0
2.156 -0.8113209009170532 -0.20465250313282013 0.022023674100637436 -0.021144431084394455 0.0 0.0 0.0 0.0
2.157 -0.8117750287055969 -0.20461519062519073 0.02127630077302456 -0.021977176889777184 0.0 0.0 0.0 0.0
2.158 -0.8131001591682434 -0.20364607870578766 0.02033054642379284 -0.022960498929023743 0.0 0.0 0.0 0.0
2.159 -0.8115760087966919 -0.20400063693523407 0.019626962020993233 -0.02369742840528488 0.0 0.0 0.0 0.0
2.16 -0.812878429889679 -0.19935853779315948 0.018699107691645622 -0.02466440200805664 0.0 0.0 0.0 0.0
2.161 -0.8143216967582703 -0.1974882185459137 0.017675600945949554 -0.025351712480187416 0.0 0.0 0.0 0.0
2.162 -0.8140430450439453 -0.1965942084789276 0.016698086634278297 -0.026114819571375847 0.0 0.0 0.0 0.0
2.163 -0.8156545758247375 -0.19228370487689972 0.015652596950531006 -0.02682359889149666 0.0 0.0 0.0 0.0
2.164 -0.8163731098175049 -0.1897592842578888 0.014668435789644718 -0.02753007411956787 0.0 0.0 0.0 0.0
2.165 -0.8163810968399048 -0.19027383625507355 0.013590211048722267 -0.028076954185962677 0.0 0.0 0.0 0.0
2.166 -0.8175984025001526 -0.18629875779151917 0.012522673234343529 -0.028615275397896767 0.0 0.0 0.0 0.0
2.167 -0.8188562989234924 -0.1846444457769394 0.01148361898958683 -0.029130185022950172 0.0 0.0 0.0 0.0
2.168 -0.8188316822052002 -0.18075750768184662 0.010254666209220886 -0.02966824173927307 0.0 0.0 0.0 0.0
2.169 -0.8185579776763916 -0.1822204887866974 0.009121649898588657 -0.030066346749663353 0.0 0.0 0.0 0.0
2.17 -0.8201169371604919 -0.17724855244159698 0.008022666908800602 -0.03043881617486477 0.0 0.0 0.0 0.0
2.171 -0.8208025693893433 -0.17656680941581726 0.006958825513720512 -0.030732914805412292 0.0 0.0 0.0 0.0
2.172 -0.8204073309898376 -0.1777067333459854 0.00572657585144043 -0.031257472932338715 0.0 0.0 0.0 0.0
2.173 -0.8211071491241455 -0.17255204916000366 0.004555683583021164 -0.0312381312251091 0.0 0.0 0.0 0.0
2.174 -0.8214874863624573 -0.17078155279159546 0.0034876251593232155 -0.031443603336811066 0.0 0.0 0.0 0.0
2.175 -0.8221509456634521 -0.17132125794887543 0.0023932652547955513 -0.03159298747777939 0.0 0.0 0.0 0.0
2.176 -0.8231319785118103 -0.1653680056333542 0.0010842503979802132 -0.03165556117892265 0.0 0.0 0.0 0.0
2.177 -0.8238579630851746 -0.164263516664505 4.232767969369888e-05 -0.03175605833530426 0.0 0.0 0.0 0.0
2.178 -0.8243467807769775 -0.16140933334827423 -0.0009863898158073425 -0.03181859850883484 0.0 0.0 0.0 0.0
2.179 -0.8242409229278564 -0.1605096459388733 -0.0021235663443803787 -0.0317591093480587 0.0 0.0 0.0 0.0
2.18 -0.8245538473129272 -0.15797820687294006 -0.0032542776316404343 -0.031642597168684006 0.0 0.0 0.0 0.0
2.181 -0.8261491060256958 -0.1564272940158844 -0.00431990809738636 -0.03162700682878494 0.0 0.0 0.0 0.0
2.182 -0.826707661151886 -0.1542685180902481 -0.005533014424145222 -0.03139912337064743 0.0 0.0 0.0 0.0
2.183 -0.8262075185775757 -0.15405020117759705 -0.006507741287350655 -0.03125942498445511 0.0 0.0 0.0 0.0
2.184 -0.8273380994796753 -0.14772509038448334 -0.007628593593835831 -0.031027570366859436 0.0 0.0 0.0 0.0
2.185 -0.8281913995742798 -0.14741966128349304 -0.008758786134421825 -0.0308491550385952 0.0 0.0 0.0 0.0
2.186 -0.8278524875640869 -0.14663007855415344 -0.00972031895071268 -0.030524184927344322 0.0 0.0 0.0 0.0
2.187 -0.8286042809486389 -0.14387336373329163 -0.010794848203659058 -0.030285196378827095 0.0 0.0 0.0 0.0
2.188 -0.8293941020965576 -0.14151453971862793 -0.011799102649092674 -0.029905380681157112 0.0 0.0 0.0 0.0
2.189 -0.8294599652290344 -0.14123450219631195 -0.012826832011342049 -0.029523387551307678 0.0 0.0 0.0 0.0
2.19 -0.8302158117294312 -0.13832683861255646 -0.01385938934981823 -0.029106508940458298 0.0 0.0 0.0 0.0
2.191 -0.830902099609375 -0.13616010546684265 -0.014846918173134327 -0.028710829094052315 0.0 0.0 0.0 0.0
2.192 -0.8313364386558533 -0.13315334916114807 -0.01586795412003994 -0.028174186125397682 0.0 0.0 0.0 0.0
2.193 -0.8317985534667969 -0.13054916262626648 -0.016922639682888985 -0.02763332799077034 0.0 0.0 0.0 0.0
2.194 -0.8320334553718567 -0.12894752621650696 -0.017775747925043106 -0.02711774781346321 0.0 0.0 0.0 0.0
2.195 -0.8332709074020386 -0.1254681944847107 -0.018696483224630356 -0.026599058881402016 0.0 0.0 0.0 0.0
2.196 -0.8334981799125671 -0.12627725303173065 -0.019688716158270836 -0.025988511741161346 0.0 0.0 0.0 0.0
2.197 -0.8338819742202759 -0.12329337745904922 -0.020615078508853912 -0.025321276858448982 0.0 0.0 0.0 0.0
2.198 -0.8340027332305908 -0.1199318915605545 -0.021407553926110268 -0.024645447731018066 0.0 0.0 0.0 0.0
2.199 -0.8347769975662231 -0.11882513016462326 -0.022239292040467262 -0.024045411497354507 0.0 0.0 0.0 0.0
2.2 -0.8348684310913086 -0.11628704518079758 -0.023109938949346542 -0.023318756371736526 0.0 0.0 0.0 0.0
2.201 -0.8342494964599609 -0.1190788596868515 -0.023783845826983452 -0.022652851417660713 0.0 0.0 0.0 0.0
2.202 -0.8362973928451538 -0.10898301005363464 -0.02475482039153576 -0.021782003343105316 0.0 0.0 0.0 0.0
2.203 -0.8363356590270996 -0.1089223325252533 -0.0254939217120409 -0.020984431728720665 0.0 0.0 0.0 0.0
2.204 -0.8360015153884888 -0.10905972123146057 -0.0262066051363945 -0.02023664489388466 0.0 0.0 0.0 0.0
2.205 -0.8362321853637695 -0.1082964688539505 -0.02685609646141529 -0.019483579322695732 0.0 0.0 0.0 0.0
2.206 -0.8375649452209473 -0.10101459920406342 -0.027639664709568024 -0.018355021253228188 0.0 0.0 0.0 0.0
2.207 -0.8372963070869446 -0.10347050428390503 -0.0282956063747406 -0.01764533855021 0.0 0.0 0.0 0.0
2.208 -0.8382183313369751 -0.09763509035110474 -0.0290655680000782 -0.016485948115587234 0.0 0.0 0.0 0.0
2.209 -0.8385769724845886 -0.09655731171369553 -0.029628386721014977 -0.0156516395509243 0.0 0.0 0.0 0.0
2.21 -0.8387194871902466 -0.096829354763031 -0.030174871906638145 -0.014699146151542664 0.0 0.0 0.0 0.0
2.211 -0.8387250304222107 -0.09476549178361893 -0.030725974589586258 -0.013610017485916615 0.0 0.0 0.0 0.0
2.212 -0.8394159078598022 -0.09060239046812057 -0.03134165331721306 -0.012698106467723846 0.0 0.0 0.0 0.0
2.213 -0.8404185771942139 -0.0871746689081192 -0.03178611397743225 -0.011561441235244274 0.0 0.0 0.0 0.0
2.214 -0.8394234776496887 -0.08805005997419357 -0.0322079136967659 -0.010547653771936893 0.0 0.0 0.0 0.0
2.215 -0.8406524062156677 -0.08331210911273956 -0.032737717032432556 -0.009440647438168526 0.0 0.0 0.0 0.0
2.216 -0.8409393429756165 -0.08031054586172104 -0.0331282764673233 -0.00829786155372858 0.0 0.0 0.0 0.0
2.217 -0.8409855365753174 -0.08120676875114441 -0.03344840183854103 -0.007265644147992134 0.0 0.0 0.0 0.0
2.218 -0.8407276272773743 -0.07769378274679184 -0.03385275602340698 -0.0060449568554759026 0.0 0.0 0.0 0.0
2.219 -0.8417018055915833 -0.07476501166820526 -0.034136414527893066 -0.00494071189314127 0.0 0.0 0.0 0.0
2.22 -0.8420812487602234 -0.07534382492303848 -0.034441784024238586 -0.003801736980676651 0.0 0.0 0.0 0.0
2.221 -0.842032253742218 -0.07045768946409225 -0.03465038537979126 -0.0024904655292630196 0.0 0.0 0.0 0.0
2.222 -0.8417118191719055 -0.07212941348552704 -0.03482070937752724 -0.0014216545969247818 0.0 0.0 0.0 0.0
2.223 -0.8429704308509827 -0.062466904520988464 -0.03497638925909996 -1.1188909411430359e-05 0.0 0.0 0.0 0.0
2.224 -0.8429797291755676 -0.0665399581193924 -0.03506610915064812 0.001097322441637516 0.0 0.0 0.0 0.0
2.225 -0.8430643081665039 -0.06288459897041321 -0.035151634365320206 0.0024917256087064743 0.0 0.0 0.0 0.0
2.226 -0.8434582948684692 -0.0606573149561882 -0.03515315800905228 0.0036181947216391563 0.0 0.0 0.0 0.0
2.227 -0.8441926836967468 -0.05903398245573044 -0.03512681648135185 0.004926879890263081 0.0 0.0 0.0 0.0
2.228 -0.8436270356178284 -0.05883602052927017 -0.035028692334890366 0.006235308945178986 0.0 0.0 0.0 0.0
2.229 -0.8442108631134033 -0.05137388035655022 -0.03491433709859848 0.007658056914806366 0.0 0.0 0.0 0.0
2.23 -0.8443089127540588 -0.05464823916554451 -0.03477766364812851 0.00869018491357565 0.0 0.0 0.0 0.0
2.231 -0.844575047492981 -0.051114026457071304 -0.03445596620440483 0.010148021392524242 0.0 0.0 0.0 0.0
2.232 -0.8444338440895081 -0.04974209889769554 -0.0341060645878315 0.011400637216866016 0.0 0.0 0.0 0.0
2.233 -0.8449008464813232 -0.04503129795193672 -0.03378184884786606 0.01282983087003231 0.0 0.0 0.0 0.0
2.234 -0.8455390930175781 -0.045456886291503906 -0.03345314785838127 0.01393086463212967 0.0 0.0 0.0 0.0
2.235 -0.8454057574272156 -0.04218719154596329 -0.03295619413256645 0.015267428942024708 0.0 0.0 0.0 0.0
2.236 -0.8452836275100708 -0.03996043652296066 -0.032417602837085724 0.016550442203879356 0.0 0.0 0.0 0.0
2.237 -0.8456489443778992 -0.037382178008556366 -0.031807880848646164 0.017847439274191856 0.0 0.0 0.0 0.0
2.238 -0.8457874655723572 -0.034024640917778015 -0.031179510056972504 0.019061503931879997 0.0 0.0 0.0 0.0
2.239 -0.8460443019866943 -0.034679196774959564 -0.030488714575767517 0.020094413310289383 0.0 0.0 0.0 0.0
2.24 -0.8458055853843689 -0.03248804062604904 -0.029690459370613098 0.021365471184253693 0.0 0.0 0.0 0.0
2.241 -0.8465605974197388 -0.029159652069211006 -0.028948144987225533 0.02251327410340309 0.0 0.0 0.0 0.0
2.242 -0.8467419147491455 -0.028465844690799713 -0.027964280918240547 0.02365504577755928 0.0 0.0 0.0 0.0
2.243 -0.8464598059654236 -0.025332415476441383 -0.027064811438322067 0.024719687178730965 0.0 0.0 0.0 0.0
2.244 -0.8466450572013855 -0.022846460342407227 -0.026089120656251907 0.02582334540784359 0.0 0.0 0.0 0.0
2.245 -0.8469191789627075 -0.021061360836029053 -0.02518797293305397 0.026620682328939438 0.0 0.0 0.0 0.0
2.246 -0.8468335866928101 -0.01876843348145485 -0.024011682718992233 0.027667725458741188 0.0 0.0 0.0 0.0
2.247 -0.8472775220870972 -0.017871789634227753 -0.022933483123779297 0.02858034148812294 0.0 0.0 0.0 0.0
2.248 -0.8476808071136475 -0.011990265920758247 -0.021724067628383636 0.029448015615344048 0.0 0.0 0.0 0.0
2.249 -0.8474211692810059 -0.013450774364173412 -0.020617742091417313 0.030138708651065826 0.0 0.0 0.0 0.0
2.25 -0.8474718332290649 -0.012685361318290234 -0.019464123994112015 0.030864879488945007 0.0 0.0 0.0 0.0
2.251 -0.8479747772216797 -0.0069511886686086655 -0.018099188804626465 0.031644418835639954 0.0 0.0 0.0 0.0
2.252 -0.8482223153114319 -0.0073232501745224 -0.01694212108850479 0.03209924325346947 0.0 0.0 0.0 0.0
2.253 -0.847762942314148 -0.005207802169024944 -0.015528584830462933 0.032751940190792084 0.0 0.0 0.0 0.0
2.254 -0.8478948473930359 -0.001802622340619564 -0.014328661374747753 0.033108413219451904 0.0 0.0 0.0 0.0
2.255 -0.8480068445205688 4.5821070671081543e-07 -0.013080560602247715 0.03358202055096626 0.0 0.0 0.0 0.0
2.256 -0.8483592867851257 0.00040682777762413025 -0.011534660123288631 0.03402772545814514 0.0 0.0 0.0 0.0
2.257 -0.8482992053031921 0.004150900058448315 -0.010222074575722218 0.03433632105588913 0.0 0.0 0.0 0.0
2.258 -0.8487624526023865 0.005594591610133648 -0.008991006761789322 0.034554582089185715 0.0 0.0 0.0 0.0
2.259 -0.8486610651016235 0.00748311635106802 -0.007579422555863857 0.03471297025680542 0.0 0.0 0.0 0.0
2.26 -0.8484342098236084 0.008563078939914703 -0.006311967968940735 0.03486970067024231 0.0 0.0 0.0 0.0
2.261 -0.8485473394393921 0.014214472845196724 -0.004940744489431381 0.034908175468444824 0.0 0.0 0.0 0.0
2.262 -0.8492727279663086 0.015114589594304562 -0.0036517977714538574 0.03483135625720024 0.0 0.0 0.0 0.0
2.263 -0.8487575650215149 0.01470324955880642 -0.0024111373350024223 0.034740135073661804 0.0 0.0 0.0 0.0
2.264 -0.8488736748695374 0.020026663318276405 -0.0010436391457915306 0.03462250158190727 0.0 0.0 0.0 0.0
2.265 -0.8491161465644836 0.019830385223031044 -2.4421140551567078e-05 0.03440131992101669 0.0 0.0 0.0 0.0
2.266 -0.8492689728736877 0.02299942634999752 0.0014067478477954865 0.034153055399656296 0.0 0.0 0.0 0.0
2.267 -0.8487793803215027 0.027152592316269875 0.0026167510077357292 0.03391127288341522 0.0 0.0 0.0 0.0
2.268 -0.849057674407959 0.028468085452914238 0.0035364795476198196 0.03369435667991638 0.0 0.0 0.0 0.0
2.269 -0.849251925945282 0.026407776400446892 0.004677156917750835 0.033133331686258316 0.0 0.0 0.0 0.0
2.27 -0.8489429354667664 0.029118049889802933 0.005803268402814865 0.03277004137635231 0.0 0.0 0.0 0.0
2.271 -0.8487070798873901 0.03654039278626442 0.007073813118040562 0.03227895125746727 0.0 0.0 0.0 0.0
2.272 -0.8490450978279114 0.03466784209012985 0.00802193209528923 0.03180047497153282 0.0 0.0 0.0 0.0
2.273 -0.848882794380188 0.035247478634119034 0.008872035890817642 0.03142298385500908 0.0 0.0 0.0 0.0
2.274 -0.848562479019165 0.041763775050640106 0.009955539368093014 0.030854681506752968 0.0 0.0 0.0 0.0
2.275 -0.8490249514579773 0.04084506630897522 0.010861569084227085 0.030326100066304207 0.0 0.0 0.0 0.0
2.276 -0.8489188551902771 0.03996751829981804 0.011777037754654884 0.02985403873026371 0.0 0.0 0.0 0.0
2.277 -0.8489527702331543 0.04633086174726486 0.01283545047044754 0.029244299978017807 0.0 0.0 0.0 0.0
2.278 -0.8490502834320068 0.045278601348400116 0.013604619540274143 0.028760185465216637 0.0 0.0 0.0 0.0
2.279 -0.8487116098403931 0.048997361212968826 0.014739733189344406 0.028074493631720543 0.0 0.0 0.0 0.0
2.28 -0.8482663631439209 0.05167664214968681 0.015620067715644836 0.027598077431321144 0.0 0.0 0.0 0.0
2.281 -0.8486692905426025 0.05500178039073944 0.016374776139855385 0.02687043324112892 0.0 0.0 0.0 0.0
2.282 -0.8487144708633423 0.05733296647667885 0.017233075574040413 0.026217276230454445 0.0 0.0 0.0 0.0
2.283 -0.8484354019165039 0.05680963769555092 0.018022222444415092 0.025547334924340248 0.0 0.0 0.0 0.0
2.284 -0.8485569953918457 0.05954807996749878 0.01884496584534645 0.02481088601052761 0.0 0.0 0.0 0.0
2.285 -0.8485143780708313 0.06447753310203552 0.019595671445131302 0.02411816082894802 0.0 0.0 0.0 0.0
2.286 -0.8484771847724915 0.06326354295015335 0.020280316472053528 0.023369664326310158 0.0 0.0 0.0 0.0
2.287 -0.8481958508491516 0.06470511108636856 0.02107824757695198 0.022569581866264343 0.0 0.0 0.0 0.0
2.288 -0.8481490015983582 0.07043204456567764 0.021702520549297333 0.02188854105770588 0.0 0.0 0.0 0.0
2.289 -0.8480404019355774 0.06838937103748322 0.022241882979869843 0.021119937300682068 0.0 0.0 0.0 0.0
2.29 -0.8479105234146118 0.07076310366392136 0.022830644622445107 0.02027459256350994 0.0 0.0 0.0 0.0
2.291 -0.847690761089325 0.07471141219139099 0.02346714399755001 0.019462911412119865 0.0 0.0 0.0 0.0
2.292 -0.8471694588661194 0.07831361144781113 0.02409304678440094 0.01858104020357132 0.0 0.0 0.0 0.0
2.293 -0.8473401069641113 0.07322422415018082 0.024443158879876137 0.017945919185876846 0.0 0.0 0.0 0.0
2.294 -0.8466858863830566 0.08213132619857788 0.02500336989760399 0.016958313062787056 0.0 0.0 0.0 0.0
2.295 -0.8471527695655823 0.08235505223274231 0.025406500324606895 0.016206109896302223 0.0 0.0 0.0 0.0
2.296 -0.8467609882354736 0.08319931477308273 0.02583146281540394 0.015304464846849442 0.0 0.0 0.0 0.0
2.297 -0.8463510870933533 0.089183509349823 0.026339203119277954 0.0142592778429389 0.0 0.0 0.0 0.0
2.298 -0.8470435738563538 0.0881127193570137 0.02655082941055298 0.013668856583535671 0.0 0.0 0.0 0.0
2.299 -0.8467832803726196 0.08772803843021393 0.026966219767928123 0.01272674836218357 0.0 0.0 0.0 0.0
2.3 -0.8456443548202515 0.09313833713531494 0.027357837185263634 0.011733122169971466 0.0 0.0 0.0 0.0
2.301 -0.8457972407341003 0.09583032131195068 0.027650119736790657 0.010871421545743942 0.0 0.0 0.0 0.0
2.302 -0.8451257348060608 0.09904766082763672 0.0279777180403471 0.009900851175189018 0.0 0.0 0.0 0.0
2.303 -0.8457650542259216 0.09662032127380371 0.028197230771183968 0.00906926579773426 0.0 0.0 0.0 0.0
2.304 -0.8451219201087952 0.10217799991369247 0.028458906337618828 0.008050495758652687 0.0 0.0 0.0 0.0
2.305 -0.8456286787986755 0.10068655014038086 0.02859869971871376 0.007376331835985184 0.0 0.0 0.0 0.0
2.306 -0.8446347713470459 0.10404998064041138 0.028860993683338165 0.006261575035750866 0.0 0.0 0.0 0.0
2.307 -0.8445079326629639 0.10505382716655731 0.029030878096818924 0.005263439379632473 0.0 0.0 0.0 0.0
2.308 -0.8442043662071228 0.10997706651687622 0.029200036078691483 0.004298831336200237 0.0 0.0 0.0 0.0
2.309 -0.8448357582092285 0.10781882703304291 0.029252177104353905 0.003383968025445938 0.0 0.0 0.0 0.0
2.31 -0.8436803221702576 0.11130905151367188 0.029305974021553993 0.002319246530532837 0.0 0.0 0.0 0.0
2.311 -0.8434454798698425 0.11456739157438278 0.029372934252023697 0.001423470675945282 0.0 0.0 0.0 0.0
2.312 -0.8436985015869141 0.11750122159719467 0.02940996363759041 0.00042693037539720535 0.0 0.0 0.0 0.0
2.313 -0.8434193730354309 0.11770104616880417 0.02934005670249462 -0.0005557099357247353 0.0 0.0 0.0 0.0
2.314 -0.8426295518875122 0.12148284167051315 0.029314223676919937 -0.0015797456726431847 0.0 0.0 0.0 0.0
2.315 -0.8426023721694946 0.12472762912511826 0.02925252355635166 -0.0025236140936613083 0.0 0.0 0.0 0.0
2.316 -0.8429404497146606 0.12531554698944092 0.029121894389390945 -0.003601514734327793 0.0 0.0 0.0 0.0
2.317 -0.8417888879776001 0.12474348396062851 0.02893713302910328 -0.004457053728401661 0.0 0.0 0.0 0.0
2.318 -0.8414870500564575 0.12713570892810822 0.028779752552509308 -0.005414443090558052 0.0 0.0 0.0 0.0
2.319 -0.8410089612007141 0.1313958466053009 0.028563877567648888 -0.006483494304120541 0.0 0.0 0.0 0.0
2.32 -0.8414580821990967 0.13048872351646423 0.02832530066370964 -0.007321394048631191 0.0 0.0 0.0 0.0
2.321 -0.8406529426574707 0.1341748982667923 0.02802281454205513 -0.008298096247017384 0.0 0.0 0.0 0.0
2.322 -0.8404899835586548 0.13761264085769653 0.02769491635262966 -0.00927805807441473 0.0 0.0 0.0 0.0
2.323 -0.840628981590271 0.13793429732322693 0.027411816641688347 -0.010128216817975044 0.0 0.0 0.0 0.0
2.324 -0.840050220489502 0.13941502571105957 0.02697119116783142 -0.011070413514971733 0.0 0.0 0.0 0.0
2.325 -0.8396949172019958 0.13937780261039734 0.026592418551445007 -0.011891794390976429 0.0 0.0 0.0 0.0
2.326 -0.8390970230102539 0.14663155376911163 0.026107508689165115 -0.012865984812378883 0.0 0.0 0.0 0.0
2.327 -0.839584231376648 0.14083518087863922 0.025709519162774086 -0.013516057282686234 0.0 0.0 0.0 0.0
2.328 -0.8376075029373169 0.1518286168575287 0.02508675679564476 -0.014647376723587513 0.0 0.0 0.0 0.0
2.329 -0.8370445966720581 0.1517815738916397 0.024527182802557945 -0.015301230363547802 0.0 0.0 0.0 0.0
2.33 -0.8383888006210327 0.14926031231880188 0.02405211329460144 -0.015962976962327957 0.0 0.0 0.0 0.0
2.331 -0.836868941783905 0.15247610211372375 0.02345101162791252 -0.016741493716835976 0.0 0.0 0.0 0.0
2.332 -0.8369742035865784 0.15493102371692657 0.022898036986589432 -0.01746518351137638 0.0 0.0 0.0 0.0
2.333 -0.8370873332023621 0.1579722911119461 0.022299690172076225 -0.018138116225600243 0.0 0.0 0.0 0.0
2.334 -0.8368173241615295 0.15746615827083588 0.021649492904543877 -0.018704580143094063 0.0 0.0 0.0 0.0
2.335 -0.8359692692756653 0.16009847819805145 0.020946264266967773 -0.01939656026661396 0.0 0.0 0.0 0.0
2.336 -0.835274338722229 0.16310466825962067 0.02027399092912674 -0.01998622715473175 0.0 0.0 0.0 0.0
2.337 -0.8351743817329407 0.16647616028785706 0.019618600606918335 -0.0205721203237772 0.0 0.0 0.0 0.0
2.338 -0.8358030915260315 0.16311095654964447 0.01903214491903782 -0.02107243426144123 0.0 0.0 0.0 0.0
2.339 -0.834160566329956 0.16906234622001648 0.018107663840055466 -0.021691666916012764 0.0 0.0 0.0 0.0
2.34 -0.8347269296646118 0.16991157829761505 0.017603006213903427 -0.02201969362795353 0.0 0.0 0.0 0.0
2.341 -0.8335703015327454 0.1708383709192276 0.016811445355415344 -0.022496072575449944 0.0 0.0 0.0 0.0
2.342 -0.832542359828949 0.17406144738197327 0.01603573188185692 -0.022998889908194542 0.0 0.0 0.0 0.0
2.343 -0.8327952027320862 0.17602427303791046 0.015399064868688583 -0.023340722545981407 0.0 0.0 0.0 0.0
2.344 -0.8322797417640686 0.17815838754177094 0.014692696742713451 -0.02372884191572666 0.0 0.0 0.0 0.0
2.345 -0.8321842551231384 0.17803360521793365 0.013979621231555939 -0.024049852043390274 0.0 0.0 0.0 0.0
2.346 -0.8315261006355286 0.18158692121505737 0.013149668462574482 -0.024455398321151733 0.0 0.0 0.0 0.0
2.347 -0.8313158750534058 0.18140776455402374 0.01241674181073904 -0.02469385229051113 0.0 0.0 0.0 0.0
2.348 -0.8314437866210938 0.18347707390785217 0.011829151771962643 -0.02495618164539337 0.0 0.0 0.0 0.0
2.349 -0.830638587474823 0.18353354930877686 0.011177608743309975 -0.02510843612253666 0.0 0.0 0.0 0.0
2.35 -0.829541802406311 0.18878056108951569 0.010397301986813545 -0.025457821786403656 0.0 0.0 0.0 0.0
2.351 -0.8291664719581604 0.19230587780475616 0.009709560312330723 -0.025622930377721786 0.0 0.0 0.0 0.0
2.352 -0.8301271796226501 0.19046878814697266 0.00912518985569477 -0.025804677978157997 0.0 0.0 0.0 0.0
2.353 -0.8284123539924622 0.19284866750240326 0.00846575852483511 -0.025890791788697243 0.0 0.0 0.0 0.0
2.354 -0.8278700709342957 0.19640983641147614 0.007828655652701855 -0.02602272666990757 0.0 0.0 0.0 0.0
2.355 -0.8275337815284729 0.19734400510787964 0.007285217754542828 -0.026137856766581535 0.0 0.0 0.0 0.0
2.356 -0.8264731764793396 0.1986578106880188 0.0065504414960742 -0.026273075491189957 0.0 0.0 0.0 0.0
2.357 -0.8259589672088623 0.2029092162847519 0.006032848730683327 -0.026419740170240402 0.0 0.0 0.0 0.0
2.358 -0.8261426091194153 0.20336098968982697 0.005334089510142803 -0.02653605304658413 0.0 0.0 0.0 0.0
2.359 -0.8257453441619873 0.20382526516914368 0.004685818217694759 -0.02663823775947094 0.0 0.0 0.0 0.0
2.36 -0.8243268728256226 0.2065892219543457 0.003939736634492874 -0.026716137304902077 0.0 0.0 0.0 0.0
2.361 -0.825718879699707 0.20499056577682495 0.003586716018617153 -0.026808707043528557 0.0 0.0 0.0 0.0
2.362 -0.8245406150817871 0.20858679711818695 0.0027846191078424454 -0.026885347440838814 0.0 0.0 0.0 0.0
2.363 -0.8237336874008179 0.2104519009590149 0.002061445266008377 -0.026984138414263725 0.0 0.0 0.0 0.0
2.364 -0.8217473030090332 0.21540910005569458 0.001397816464304924 -0.027147671207785606 0.0 0.0 0.0 0.0
2.365 -0.822857677936554 0.21367047727108002 0.0008816877380013466 -0.027099043130874634 0.0 0.0 0.0 0.0
2.366 -0.8229949474334717 0.215036541223526 0.0003406498581171036 -0.027164286002516747 0.0 0.0 0.0 0.0
2.367 -0.8212535381317139 0.21783162653446198 -0.00035649724304676056 -0.02720719575881958 0.0 0.0 0.0 0.0
2.368 -0.8208069205284119 0.21963803470134735 -0.0010053841397166252 -0.02725803479552269 0.0 0.0 0.0 0.0
2.369 -0.8202987313270569 0.22261923551559448 -0.001718747429549694 -0.027302449569106102 0.0 0.0 0.0 0.0
2.37 -0.8201138973236084 0.2224750518798828 -0.002451659180223942 -0.02728220820426941 0.0 0.0 0.0 0.0
2.371 -0.8185672163963318 0.2255631536245346 -0.003297836519777775 -0.027224717661738396 0.0 0.0 0.0 0.0
2.372 -0.8182664513587952 0.22761684656143188 -0.0040297675877809525 -0.02715822495520115 0.0 0.0 0.0 0.0
2.373 -0.8177880644798279 0.23268337547779083 -0.004854509606957436 -0.027097923681139946 0.0 0.0 0.0 0.0
2.374 -0.8171303868293762 0.22982949018478394 -0.005637562833726406 -0.02703728713095188 0.0 0.0 0.0 0.0
2.375 -0.816774845123291 0.23401354253292084 -0.006493592634797096 -0.026861853897571564 0.0 0.0 0.0 0.0
2.376 -0.8175458312034607 0.2342299222946167 -0.007201588712632656 -0.026730991899967194 0.0 0.0 0.0 0.0
2.377 -0.8165299296379089 0.23466363549232483 -0.008038072846829891 -0.026567215099930763 0.0 0.0 0.0 0.0
2.378 -0.8151150345802307 0.23541659116744995 -0.008978932164609432 -0.026360252872109413 0.0 0.0 0.0 0.0
2.379 -0.8156526684761047 0.23765157163143158 -0.009624968282878399 -0.026201564818620682 0.0 0.0 0.0 0.0
2.38 -0.8143107891082764 0.2399614155292511 -0.010554648004472256 -0.025904260575771332 0.0 0.0 0.0 0.0
2.381 -0.8142204880714417 0.23924650251865387 -0.011240321211516857 -0.025695109739899635 0.0 0.0 0.0 0.0
2.382 -0.8126242756843567 0.2457568645477295 -0.012154286727309227 -0.025414831936359406 0.0 0.0 0.0 0.0
2.383 -0.8123894929885864 0.24666740000247955 -0.013063011690974236 -0.025008872151374817 0.0 0.0 0.0 0.0
2.384 -0.8132144808769226 0.24336707592010498 -0.013697621412575245 -0.02477382682263851 0.0 0.0 0.0 0.0
2.385 -0.8105666637420654 0.25108882784843445 -0.014704114757478237 -0.024309169501066208 0.0 0.0 0.0 0.0
2.386 -0.8117405772209167 0.24636393785476685 -0.015311667695641518 -0.024016233161091805 0.0 0.0 0.0 0.0
2.387 -0.8106891512870789 0.24966485798358917 -0.01620425283908844 -0.023520732298493385 0.0 0.0 0.0 0.0
2.388 -0.8100379109382629 0.25144845247268677 -0.01697106473147869 -0.0229877270758152 0.0 0.0 0.0 0.0
2.389 -0.8088867664337158 0.2553670108318329 -0.017795506864786148 -0.022748585790395737 0.0 0.0 0.0 0.0
2.39 -0.8088230490684509 0.2537296414375305 -0.01852445863187313 -0.02218439243733883 0.0 0.0 0.0 0.0
2.391 -0.8079138398170471 0.25615939497947693 -0.01931038126349449 -0.02169245295226574 0.0 0.0 0.0 0.0
2.392 -0.8072616457939148 0.2605166733264923 -0.020093778148293495 -0.021207081153988838 0.0 0.0 0.0 0.0
2.393 -0.8067317605018616 0.26139262318611145 -0.020814871415495872 -0.02064668945968151 0.0 0.0 0.0 0.0
2.394 -0.8056076169013977 0.2611595392227173 -0.021605851128697395 -0.020063232630491257 0.0 0.0 0.0 0.0
2.395 -0.8051452040672302 0.2639290690422058 -0.022331899031996727 -0.019562238827347755 0.0 0.0 0.0 0.0
2.396 -0.8048127889633179 0.2657305598258972 -0.023055868223309517 -0.018963629379868507 0.0 0.0 0.0 0.0
2.397 -0.8046907782554626 0.26468268036842346 -0.023740118369460106 -0.018371600657701492 0.0 0.0 0.0 0.0
2.398 -0.804225504398346 0.26680994033813477 -0.024483755230903625 -0.017745036631822586 0.0 0.0 0.0 0.0
2.399 -0.8029212355613708 0.27086251974105835 -0.02517351135611534 -0.017040712758898735 0.0 0.0 0.0 0.0
2.4 -0.8016985058784485 0.2750096023082733 -0.02585536055266857 -0.01633649878203869 0.0 0.0 0.0 0.0
2.401 -0.8018997311592102 0.2711745500564575 -0.026585286483168602 -0.015628119930624962 0.0 0.0 0.0 0.0
2.402 -0.8005369305610657 0.27513521909713745 -0.027279334142804146 -0.014908479526638985 0.0 0.0 0.0 0.0
2.403 -0.8009727597236633 0.2754238545894623 -0.027928529307246208 -0.014424591325223446 0.0 0.0 0.0 0.0
2.404 -0.8000897765159607 0.27488619089126587 -0.028661927208304405 -0.01384949404746294 0.0 0.0 0.0 0.0
2.405 -0.7989052534103394 0.27865883708000183 -0.029420584440231323 -0.013159948401153088 0.0 0.0 0.0 0.0
2.406 -0.7989606261253357 0.28083130717277527 -0.030020764097571373 -0.01250511221587658 0.0 0.0 0.0 0.0
2.407 -0.798477053642273 0.28056633472442627 -0.030679989606142044 -0.01163660641759634 0.0 0.0 0.0 0.0
2.408 -0.7964843511581421 0.28364840149879456 -0.03136080875992775 -0.01057320088148117 0.0 0.0 0.0 0.0
2.409 -0.7969653010368347 0.2832031548023224 -0.03191428631544113 -0.009751753881573677 0.0 0.0 0.0 0.0
2.41 -0.7953332662582397 0.287975937128067 -0.032452549785375595 -0.008501947857439518 0.0 0.0 0.0 0.0
2.411 -0.7964304685592651 0.2843746840953827 -0.032955460250377655 -0.00744312908500433 0.0 0.0 0.0 0.0
2.412 -0.7951801419258118 0.2878974974155426 -0.03335151821374893 -0.006385731510818005 0.0 0.0 0.0 0.0
2.413 -0.793318510055542 0.2916032373905182 -0.03375685214996338 -0.0050013987347483635 0.0 0.0 0.0 0.0
2.414 -0.7936105132102966 0.2915826737880707 -0.03405743092298508 -0.003681311383843422 0.0 0.0 0.0 0.0
2.415 -0.7922640442848206 0.2930312156677246 -0.034291770309209824 -0.0023048659786581993 0.0 0.0 0.0 0.0
2.416 -0.7913927435874939 0.2948961555957794 -0.03449157625436783 -0.0011307792738080025 0.0 0.0 0.0 0.0
2.417 -0.7921561598777771 0.29410457611083984 -0.034634217619895935 0.0002535758540034294 0.0 0.0 0.0 0.0
2.418 -0.7920281291007996 0.2943469285964966 -0.03468023240566254 0.0016296952962875366 0.0 0.0 0.0 0.0
2.419 -0.7899513244628906 0.2979764938354492 -0.03474011272192001 0.003120703622698784 0.0 0.0 0.0 0.0
2.42 -0.7893707156181335 0.3002229630947113 -0.03463888168334961 0.004422970116138458 0.0 0.0 0.0 0.0
2.421 -0.789734423160553 0.29922589659690857 -0.0344778336584568 0.005832004360854626 0.0 0.0 0.0 0.0
2.422 -0.7884716391563416 0.30095794796943665 -0.03424353152513504 0.007343200035393238 0.0 0.0 0.0 0.0
2.423 -0.7865315675735474 0.3052091598510742 -0.03397871181368828 0.008725262247025967 0.0 0.0 0.0 0.0
2.424 -0.7884587645530701 0.30286917090415955 -0.033674877136945724 0.010029525496065617 0.0 0.0 0.0 0.0
2.425 -0.7865521907806396 0.30481424927711487 -0.033203814178705215 0.011437296867370605 0.0 0.0 0.0 0.0
2.426 -0.7843849658966064 0.31048184633255005 -0.03272257000207901 0.012888913042843342 0.0 0.0 0.0 0.0
2.427 -0.7866131663322449 0.3053879141807556 -0.03224385902285576 0.013994180597364902 0.0 0.0 0.0 0.0
2.428 -0.7843441963195801 0.30893492698669434 -0.03149062767624855 0.015495621599256992 0.0 0.0 0.0 0.0
2.429 -0.7831286787986755 0.3128175437450409 -0.030812252312898636 0.016740191727876663 0.0 0.0 0.0 0.0
2.43 -0.7833927869796753 0.3138696849346161 -0.03012167103588581 0.017936330288648605 0.0 0.0 0.0 0.0
2.431 -0.7828159928321838 0.3130412995815277 -0.029314206913113594 0.019159911200404167 0.0 0.0 0.0 0.0
2.432 -0.7810475826263428 0.31649962067604065 -0.0285109281539917 0.020244337618350983 0.0 0.0 0.0 0.0
2.433 -0.7813625335693359 0.3173322379589081 -0.02759348787367344 0.021387606859207153 0.0 0.0 0.0 0.0
2.434 -0.7811760902404785 0.31575247645378113 -0.026742588728666306 0.02228614315390587 0.0 0.0 0.0 0.0
2.435 -0.7790820598602295 0.31995731592178345 -0.02560300938785076 0.023433543741703033 0.0 0.0 0.0 0.0
2.436 -0.7774642109870911 0.3204740583896637 -0.02463747002184391 0.0242180023342371 0.0 0.0 0.0 0.0
2.437 -0.7788102030754089 0.32216718792915344 -0.023639872670173645 0.025254154577851295 0.0 0.0 0.0 0.0
2.438 -0.7784636616706848 0.3220399022102356 -0.022593703120946884 0.026002397760748863 0.0 0.0 0.0 0.0
2.439 -0.7770537734031677 0.32469403743743896 -0.02149500884115696 0.02675516903400421 0.0 0.0 0.0 0.0
2.44 -0.7764915823936462 0.32549911737442017 -0.020336316898465157 0.02742083929479122 0.0 0.0 0.0 0.0
2.441 -0.7757123112678528 0.32702308893203735 -0.019122067838907242 0.02818223461508751 0.0 0.0 0.0 0.0
2.442 -0.7754951119422913 0.32654476165771484 -0.01801340840756893 0.028723210096359253 0.0 0.0 0.0 0.0
2.443 -0.7759823203086853 0.32766222953796387 -0.01699496991932392 0.02922593615949154 0.0 0.0 0.0 0.0
2.444 -0.773932158946991 0.33097222447395325 -0.01562664285302162 0.029851673170924187 0.0 0.0 0.0 0.0
2.445 -0.773786187171936 0.3310363292694092 -0.014575823210179806 0.03013344295322895 0.0 0.0 0.0 0.0
2.446 -0.7724565267562866 0.3341570794582367 -0.013227065093815327 0.030524911358952522 0.0 0.0 0.0 0.0
2.447 -0.7737069129943848 0.33033132553100586 -0.012321827001869678 0.030737677589058876 0.0 0.0 0.0 0.0
2.448 -0.7713516354560852 0.33634960651397705 -0.011065141297876835 0.031111788004636765 0.0 0.0 0.0 0.0
2.449 -0.7715103626251221 0.33638250827789307 -0.00988889392465353 0.03128167986869812 0.0 0.0 0.0 0.0
2.45 -0.7712697982788086 0.33616572618484497 -0.00876377709209919 0.03143742308020592 0.0 0.0 0.0 0.0
2.451 -0.7700395584106445 0.3375331461429596 -0.007547755725681782 0.031542498618364334 0.0 0.0 0.0 0.0
2.452 -0.769171416759491 0.3401443660259247 -0.006426247768104076 0.03169017285108566 0.0 0.0 0.0 0.0
2.453 -0.7678753733634949 0.34295594692230225 -0.005209243856370449 0.03164276108145714 0.0 0.0 0.0 0.0
2.454 -0.7682347297668457 0.34112244844436646 -0.0041687022894620895 0.03165731579065323 0.0 0.0 0.0 0.0
2.455 -0.7679523825645447 0.3413347601890564 -0.003211403265595436 0.03151074796915054 0.0 0.0 0.0 0.0
2.456 -0.7661969661712646 0.34546759724617004 -0.0020760884508490562 0.03144451975822449 0.0 0.0 0.0 0.0
2.457 -0.7671872973442078 0.3445419669151306 -0.0012008985504508018 0.031238313764333725 0.0 0.0 0.0 0.0
2.458 -0.7652071714401245 0.3465532958507538 -0.000148652121424675 0.030982879921793938 0.0 0.0 0.0 0.0
2.459 -0.7644971609115601 0.3484805226325989 0.0006769690662622452 0.030706088989973068 0.0 0.0 0.0 0.0
2.46 -0.7629271745681763 0.3484020233154297 0.0016976920887827873 0.03035665862262249 0.0 0.0 0.0 0.0
2.461 -0.7639981508255005 0.3493756353855133 0.0023979702964425087 0.030108598992228508 0.0 0.0 0.0 0.0
2.462 -0.7631747126579285 0.35107386112213135 0.003140293061733246 0.029768556356430054 0.0 0.0 0.0 0.0
2.463 -0.7624497413635254 0.3533826172351837 0.00396219827234745 0.029414262622594833 0.0 0.0 0.0 0.0
2.464 -0.7618155479431152 0.35247373580932617 0.004788519814610481 0.029039204120635986 0.0 0.0 0.0 0.0
2.465 -0.7609093189239502 0.35441672801971436 0.005547497421503067 0.028682248666882515 0.0 0.0 0.0 0.0
2.466 -0.7611778974533081 0.35530322790145874 0.006265497766435146 0.02830580249428749 0.0 0.0 0.0 0.0
2.467 -0.7607119083404541 0.3554755449295044 0.006972658447921276 0.028010709211230278 0.0 0.0 0.0 0.0
2.468 -0.7585062384605408 0.3593897521495819 0.00797258596867323 0.02766217291355133 0.0 0.0 0.0 0.0
2.469 -0.7582457065582275 0.3602046072483063 0.008636215701699257 0.027268564328551292 0.0 0.0 0.0 0.0
2.47 -0.7601218819618225 0.3579472601413727 0.009267579764127731 0.026899563148617744 0.0 0.0 0.0 0.0
2.471 -0.7575122117996216 0.3612304925918579 0.00999462604522705 0.02647034265100956 0.0 0.0 0.0 0.0
2.472 -0.7575457692146301 0.3627363443374634 0.010737891308963299 0.026051096618175507 0.0 0.0 0.0 0.0
2.473 -0.7579826712608337 0.36156681180000305 0.011456001549959183 0.0257416982203722 0.0 0.0 0.0 0.0
2.474 -0.7556013464927673 0.36516761779785156 0.01237549353390932 0.02522442117333412 0.0 0.0 0.0 0.0
2.475 -0.7530386447906494 0.36899200081825256 0.013090992346405983 0.02477206103503704 0.0 0.0 0.0 0.0
2.476 -0.7548868060112 0.36674198508262634 0.01375636924058199 0.024410681799054146 0.0 0.0 0.0 0.0
2.477 -0.7540910243988037 0.3662542998790741 0.014499601908028126 0.023885341361165047 0.0 0.0 0.0 0.0
2.478 -0.7544697523117065 0.3669981062412262 0.015165154822170734 0.02342894673347473 0.0 0.0 0.0 0.0
2.479 -0.7526388764381409 0.37088605761528015 0.015975026413798332 0.0228679571300745 0.0 0.0 0.0 0.0
2.48 -0.7498820424079895 0.37469372153282166 0.01685105822980404 0.022174455225467682 0.0 0.0 0.0 0.0
2.481 -0.7497621178627014 0.37386900186538696 0.017471235245466232 0.02174348197877407 0.0 0.0 0.0 0.0
2.482 -0.752610981464386 0.3700639605522156 0.017898734658956528 0.02134133130311966 0.0 0.0 0.0 0.0
2.483 -0.7497473359107971 0.3743082284927368 0.01874779351055622 0.0205841064453125 0.0 0.0 0.0 0.0
2.484 -0.7524333596229553 0.37321776151657104 0.019226185977458954 0.02016468718647957 0.0 0.0 0.0 0.0
2.485 -0.7479909658432007 0.3781783878803253 0.02003786899149418 0.019429342821240425 0.0 0.0 0.0 0.0
2.486 -0.7493201494216919 0.3759579658508301 0.020641157403588295 0.01885640248656273 0.0 0.0 0.0 0.0
2.487 -0.7479602098464966 0.377386212348938 0.021306684240698814 0.01813582144677639 0.0 0.0 0.0 0.0
2.488 -0.7467421889305115 0.3791959881782532 0.02192707546055317 0.01744101010262966 0.0 0.0 0.0 0.0
2.489 -0.7460527420043945 0.3810791075229645 0.022482015192508698 0.016763905063271523 0.0 0.0 0.0 0.0
2.49 -0.7466753721237183 0.37958797812461853 0.022990068420767784 0.016108747571706772 0.0 0.0 0.0 0.0
2.491 -0.7435460090637207 0.38401976227760315 0.023590369150042534 0.0152939073741436 0.0 0.0 0.0 0.0
2.492 -0.7452250123023987 0.38306179642677307 0.024022594094276428 0.014643866568803787 0.0 0.0 0.0 0.0
2.493 -0.7450252175331116 0.38203856348991394 0.024521714076399803 0.013875458389520645 0.0 0.0 0.0 0.0
2.494 -0.7438123822212219 0.3843372166156769 0.02499276213347912 0.01301067229360342 0.0 0.0 0.0 0.0
2.495 -0.741771399974823 0.3878385126590729 0.025544991716742516 0.01215474121272564 0.0 0.0 0.0 0.0
2.496 -0.7446271777153015 0.38551321625709534 0.025943642482161522 0.011338490061461926 0.0 0.0 0.0 0.0
2.497 -0.7418332099914551 0.38749539852142334 0.02645707316696644 0.010400958359241486 0.0 0.0 0.0 0.0
2.498 -0.7417989373207092 0.3880797326564789 0.026935650035738945 0.009457394480705261 0.0 0.0 0.0 0.0
2.499 -0.7396116852760315 0.3914334774017334 0.027395907789468765 0.008419071324169636 0.0 0.0 0.0 0.0
2.5 -0.7413089871406555 0.3876277208328247 0.0277782641351223 0.007510636001825333 0.0 0.0 0.0 0.0
2.501 -0.7393890023231506 0.3912682831287384 0.02810187079012394 0.006396623328328133 0.0 0.0 0.0 0.0
2.502 -0.7388104796409607 0.3938758075237274 0.02844271808862686 0.005362948402762413 0.0 0.0 0.0 0.0
2.503 -0.7381218671798706 0.3937240242958069 0.028659649193286896 0.004430084489285946 0.0 0.0 0.0 0.0
2.504 -0.7379527688026428 0.3937760293483734 0.028855860233306885 0.003239937126636505 0.0 0.0 0.0 0.0
2.505 -0.7362256050109863 0.396572083234787 0.02906431443989277 0.0021840371191501617 0.0 0.0 0.0 0.0
2.506 -0.7371708750724792 0.39620912075042725 0.02912045456469059 0.0012126686051487923 0.0 0.0 0.0 0.0
2.507 -0.7363978624343872 0.3968808948993683 0.029184626415371895 0.0002172272652387619 0.0 0.0 0.0 0.0
2.508 -0.7325466275215149 0.3983062505722046 0.029168594628572464 -0.0009610895067453384 0.0 0.0 0.0 0.0
2.509 -0.7342904210090637 0.4012335240840912 0.029155373573303223 -0.0019355686381459236 0.0 0.0 0.0 0.0
2.51 -0.7346572875976562 0.3999491333961487 0.029119746759533882 -0.0029613766819238663 0.0 0.0 0.0 0.0
2.511 -0.734062910079956 0.3993801176548004 0.028961364179849625 -0.00397338904440403 0.0 0.0 0.0 0.0
2.512 -0.7321121692657471 0.40295809507369995 0.028786759823560715 -0.0051381876692175865 0.0 0.0 0.0 0.0
2.513 -0.7318370938301086 0.4034489095211029 0.02859198860824108 -0.006191764026880264 0.0 0.0 0.0 0.0
2.514 -0.7317719459533691 0.40342289209365845 0.028341826051473618 -0.007162650115787983 0.0 0.0 0.0 0.0
2.515 -0.7316411733627319 0.4048530161380768 0.02808275632560253 -0.00815705955028534 0.0 0.0 0.0 0.0
2.516 -0.7310053706169128 0.4046988785266876 0.027706295251846313 -0.009217243641614914 0.0 0.0 0.0 0.0
2.517 -0.7307093143463135 0.40598928928375244 0.027374645695090294 -0.010196054354310036 0.0 0.0 0.0 0.0
2.518 -0.730522871017456 0.4050427973270416 0.026977965608239174 -0.011029290966689587 0.0 0.0 0.0 0.0
2.519 -0.7296132445335388 0.4084584712982178 0.026535117998719215 -0.012065013870596886 0.0 0.0 0.0 0.0
2.52 -0.7279781103134155 0.4078301191329956 0.025965193286538124 -0.01302045676857233 0.0 0.0 0.0 0.0
2.521 -0.72728031873703 0.4110288918018341 0.025465102866292 -0.014011356048285961 0.0 0.0 0.0 0.0
2.522 -0.7275219559669495 0.41093283891677856 0.024950167164206505 -0.014817983843386173 0.0 0.0 0.0 0.0
2.523 -0.7259941101074219 0.4127170145511627 0.02436106465756893 -0.01560644805431366 0.0 0.0 0.0 0.0
2.524 -0.7268514633178711 0.41187599301338196 0.023752065375447273 -0.01643049530684948 0.0 0.0 0.0 0.0
2.525 -0.7267317771911621 0.41278785467147827 0.023083258420228958 -0.017242537811398506 0.0 0.0 0.0 0.0
2.526 -0.7257106304168701 0.4140748977661133 0.022452643141150475 -0.017953861504793167 0.0 0.0 0.0 0.0
2.527 -0.7248353362083435 0.4141938388347626 0.021748105064034462 -0.018625251948833466 0.0 0.0 0.0 0.0
2.528 -0.7240591049194336 0.416623592376709 0.021063191816210747 -0.019299441948533058 0.0 0.0 0.0 0.0
2.529 -0.7247174978256226 0.4155851900577545 0.020406993106007576 -0.01984954997897148 0.0 0.0 0.0 0.0
2.53 -0.724603533744812 0.41522783041000366 0.019719909876585007 -0.020428698509931564 0.0 0.0 0.0 0.0
2.531 -0.7223204374313354 0.4193592071533203 0.018958963453769684 -0.021020909771323204 0.0 0.0 0.0 0.0
2.532 -0.7190473079681396 0.42367321252822876 0.018079089000821114 -0.02168353833258152 0.0 0.0 0.0 0.0
2.533 -0.7225920557975769 0.41911032795906067 0.01752576045691967 -0.022007200866937637 0.0 0.0 0.0 0.0
2.534 -0.7195613980293274 0.42183077335357666 0.01669175736606121 -0.022498931735754013 0.0 0.0 0.0 0.0
2.535 -0.7192735075950623 0.4241369366645813 0.015914103016257286 -0.023007599636912346 0.0 0.0 0.0 0.0
2.536 -0.7221053838729858 0.4187070429325104 0.015390629880130291 -0.02320822700858116 0.0 0.0 0.0 0.0
2.537 -0.7193741202354431 0.4228748679161072 0.014547496102750301 -0.023696893826127052 0.0 0.0 0.0 0.0
2.538 -0.7191188931465149 0.4228949248790741 0.013866550289094448 -0.02395276352763176 0.0 0.0 0.0 0.0
2.539 -0.7182279825210571 0.4261724054813385 0.012982304207980633 -0.024457862600684166 0.0 0.0 0.0 0.0
2.54 -0.7194423675537109 0.424700528383255 0.012399164028465748 -0.02467942424118519 0.0 0.0 0.0 0.0
2.541 -0.7170461416244507 0.42791807651519775 0.011700470000505447 -0.024912405759096146 0.0 0.0 0.0 0.0
2.542 -0.7196348905563354 0.42844289541244507 0.011167209595441818 -0.025264432653784752 0.0 0.0 0.0 0.0
2.543 -0.7172942757606506 0.4272611737251282 0.010310806334018707 -0.025428928434848785 0.0 0.0 0.0 0.0
2.544 -0.7164136171340942 0.428752064704895 0.0096640819683671 -0.025643719360232353 0.0 0.0 0.0 0.0
2.545 -0.7169955372810364 0.42848384380340576 0.008936315774917603 -0.025823982432484627 0.0 0.0 0.0 0.0
2.546 -0.7163806557655334 0.4292879104614258 0.008199886418879032 -0.02607123926281929 0.0 0.0 0.0 0.0
2.547 -0.7149243354797363 0.43017902970314026 0.0074824383482337 -0.02622746303677559 0.0 0.0 0.0 0.0
2.548 -0.7114486694335938 0.43521392345428467 0.006655463948845863 -0.026473496109247208 0.0 0.0 0.0 0.0
2.549 -0.7132660150527954 0.43417656421661377 0.006003299728035927 -0.0265368539839983 0.0 0.0 0.0 0.0
2.55 -0.7127783298492432 0.4338255822658539 0.005310589447617531 -0.026685379445552826 0.0 0.0 0.0 0.0
2.551 -0.7107734680175781 0.43599724769592285 0.00454887468367815 -0.026836108416318893 0.0 0.0 0.0 0.0
2.552 -0.7140716314315796 0.4351102411746979 0.004046609625220299 -0.026965156197547913 0.0 0.0 0.0 0.0
2.553 -0.7127721309661865 0.4346923530101776 0.0033602118492126465 -0.027014419436454773 0.0 0.0 0.0 0.0
2.554 -0.7096169590950012 0.4393889605998993 0.002506636083126068 -0.02719174697995186 0.0 0.0 0.0 0.0
2.555 -0.7112261652946472 0.43915361166000366 0.0019007828086614609 -0.027236396446824074 0.0 0.0 0.0 0.0
2.556 -0.7080351710319519 0.44082778692245483 0.0011180872097611427 -0.027492176741361618 0.0 0.0 0.0 0.0
2.557 -0.7092037200927734 0.44263774156570435 0.0005441624671220779 -0.027464888989925385 0.0 0.0 0.0 0.0
2.558 -0.7109928131103516 0.4404251277446747 -8.939392864704132e-05 -0.02744595892727375 0.0 0.0 0.0 0.0
2.559 -0.7101634740829468 0.4408468008041382 -0.0008357120677828789 -0.02746616117656231 0.0 0.0 0.0 0.0
2.56 -0.7113267183303833 0.4407057464122772 -0.0016495781019330025 -0.027497384697198868 0.0 0.0 0.0 0.0
2.561 -0.7095298171043396 0.44293537735939026 -0.0024540694430470467 -0.027430051937699318 0.0 0.0 0.0 0.0
2.562 -0.7077809572219849 0.4432520270347595 -0.0034954966977238655 -0.027368653565645218 0.0 0.0 0.0 0.0
2.563 -0.708335280418396 0.44394585490226746 -0.0043629975989460945 -0.02724459208548069 0.0 0.0 0.0 0.0
2.564 -0.7064319252967834 0.44463402032852173 -0.00526502076536417 -0.02712043561041355 0.0 0.0 0.0 0.0
2.565 -0.7079038023948669 0.4445161819458008 -0.006040357053279877 -0.027030710130929947 0.0 0.0 0.0 0.0
2.566 -0.7059212327003479 0.4503992795944214 -0.006929963827133179 -0.026981325820088387 0.0 0.0 0.0 0.0
2.567 -0.7055147290229797 0.44767680764198303 -0.00790631677955389 -0.026696525514125824 0.0 0.0 0.0 0.0
2.568 -0.7056705951690674 0.44633832573890686 -0.008724921382963657 -0.026487093418836594 0.0 0.0 0.0 0.0
2.569 -0.704006552696228 0.4493064880371094 -0.009670550934970379 -0.02636958844959736 0.0 0.0 0.0 0.0
2.57 -0.7052528262138367 0.44753652811050415 -0.010340963490307331 -0.026059744879603386 0.0 0.0 0.0 0.0
2.571 -0.704560399055481 0.4496261775493622 -0.011290360242128372 -0.025801710784435272 0.0 0.0 0.0 0.0
2.572 -0.7044928669929504 0.4491356909275055 -0.012040561065077782 -0.025655342265963554 0.0 0.0 0.0 0.0
2.573 -0.7037636637687683 0.45136329531669617 -0.012788962572813034 -0.02526199072599411 0.0 0.0 0.0 0.0
2.574 -0.7049672603607178 0.44989481568336487 -0.013487005606293678 -0.02515055239200592 0.0 0.0 0.0 0.0
2.575 -0.7007013559341431 0.45614689588546753 -0.014531916938722134 -0.024627098813652992 0.0 0.0 0.0 0.0
2.576 -0.7040701508522034 0.4515380859375 -0.015071184374392033 -0.02444848045706749 0.0 0.0 0.0 0.0
2.577 -0.7024641633033752 0.4549057185649872 -0.015855535864830017 -0.024230733513832092 0.0 0.0 0.0 0.0
2.578 -0.7031798362731934 0.45360639691352844 -0.016545994207262993 -0.02372114360332489 0.0 0.0 0.0 0.0
2.579 -0.7008288502693176 0.4561558961868286 -0.017470158636569977 -0.023391027003526688 0.0 0.0 0.0 0.0
2.58 -0.6989585757255554 0.45915764570236206 -0.018284467980265617 -0.023209597915410995 0.0 0.0 0.0 0.0
2.581 -0.6999062895774841 0.4557478427886963 -0.018964523449540138 -0.022602947428822517 0.0 0.0 0.0 0.0
2.582 -0.7007213234901428 0.4565323293209076 -0.01966702565550804 -0.022159332409501076 0.0 0.0 0.0 0.0
2.583 -0.69852215051651 0.4615430533885956 -0.020514484494924545 -0.02170856110751629 0.0 0.0 0.0 0.0
2.584 -0.7010600566864014 0.4569949507713318 -0.021181395277380943 -0.02122991345822811 0.0 0.0 0.0 0.0
2.585 -0.6995082497596741 0.4593018591403961 -0.021931901574134827 -0.02068120799958706 0.0 0.0 0.0 0.0
2.586 -0.6972283720970154 0.4612330496311188 -0.02271972969174385 -0.020202914252877235 0.0 0.0 0.0 0.0
2.587 -0.6963440775871277 0.46345531940460205 -0.023603331297636032 -0.01947741024196148 0.0 0.0 0.0 0.0
2.588 -0.6983398199081421 0.46093764901161194 -0.024206146597862244 -0.018832281231880188 0.0 0.0 0.0 0.0
2.589 -0.6974362134933472 0.46080976724624634 -0.024925928562879562 -0.018170055001974106 0.0 0.0 0.0 0.0
2.59 -0.6949582695960999 0.46098437905311584 -0.025791864842176437 -0.017437826842069626 0.0 0.0 0.0 0.0
2.591 -0.6968312859535217 0.4639566242694855 -0.026307178661227226 -0.01687691919505596 0.0 0.0 0.0 0.0
2.592 -0.6958011388778687 0.46242284774780273 -0.027060845866799355 -0.015912676230072975 0.0 0.0 0.0 0.0
2.593 -0.6961240172386169 0.46291786432266235 -0.02768486738204956 -0.01527707651257515 0.0 0.0 0.0 0.0
2.594 -0.69507896900177 0.46605828404426575 -0.0283069871366024 -0.01448497362434864 0.0 0.0 0.0 0.0
2.595 -0.6955117583274841 0.4671168923377991 -0.028951862826943398 -0.013578809797763824 0.0 0.0 0.0 0.0
2.596 -0.6957586407661438 0.4669989049434662 -0.029550597071647644 -0.01271329540759325 0.0 0.0 0.0 0.0
2.597 -0.6937003135681152 0.468612402677536 -0.030126454308629036 -0.011712883599102497 0.0 0.0 0.0 0.0
2.598 -0.694374680519104 0.46877598762512207 -0.03067060559988022 -0.010662452317774296 0.0 0.0 0.0 0.0
2.599 -0.6930039525032043 0.4691612422466278 -0.03115917183458805 -0.009769901633262634 0.0 0.0 0.0 0.0
2.6 -0.6945787668228149 0.46878111362457275 -0.03160015121102333 -0.008715508505702019 0.0 0.0 0.0 0.0
2.601 -0.6930342316627502 0.4715612232685089 -0.03209786117076874 -0.0076661910861730576 0.0 0.0 0.0 0.0
2.602 -0.6943584084510803 0.4695197343826294 -0.03247327730059624 -0.006555131636559963 0.0 0.0 0.0 0.0
2.603 -0.6919986605644226 0.47123879194259644 -0.032855916768312454 -0.005275796167552471 0.0 0.0 0.0 0.0
2.604 -0.6918913125991821 0.46839141845703125 -0.033169835805892944 -0.004213826730847359 0.0 0.0 0.0 0.0
2.605 -0.6920721530914307 0.47036412358283997 -0.033414702862501144 -0.0029872143641114235 0.0 0.0 0.0 0.0
2.606 -0.6934143304824829 0.470333993434906 -0.033551719039678574 -0.001743333414196968 0.0 0.0 0.0 0.0
2.607 -0.6881304979324341 0.47840309143066406 -0.03372010961174965 -0.0004026656970381737 0.0 0.0 0.0 0.0
2.608 -0.6883965730667114 0.47808706760406494 -0.03380126133561134 0.0007740352302789688 0.0 0.0 0.0 0.0
2.609 -0.6917972564697266 0.4726540744304657 -0.03386768698692322 0.0018642041832208633 0.0 0.0 0.0 0.0
2.61 -0.6904788613319397 0.4767038822174072 -0.033830080181360245 0.00327090360224247 0.0 0.0 0.0 0.0
2.611 -0.688201904296875 0.47802141308784485 -0.03372161090373993 0.004643451422452927 0.0 0.0 0.0 0.0
2.612 -0.6872847080230713 0.4805518686771393 -0.03349774330854416 0.006084362976253033 0.0 0.0 0.0 0.0
2.613 -0.6919028759002686 0.47322964668273926 -0.03340957686305046 0.006959801539778709 0.0 0.0 0.0 0.0
2.614 -0.69029301404953 0.47509196400642395 -0.03315530717372894 0.00847290176898241 0.0 0.0 0.0 0.0
2.615 -0.6890760064125061 0.48032549023628235 -0.032897450029850006 0.009614010341465473 0.0 0.0 0.0 0.0
2.616 -0.6880327463150024 0.47927072644233704 -0.03250410780310631 0.01081775687634945 0.0 0.0 0.0 0.0
2.617 -0.6892163753509521 0.4819687008857727 -0.03218585625290871 0.012043445371091366 0.0 0.0 0.0 0.0
2.618 -0.6874196529388428 0.4814588725566864 -0.031761813908815384 0.013202829286456108 0.0 0.0 0.0 0.0
2.619 -0.6873573660850525 0.48231586813926697 -0.03133683651685715 0.014347461983561516 0.0 0.0 0.0 0.0
2.62 -0.6895502805709839 0.47773298621177673 -0.030903927981853485 0.01530369371175766 0.0 0.0 0.0 0.0
2.621 -0.68646639585495 0.4831990599632263 -0.030355792492628098 0.016525719314813614 0.0 0.0 0.0 0.0
2.622 -0.6864702701568604 0.4844365417957306 -0.02981819398701191 0.017550025135278702 0.0 0.0 0.0 0.0
2.623 -0.6878545880317688 0.4821958541870117 -0.02920638397336006 0.01859237439930439 0.0 0.0 0.0 0.0
2.624 -0.6860217452049255 0.48404011130332947 -0.02848716452717781 0.01973116397857666 0.0 0.0 0.0 0.0
2.625 -0.6852772235870361 0.48668423295021057 -0.02787131816148758 0.020698271691799164 0.0 0.0 0.0 0.0
2.626 -0.6890472173690796 0.4864470660686493 -0.027344420552253723 0.021659446880221367 0.0 0.0 0.0 0.0
2.627 -0.686606228351593 0.48537543416023254 -0.026476582512259483 0.022520923987030983 0.0 0.0 0.0 0.0
2.628 -0.684567391872406 0.49410051107406616 -0.02562032639980316 0.023737402632832527 0.0 0.0 0.0 0.0
2.629 -0.6863613128662109 0.4898340702056885 -0.02496732585132122 0.024382930248975754 0.0 0.0 0.0 0.0
2.63 -0.6853388547897339 0.48672419786453247 -0.023933643475174904 0.025250796228647232 0.0 0.0 0.0 0.0
2.631 -0.6836104393005371 0.48954716324806213 -0.02311178296804428 0.02595634013414383 0.0 0.0 0.0 0.0
2.632 -0.682766854763031 0.4893501102924347 -0.022123565897345543 0.026720641180872917 0.0 0.0 0.0 0.0
2.633 -0.6843153238296509 0.4895710349082947 -0.021239615976810455 0.027554746717214584 0.0 0.0 0.0 0.0
2.634 -0.6841794848442078 0.4902018904685974 -0.020231124013662338 0.028257984668016434 0.0 0.0 0.0 0.0
2.635 -0.6810060143470764 0.49116528034210205 -0.01919572614133358 0.02884625643491745 0.0 0.0 0.0 0.0
2.636 -0.6854569911956787 0.48971864581108093 -0.018465597182512283 0.029436182230710983 0.0 0.0 0.0 0.0
2.637 -0.6833599805831909 0.49012112617492676 -0.017310770228505135 0.030020086094737053 0.0 0.0 0.0 0.0
2.638 -0.6839085817337036 0.48849132657051086 -0.01641058549284935 0.030360611155629158 0.0 0.0 0.0 0.0
2.639 -0.6820059418678284 0.495132178068161 -0.015245717950165272 0.031229404732584953 0.0 0.0 0.0 0.0
2.64 -0.6812892556190491 0.49385613203048706 -0.014107753522694111 0.03172430768609047 0.0 0.0 0.0 0.0
2.641 -0.6826316118240356 0.4967801868915558 -0.013302425853908062 0.03223329782485962 0.0 0.0 0.0 0.0
2.642 -0.6813043355941772 0.4961748719215393 -0.012100372463464737 0.032544948160648346 0.0 0.0 0.0 0.0
2.643 -0.6810206770896912 0.49530139565467834 -0.011052622459828854 0.03286965563893318 0.0 0.0 0.0 0.0
2.644 -0.6783464550971985 0.4966110587120056 -0.009711642749607563 0.03325994685292244 0.0 0.0 0.0 0.0
2.645 -0.6824643015861511 0.49594372510910034 -0.008995695039629936 0.03354369476437569 0.0 0.0 0.0 0.0
2.646 -0.6810052394866943 0.4976594150066376 -0.007646830752491951 0.033922888338565826 0.0 0.0 0.0 0.0
2.647 -0.6848745942115784 0.49704471230506897 -0.006841489113867283 0.03415101021528244 0.0 0.0 0.0 0.0
2.648 -0.6812015771865845 0.4987104535102844 -0.005637787282466888 0.034231096506118774 0.0 0.0 0.0 0.0
2.649 -0.6801461577415466 0.49829602241516113 -0.0043328190222382545 0.03444965183734894 0.0 0.0 0.0 0.0
2.65 -0.6797921061515808 0.5006027221679688 -0.0032107094302773476 0.034716375172138214 0.0 0.0 0.0 0.0
2.651 -0.6787348389625549 0.502064049243927 -0.0021001137793064117 0.034778159111738205 0.0 0.0 0.0 0.0
2.652 -0.6820974349975586 0.5031912326812744 -0.0010761674493551254 0.034895818680524826 0.0 0.0 0.0 0.0
2.653 -0.6841399073600769 0.49622198939323425 -0.00020368490368127823 0.0347583144903183 0.0 0.0 0.0 0.0
2.654 -0.678813636302948 0.503539502620697 0.0014182915911078453 0.03485366329550743 0.0 0.0 0.0 0.0
2.655 -0.6801228523254395 0.5012405514717102 0.0023351674899458885 0.034756626933813095 0.0 0.0 0.0 0.0
2.656 -0.6841505765914917 0.5001264810562134 0.003209594637155533 0.03469512239098549 0.0 0.0 0.0 0.0
2.657 -0.6766707301139832 0.5055153369903564 0.004797263070940971 0.034570083022117615 0.0 0.0 0.0 0.0
2.658 -0.6779536008834839 0.5033475756645203 0.005924839526414871 0.03439478948712349 0.0 0.0 0.0 0.0
2.659 -0.6812855005264282 0.500619113445282 0.006876884959638119 0.034197915345430374 0.0 0.0 0.0 0.0
2.66 -0.6797926425933838 0.5032164454460144 0.008059082552790642 0.034074265509843826 0.0 0.0 0.0 0.0
2.661 -0.6806766390800476 0.5029990077018738 0.00891732145100832 0.033951014280319214 0.0 0.0 0.0 0.0
2.662 -0.6787644624710083 0.5095081329345703 0.010314151644706726 0.033485449850559235 0.0 0.0 0.0 0.0
2.663 -0.6803493499755859 0.5034186840057373 0.011325530707836151 0.03339620307087898 0.0 0.0 0.0 0.0
2.664 -0.6772294044494629 0.5064300298690796 0.012592509388923645 0.03287675976753235 0.0 0.0 0.0 0.0
2.665 -0.6750015616416931 0.5051445960998535 0.013855748809874058 0.032391805201768875 0.0 0.0 0.0 0.0
2.666 -0.6796413660049438 0.5073823928833008 0.014737430959939957 0.03217313811182976 0.0 0.0 0.0 0.0
2.667 -0.6769627332687378 0.5079954862594604 0.0159282386302948 0.03169197589159012 0.0 0.0 0.0 0.0
2.668 -0.6771047115325928 0.5085704922676086 0.016956912353634834 0.031100571155548096 0.0 0.0 0.0 0.0
2.669 -0.679257869720459 0.5075739622116089 0.01819513365626335 0.03066437877714634 0.0 0.0 0.0 0.0
2.67 -0.6770929098129272 0.5117390751838684 0.019420845434069633 0.03015170991420746 0.0 0.0 0.0 0.0
2.671 -0.6759688258171082 0.5107739567756653 0.0205688439309597 0.029410632327198982 0.0 0.0 0.0 0.0
2.672 -0.677623450756073 0.5113068222999573 0.02155436761677265 0.028907809406518936 0.0 0.0 0.0 0.0
2.673 -0.6737022995948792 0.5129978656768799 0.023112956434488297 0.02800034172832966 0.0 0.0 0.0 0.0
2.674 -0.6728223562240601 0.5114741325378418 0.024056697264313698 0.027492647990584373 0.0 0.0 0.0 0.0
2.675 -0.6749804615974426 0.5165627598762512 0.02495776303112507 0.026534823700785637 0.0 0.0 0.0 0.0
2.676 -0.6752080917358398 0.5127817392349243 0.025988351553678513 0.025801144540309906 0.0 0.0 0.0 0.0
2.677 -0.6731209754943848 0.5218225717544556 0.027136173099279404 0.0248821172863245 0.0 0.0 0.0 0.0
2.678 -0.6758006811141968 0.5149012207984924 0.027836503461003304 0.023946834728121758 0.0 0.0 0.0 0.0
2.679 -0.6797928214073181 0.5138449668884277 0.0286850742995739 0.023011991754174232 0.0 0.0 0.0 0.0
2.68 -0.6705344319343567 0.516668438911438 0.02999873086810112 0.021597575396299362 0.0 0.0 0.0 0.0
2.681 -0.6760225892066956 0.5167743563652039 0.030619971454143524 0.020793497562408447 0.0 0.0 0.0 0.0
2.682 -0.6768906712532043 0.5151479840278625 0.03143636882305145 0.019585715606808662 0.0 0.0 0.0 0.0
2.683 -0.6761555671691895 0.5191312432289124 0.03222564235329628 0.018338527530431747 0.0 0.0 0.0 0.0
2.684 -0.671783447265625 0.5223162770271301 0.03302886709570885 0.017145222052931786 0.0 0.0 0.0 0.0
2.685 -0.675008237361908 0.5181695222854614 0.033730462193489075 0.016003500670194626 0.0 0.0 0.0 0.0
2.686 -0.6717352867126465 0.5118767619132996 0.034453555941581726 0.014343805611133575 0.0 0.0 0.0 0.0
2.687 -0.6763415336608887 0.5173731446266174 0.03496827930212021 0.013339637778699398 0.0 0.0 0.0 0.0
2.688 -0.6720816493034363 0.5179794430732727 0.035530418157577515 0.01184104848653078 0.0 0.0 0.0 0.0
2.689 -0.6726223826408386 0.5239713788032532 0.03599570319056511 0.010381833650171757 0.0 0.0 0.0 0.0
2.69 -0.6744469404220581 0.5198364853858948 0.03623398020863533 0.009214554913341999 0.0 0.0 0.0 0.0
2.691 -0.6753481030464172 0.522531270980835 0.036619916558265686 0.007842912338674068 0.0 0.0 0.0 0.0
2.692 -0.6716353893280029 0.5225901007652283 0.036919474601745605 0.0063589029014110565 0.0 0.0 0.0 0.0
2.693 -0.6738594174385071 0.5231269598007202 0.03712219372391701 0.00482033658772707 0.0 0.0 0.0 0.0
2.694 -0.6722535490989685 0.5240527987480164 0.03731481358408928 0.0033282702788710594 0.0 0.0 0.0 0.0
2.695 -0.6721605658531189 0.5185808539390564 0.03736613690853119 0.0019399132579565048 0.0 0.0 0.0 0.0
2.696 -0.6733043789863586 0.5222638249397278 0.037310197949409485 0.00033077411353588104 0.0 0.0 0.0 0.0
2.697 -0.6754814982414246 0.5261175632476807 0.03732290118932724 -0.0009079389274120331 0.0 0.0 0.0 0.0
2.698 -0.6737412810325623 0.527323305606842 0.037130217999219894 -0.002443915233016014 0.0 0.0 0.0 0.0
2.699 -0.6726392507553101 0.5268018245697021 0.03692306578159332 -0.003856418654322624 0.0 0.0 0.0 0.0
2.7 -0.6745142340660095 0.5260031819343567 0.03666361793875694 -0.005257956683635712 0.0 0.0 0.0 0.0
2.701 -0.6715040802955627 0.5268228054046631 0.03631050884723663 -0.00662229023873806 0.0 0.0 0.0 0.0
2.702 -0.6740770936012268 0.5250961780548096 0.035933855921030045 -0.007869412191212177 0.0 0.0 0.0 0.0
2.703 -0.6699048280715942 0.5317249894142151 0.035420313477516174 -0.009405072778463364 0.0 0.0 0.0 0.0
2.704 -0.6754899024963379 0.5288565754890442 0.035068463534116745 -0.010625146329402924 0.0 0.0 0.0 0.0
2.705 -0.6732869148254395 0.5292190313339233 0.0343373566865921 -0.0120197469368577 0.0 0.0 0.0 0.0
2.706 -0.6751317381858826 0.526733934879303 0.0339755080640316 -0.012925880961120129 0.0 0.0 0.0 0.0
2.707 -0.6707039475440979 0.5297784805297852 0.0331631675362587 -0.014220010489225388 0.0 0.0 0.0 0.0
2.708 -0.6715180277824402 0.5327455997467041 0.03247300907969475 -0.015518790110945702 0.0 0.0 0.0 0.0
2.709 -0.6721603274345398 0.5312430262565613 0.0317695327103138 -0.016640672460198402 0.0 0.0 0.0 0.0
2.71 -0.673462450504303 0.5317957997322083 0.031132962554693222 -0.017704153433442116 0.0 0.0 0.0 0.0
2.711 -0.6735449433326721 0.531712532043457 0.030268125236034393 -0.018620485439896584 0.0 0.0 0.0 0.0
2.712 -0.6715132594108582 0.5328682065010071 0.029385628178715706 -0.019685884937644005 0.0 0.0 0.0 0.0
2.713 -0.6739007234573364 0.5302559733390808 0.028689071536064148 -0.020449381321668625 0.0 0.0 0.0 0.0
2.714 -0.6738604307174683 0.5319582223892212 0.027753831818699837 -0.021370459347963333 0.0 0.0 0.0 0.0
2.715 -0.6717109084129333 0.5346859097480774 0.026777740567922592 -0.022346705198287964 0.0 0.0 0.0 0.0
2.716 -0.6687207221984863 0.5331183075904846 0.025876125320792198 -0.02295744977891445 0.0 0.0 0.0 0.0
2.717 -0.6728932857513428 0.5341615676879883 0.025008205324411392 -0.023779286071658134 0.0 0.0 0.0 0.0
2.718 -0.6704466938972473 0.5359469652175903 0.02394367754459381 -0.024602476507425308 0.0 0.0 0.0 0.0
2.719 -0.6715139150619507 0.5374807715415955 0.02318662405014038 -0.025162389501929283 0.0 0.0 0.0 0.0
2.72 -0.6725029349327087 0.5355989336967468 0.022177696228027344 -0.025809433311223984 0.0 0.0 0.0 0.0
2.721 -0.6690306067466736 0.5358793139457703 0.02108433097600937 -0.02633710205554962 0.0 0.0 0.0 0.0
2.722 -0.672986626625061 0.5431903600692749 0.02048051543533802 -0.027029087767004967 0.0 0.0 0.0 0.0
2.723 -0.670954704284668 0.5396023392677307 0.019365891814231873 -0.027399035170674324 0.0 0.0 0.0 0.0
2.724 -0.6714754104614258 0.5371901988983154 0.01841076835989952 -0.02776939608156681 0.0 0.0 0.0 0.0
2.725 -0.6716580986976624 0.5350028276443481 0.017547523602843285 -0.027948584407567978 0.0 0.0 0.0 0.0
2.726 -0.6707137823104858 0.5431252717971802 0.016502030193805695 -0.028729189187288284 0.0 0.0 0.0 0.0
2.727 -0.6720623970031738 0.541732132434845 0.015551019459962845 -0.02908901870250702 0.0 0.0 0.0 0.0
2.728 -0.6680922508239746 0.5439159870147705 0.014512313529849052 -0.029424743726849556 0.0 0.0 0.0 0.0
2.729 -0.6704123616218567 0.5432699918746948 0.01366491336375475 -0.02965342253446579 0.0 0.0 0.0 0.0
2.73 -0.6695014238357544 0.5417843461036682 0.012621330097317696 -0.029838690534234047 0.0 0.0 0.0 0.0
2.731 -0.6668063998222351 0.5435190796852112 0.011512260884046555 -0.030095534399151802 0.0 0.0 0.0 0.0
2.732 -0.670686662197113 0.5438345074653625 0.010943294502794743 -0.03031640686094761 0.0 0.0 0.0 0.0
2.733 -0.6707324981689453 0.5414320230484009 0.009946082718670368 -0.03051539696753025 0.0 0.0 0.0 0.0
2.734 -0.6681267619132996 0.5381594896316528 0.008872300386428833 -0.030279653146862984 0.0 0.0 0.0 0.0
2.735 -0.6669591665267944 0.5470452904701233 0.00800919160246849 -0.030812229961156845 0.0 0.0 0.0 0.0
2.736 -0.6707084774971008 0.543621838092804 0.007202013395726681 -0.030765045434236526 0.0 0.0 0.0 0.0
2.737 -0.6701683402061462 0.543026328086853 0.006269908510148525 -0.030927224084734917 0.0 0.0 0.0 0.0
2.738 -0.670968770980835 0.5452025532722473 0.0055832890793681145 -0.031089723110198975 0.0 0.0 0.0 0.0
2.739 -0.6678920388221741 0.552391529083252 0.00452809501439333 -0.031273189932107925 0.0 0.0 0.0 0.0
2.74 -0.6760933995246887 0.5463886857032776 0.004146594554185867 -0.031256917864084244 0.0 0.0 0.0 0.0
2.741 -0.6675261855125427 0.5511142611503601 0.002655433490872383 -0.03128616884350777 0.0 0.0 0.0 0.0
2.742 -0.6717325448989868 0.5489106774330139 0.002227318473160267 -0.03127763047814369 0.0 0.0 0.0 0.0
2.743 -0.6693100333213806 0.5495021939277649 0.0011134073138237 -0.030979769304394722 0.0 0.0 0.0 0.0
2.744 -0.6716150641441345 0.5497055649757385 0.00041794683784246445 -0.031247738748788834 0.0 0.0 0.0 0.0
2.745 -0.6687963604927063 0.5488250851631165 -0.0006258534267544746 -0.030996492132544518 0.0 0.0 0.0 0.0
2.746 -0.6686168909072876 0.5540164113044739 -0.001591445878148079 -0.0311003178358078 0.0 0.0 0.0 0.0
2.747 -0.670598566532135 0.5502578020095825 -0.002469751052558422 -0.030920250341296196 0.0 0.0 0.0 0.0
2.748 -0.6693823337554932 0.5538226366043091 -0.0035010986030101776 -0.030963372439146042 0.0 0.0 0.0 0.0
2.749 -0.667751669883728 0.5527675747871399 -0.004395951516926289 -0.03059864602982998 0.0 0.0 0.0 0.0
2.75 -0.6711583733558655 0.5517873764038086 -0.005186409689486027 -0.030477697029709816 0.0 0.0 0.0 0.0
2.751 -0.6700779795646667 0.5497632622718811 -0.006093140691518784 -0.030237853527069092 0.0 0.0 0.0 0.0
2.752 -0.6643919348716736 0.5552654266357422 -0.00733643863350153 -0.030121993273496628 0.0 0.0 0.0 0.0
2.753 -0.6680184602737427 0.5547214150428772 -0.007900782860815525 -0.029776444658637047 0.0 0.0 0.0 0.0
2.754 -0.6708037853240967 0.5549125671386719 -0.008888295851647854 -0.029557738453149796 0.0 0.0 0.0 0.0
2.755 -0.6650685667991638 0.5593342781066895 -0.01010215189307928 -0.0293524581938982 0.0 0.0 0.0 0.0
2.756 -0.6706486940383911 0.5557535290718079 -0.010535769164562225 -0.028961045667529106 0.0 0.0 0.0 0.0
2.757 -0.6701730489730835 0.5578307509422302 -0.01155453734099865 -0.028556860983371735 0.0 0.0 0.0 0.0
2.758 -0.6684803366661072 0.5541056394577026 -0.012500694952905178 -0.028123341500759125 0.0 0.0 0.0 0.0
2.759 -0.6661504507064819 0.5598277449607849 -0.01338213961571455 -0.02782636135816574 0.0 0.0 0.0 0.0
2.76 -0.6701227426528931 0.5561739206314087 -0.01402008906006813 -0.027446012943983078 0.0 0.0 0.0 0.0
2.761 -0.6675307750701904 0.5615828037261963 -0.015066052787005901 -0.02717035450041294 0.0 0.0 0.0 0.0
2.762 -0.66617751121521 0.5624240040779114 -0.015835365280508995 -0.02652907371520996 0.0 0.0 0.0 0.0
2.763 -0.666551947593689 0.5613176822662354 -0.016626007854938507 -0.026037996634840965 0.0 0.0 0.0 0.0
2.764 -0.6712141036987305 0.560276448726654 -0.017320742830634117 -0.025679292157292366 0.0 0.0 0.0 0.0
2.765 -0.6676865816116333 0.560507595539093 -0.01818854734301567 -0.02499505877494812 0.0 0.0 0.0 0.0
2.766 -0.6666100025177002 0.5613459944725037 -0.018949681892991066 -0.024624144658446312 0.0 0.0 0.0 0.0
2.767 -0.6705613732337952 0.5618067383766174 -0.019458122551441193 -0.02405613474547863 0.0 0.0 0.0 0.0
2.768 -0.6670569777488708 0.5642520785331726 -0.020405802875757217 -0.02334819734096527 0.0 0.0 0.0 0.0
2.769 -0.6672748923301697 0.5607430934906006 -0.02107795514166355 -0.0226606335490942 0.0 0.0 0.0 0.0
2.77 -0.6704782843589783 0.5548856258392334 -0.02164602093398571 -0.022039566189050674 0.0 0.0 0.0 0.0
2.771 -0.6670472621917725 0.5643603205680847 -0.022441405802965164 -0.021393723785877228 0.0 0.0 0.0 0.0
2.772 -0.6667858958244324 0.5642085075378418 -0.023073725402355194 -0.020812254399061203 0.0 0.0 0.0 0.0
2.773 -0.6716111302375793 0.5635706186294556 -0.023513641208410263 -0.020139865577220917 0.0 0.0 0.0 0.0
2.774 -0.6694152355194092 0.5665307641029358 -0.02425030991435051 -0.01948527805507183 0.0 0.0 0.0 0.0
2.775 -0.6628001928329468 0.571588397026062 -0.024934647604823112 -0.018807677552103996 0.0 0.0 0.0 0.0
2.776 -0.667850136756897 0.5664995908737183 -0.025474390015006065 -0.017992274835705757 0.0 0.0 0.0 0.0
2.777 -0.6694907546043396 0.5672512650489807 -0.025938615202903748 -0.017289899289608 0.0 0.0 0.0 0.0
2.778 -0.6697171330451965 0.5694131255149841 -0.026413671672344208 -0.016581431031227112 0.0 0.0 0.0 0.0
2.779 -0.6695311069488525 0.5706257224082947 -0.026977740228176117 -0.01565910503268242 0.0 0.0 0.0 0.0
2.78 -0.6700270771980286 0.5679689645767212 -0.027471601963043213 -0.014861714094877243 0.0 0.0 0.0 0.0
2.781 -0.6662030220031738 0.5693905353546143 -0.027986882254481316 -0.014122764579951763 0.0 0.0 0.0 0.0
2.782 -0.6636902093887329 0.5771633386611938 -0.028468262404203415 -0.013407510705292225 0.0 0.0 0.0 0.0
2.783 -0.668113112449646 0.5706179141998291 -0.028818294405937195 -0.012398635037243366 0.0 0.0 0.0 0.0
2.784 -0.6682493090629578 0.571393609046936 -0.029165852814912796 -0.011553573422133923 0.0 0.0 0.0 0.0
2.785 -0.6640335321426392 0.5693221688270569 -0.029603902250528336 -0.010580647736787796 0.0 0.0 0.0 0.0
2.786 -0.6715649962425232 0.5674349069595337 -0.029849926009774208 -0.009914164431393147 0.0 0.0 0.0 0.0
2.787 -0.667794406414032 0.5716660022735596 -0.030160915106534958 -0.008831466548144817 0.0 0.0 0.0 0.0
2.788 -0.6624845266342163 0.5795604586601257 -0.030567403882741928 -0.007816748693585396 0.0 0.0 0.0 0.0
2.789 -0.6685810685157776 0.5720871090888977 -0.030721861869096756 -0.007068122737109661 0.0 0.0 0.0 0.0
2.79 -0.6664977073669434 0.5737323760986328 -0.03097190149128437 -0.005999150685966015 0.0 0.0 0.0 0.0
2.791 -0.6690710783004761 0.5686960220336914 -0.031169960275292397 -0.005207802169024944 0.0 0.0 0.0 0.0
2.792 -0.6670860648155212 0.5765681862831116 -0.031283292919397354 -0.004111978225409985 0.0 0.0 0.0 0.0
2.793 -0.664685845375061 0.5752614736557007 -0.03150257095694542 -0.003186543472111225 0.0 0.0 0.0 0.0
2.794 -0.6703010201454163 0.5751100182533264 -0.031633153557777405 -0.002438056282699108 0.0 0.0 0.0 0.0
2.795 -0.6675377488136292 0.5761834383010864 -0.03172178566455841 -0.0014846595004200935 0.0 0.0 0.0 0.0
2.796 -0.6708618998527527 0.5735868215560913 -0.031798142939805984 -0.0006638672202825546 0.0 0.0 0.0 0.0
2.797 -0.6693299412727356 0.5753984451293945 -0.03195483610033989 0.0002442803233861923 0.0 0.0 0.0 0.0
2.798 -0.6685525178909302 0.576833963394165 -0.031980160623788834 0.0011288709938526154 0.0 0.0 0.0 0.0
2.799 -0.6670076847076416 0.5770606398582458 -0.03207265958189964 0.002113405615091324 0.0 0.0 0.0 0.0
2.8 -0.6716525554656982 0.5813133120536804 -0.032085321843624115 0.002929316833615303 0.0 0.0 0.0 0.0
2.801 -0.6671190857887268 0.5811218023300171 -0.03208962082862854 0.0038526728749275208 0.0 0.0 0.0 0.0
2.802 -0.6683175563812256 0.5777146220207214 -0.03208402544260025 0.00467037595808506 0.0 0.0 0.0 0.0
2.803 -0.6650590896606445 0.5783758163452148 -0.03197244554758072 0.00572556909173727 0.0 0.0 0.0 0.0
2.804 -0.6664679050445557 0.5836782455444336 -0.03196236491203308 0.0065476903691887856 0.0 0.0 0.0 0.0
2.805 -0.6688326001167297 0.5792680978775024 -0.031882964074611664 0.007486757822334766 0.0 0.0 0.0 0.0
2.806 -0.671749472618103 0.5845975875854492 -0.031707264482975006 0.008483990095555782 0.0 0.0 0.0 0.0
2.807 -0.6672622561454773 0.5813031792640686 -0.031467221677303314 0.009480576030910015 0.0 0.0 0.0 0.0
2.808 -0.6654424667358398 0.5847440361976624 -0.031237678602337837 0.010451367124915123 0.0 0.0 0.0 0.0
2.809 -0.6713935732841492 0.5824153423309326 -0.03109220415353775 0.011348480358719826 0.0 0.0 0.0 0.0
2.81 -0.667376697063446 0.5826452374458313 -0.030758295208215714 0.012400759384036064 0.0 0.0 0.0 0.0
2.811 -0.669096052646637 0.5843424201011658 -0.03058152087032795 0.013251138851046562 0.0 0.0 0.0 0.0
2.812 -0.6681582927703857 0.586635947227478 -0.030152732506394386 0.014167909510433674 0.0 0.0 0.0 0.0
2.813 -0.669770359992981 0.5826135277748108 -0.02988896146416664 0.015138465911149979 0.0 0.0 0.0 0.0
2.814 -0.6648051142692566 0.5878897905349731 -0.02940511144697666 0.01621808484196663 0.0 0.0 0.0 0.0
2.815 -0.6678157448768616 0.5854869484901428 -0.02909472957253456 0.016956817358732224 0.0 0.0 0.0 0.0
2.816 -0.6679638624191284 0.5860313177108765 -0.028658350929617882 0.0179898738861084 0.0 0.0 0.0 0.0
2.817 -0.6651691794395447 0.5904462933540344 -0.02817223034799099 0.018904361873865128 0.0 0.0 0.0 0.0
2.818 -0.6691955924034119 0.5845770239830017 -0.02794007584452629 0.019556915387511253 0.0 0.0 0.0 0.0
2.819 -0.6681810021400452 0.5881615281105042 -0.027250004932284355 0.02071545273065567 0.0 0.0 0.0 0.0
2.82 -0.6637236475944519 0.5909110903739929 -0.02659611590206623 0.021692562848329544 0.0 0.0 0.0 0.0
2.821 -0.6685832142829895 0.5826846957206726 -0.02642395906150341 0.02215883880853653 0.0 0.0 0.0 0.0
2.822 -0.6712801456451416 0.5880523324012756 -0.025963179767131805 0.023207152262330055 0.0 0.0 0.0 0.0
2.823 -0.6692496538162231 0.5875684022903442 -0.02528991363942623 0.024212047457695007 0.0 0.0 0.0 0.0
2.824 -0.6652868390083313 0.5915105938911438 -0.024617932736873627 0.025135958567261696 0.0 0.0 0.0 0.0
2.825 -0.6705196499824524 0.5896539688110352 -0.024187641218304634 0.02593197673559189 0.0 0.0 0.0 0.0
2.826 -0.6704288125038147 0.5921238660812378 -0.023640824481844902 0.026920249685645103 0.0 0.0 0.0 0.0
2.827 -0.6692835688591003 0.5866300463676453 -0.02298777364194393 0.02748909406363964 0.0 0.0 0.0 0.0
2.828 -0.6670640110969543 0.5939238667488098 -0.022248484194278717 0.028562860563397408 0.0 0.0 0.0 0.0
2.829 -0.6708607077598572 0.5920469164848328 -0.021636400371789932 0.029395565390586853 0.0 0.0 0.0 0.0
2.83 -0.6632047891616821 0.5884650349617004 -0.02055075764656067 0.03005809895694256 0.0 0.0 0.0 0.0
2.831 -0.6680266857147217 0.5942164063453674 -0.020017951726913452 0.03113798424601555 0.0 0.0 0.0 0.0
2.832 -0.669009268283844 0.5929015874862671 -0.01918725296854973 0.03192954510450363 0.0 0.0 0.0 0.0
2.833 -0.6719818115234375 0.5945148468017578 -0.018579836934804916 0.032747961580753326 0.0 0.0 0.0 0.0
2.834 -0.6651661396026611 0.5972589254379272 -0.017371267080307007 0.033556610345840454 0.0 0.0 0.0 0.0
2.835 -0.6664239764213562 0.595284104347229 -0.016456488519906998 0.034299541264772415 0.0 0.0 0.0 0.0
2.836 -0.6731061339378357 0.5941474437713623 -0.015792837366461754 0.035115666687488556 0.0 0.0 0.0 0.0
2.837 -0.6678612232208252 0.5961372256278992 -0.014543315395712852 0.035925690084695816 0.0 0.0 0.0 0.0
2.838 -0.6668473482131958 0.5968940854072571 -0.013532821089029312 0.03656850382685661 0.0 0.0 0.0 0.0
2.839 -0.6685857772827148 0.5929147601127625 -0.01226220652461052 0.03724506124854088 0.0 0.0 0.0 0.0
2.84 -0.6698678135871887 0.5960788726806641 -0.011198634281754494 0.038069333881139755 0.0 0.0 0.0 0.0
2.841 -0.6679014563560486 0.5981671810150146 -0.010155986063182354 0.03859935328364372 0.0 0.0 0.0 0.0
2.842 -0.6720345616340637 0.5984837412834167 -0.009135116823017597 0.03937916085124016 0.0 0.0 0.0 0.0
2.843 -0.6681344509124756 0.5996993184089661 -0.007445317693054676 0.04002264142036438 0.0 0.0 0.0 0.0
2.844 -0.6697099208831787 0.5969911813735962 -0.006257719360291958 0.040450569242239 0.0 0.0 0.0 0.0
2.845 -0.6723760962486267 0.599098801612854 -0.005129779689013958 0.041135024279356 0.0 0.0 0.0 0.0
2.846 -0.6712598204612732 0.5993967056274414 -0.0034969374537467957 0.04171495512127876 0.0 0.0 0.0 0.0
2.847 -0.666793704032898 0.60115647315979 -0.0019227713346481323 0.04198279231786728 0.0 0.0 0.0 0.0
2.848 -0.6722679734230042 0.5988284945487976 -0.0008858535438776016 0.042384203523397446 0.0 0.0 0.0 0.0
2.849 -0.6720877289772034 0.5978786945343018 0.0007366864010691643 0.04288647323846817 0.0 0.0 0.0 0.0
2.85 -0.6653872132301331 0.6051515340805054 0.0028602425009012222 0.04306582733988762 0.0 0.0 0.0 0.0
2.851 -0.6665821075439453 0.6017881035804749 0.004226891323924065 0.043476659804582596 0.0 0.0 0.0 0.0
2.852 -0.6715478301048279 0.6010659337043762 0.005630627274513245 0.04362748935818672 0.0 0.0 0.0 0.0
2.853 -0.6687498688697815 0.6034371256828308 0.007616611197590828 0.043756864964962006 0.0 0.0 0.0 0.0
2.854 -0.6734521985054016 0.6060318350791931 0.008957737125456333 0.04410592094063759 0.0 0.0 0.0 0.0
2.855 -0.6661616563796997 0.6084269881248474 0.011205428279936314 0.043736718595027924 0.0 0.0 0.0 0.0
2.856 -0.671125590801239 0.600086510181427 0.012633102014660835 0.04366254433989525 0.0 0.0 0.0 0.0
2.857 -0.6664630174636841 0.608711838722229 0.01467450987547636 0.043719395995140076 0.0 0.0 0.0 0.0
2.858 -0.6680665016174316 0.6075608730316162 0.016408676281571388 0.0432811863720417 0.0 0.0 0.0 0.0
2.859 -0.6705686450004578 0.6054942011833191 0.018091050907969475 0.04280736669898033 0.0 0.0 0.0 0.0
2.86 -0.6707897782325745 0.6027023196220398 0.020011143758893013 0.04216036945581436 0.0 0.0 0.0 0.0
2.861 -0.6713898777961731 0.6048399209976196 0.021647434681653976 0.04182427376508713 0.0 0.0 0.0 0.0
2.862 -0.6720061898231506 0.6058843731880188 0.023570286110043526 0.0410793162882328 0.0 0.0 0.0 0.0
2.863 -0.6711811423301697 0.6048189401626587 0.0255139023065567 0.04028402641415596 0.0 0.0 0.0 0.0
2.864 -0.6691716909408569 0.6069543957710266 0.02732658013701439 0.03937342017889023 0.0 0.0 0.0 0.0
2.865 -0.6689284443855286 0.6112419962882996 0.02894909493625164 0.038652654737234116 0.0 0.0 0.0 0.0
2.866 -0.668056309223175 0.6065865159034729 0.030786950141191483 0.037207845598459244 0.0 0.0 0.0 0.0
2.867 -0.6690641641616821 0.6107367873191833 0.032263223081827164 0.036258451640605927 0.0 0.0 0.0 0.0
2.868 -0.668484091758728 0.6093533635139465 0.03372479975223541 0.034684211015701294 0.0 0.0 0.0 0.0
2.869 -0.6710389852523804 0.6048066020011902 0.035327523946762085 0.03331369906663895 0.0 0.0 0.0 0.0
2.87 -0.6706493496894836 0.6100924015045166 0.036568574607372284 0.032192129641771317 0.0 0.0 0.0 0.0
2.871 -0.6683372259140015 0.612663984298706 0.03786323964595795 0.030822673812508583 0.0 0.0 0.0 0.0
2.872 -0.668633759021759 0.6113035082817078 0.03910986706614494 0.02916477434337139 0.0 0.0 0.0 0.0
2.873 -0.6715661287307739 0.6139928102493286 0.04010532423853874 0.02754233218729496 0.0 0.0 0.0 0.0
2.874 -0.6700964570045471 0.6168201565742493 0.041087351739406586 0.02598044089972973 0.0 0.0 0.0 0.0
2.875 -0.6700906157493591 0.6161754131317139 0.04213710501790047 0.02428998425602913 0.0 0.0 0.0 0.0
2.876 -0.6734247803688049 0.6117405295372009 0.042794108390808105 0.02271861396729946 0.0 0.0 0.0 0.0
2.877 -0.6675713062286377 0.61866295337677 0.04367200285196304 0.02054107002913952 0.0 0.0 0.0 0.0
2.878 -0.672773003578186 0.62034010887146 0.044200748205184937 0.019336897879838943 0.0 0.0 0.0 0.0
2.879 -0.6745067834854126 0.6128697395324707 0.04471493139863014 0.017389720305800438 0.0 0.0 0.0 0.0
2.88 -0.6687062382698059 0.6134461760520935 0.04537070915102959 0.015273208729922771 0.0 0.0 0.0 0.0
2.881 -0.6714284420013428 0.6200517416000366 0.04562632367014885 0.013749616220593452 0.0 0.0 0.0 0.0
2.882 -0.6739398837089539 0.6160738468170166 0.045862242579460144 0.011833391152322292 0.0 0.0 0.0 0.0
2.883 -0.6730116009712219 0.6154875159263611 0.04611325263977051 0.010058141313493252 0.0 0.0 0.0 0.0
2.884 -0.6700761914253235 0.6245918273925781 0.04622849076986313 0.008391037583351135 0.0 0.0 0.0 0.0
2.885 -0.6726542115211487 0.617719292640686 0.04626892879605293 0.006715944968163967 0.0 0.0 0.0 0.0
2.886 -0.674717128276825 0.6165382266044617 0.046224988996982574 0.004984925501048565 0.0 0.0 0.0 0.0
2.887 -0.6708522439002991 0.6220402717590332 0.04621751978993416 0.0031541502103209496 0.0 0.0 0.0 0.0
2.888 -0.6750173568725586 0.6196375489234924 0.04602380469441414 0.0017258375883102417 0.0 0.0 0.0 0.0
2.889 -0.6756568551063538 0.6170781850814819 0.04573961719870567 6.567500531673431e-05 0.0 0.0 0.0 0.0
2.89 -0.6733235120773315 0.6203746795654297 0.04549960419535637 -0.001882311888039112 0.0 0.0 0.0 0.0
2.891 -0.6725561618804932 0.620712399482727 0.045161936432123184 -0.0032703587785363197 0.0 0.0 0.0 0.0
2.892 -0.6732421517372131 0.6258586645126343 0.0447121225297451 -0.005108886398375034 0.0 0.0 0.0 0.0
2.893 -0.6720457077026367 0.6241900324821472 0.044211044907569885 -0.006717529147863388 0.0 0.0 0.0 0.0
2.894 -0.6747485399246216 0.6228171586990356 0.04382706061005592 -0.00812806561589241 0.0 0.0 0.0 0.0
2.895 -0.6763018369674683 0.6209891438484192 0.043227553367614746 -0.009632964618504047 0.0 0.0 0.0 0.0
2.896 -0.6754687428474426 0.6227267384529114 0.04256315529346466 -0.011330432258546352 0.0 0.0 0.0 0.0
2.897 -0.6722725629806519 0.6264157891273499 0.04185144230723381 -0.012783500365912914 0.0 0.0 0.0 0.0
2.898 -0.6753711700439453 0.6263840794563293 0.0411846898496151 -0.014137194491922855 0.0 0.0 0.0 0.0
2.899 -0.6765574216842651 0.6252316832542419 0.04050150513648987 -0.015347586944699287 0.0 0.0 0.0 0.0
2.9 -0.6732453107833862 0.6278135180473328 0.03970516473054886 -0.01657032035291195 0.0 0.0 0.0 0.0
2.901 -0.6735329031944275 0.6266540884971619 0.03883892297744751 -0.017860712483525276 0.0 0.0 0.0 0.0
2.902 -0.6761981844902039 0.6244351863861084 0.03809814900159836 -0.018946558237075806 0.0 0.0 0.0 0.0
2.903 -0.674980103969574 0.6263067126274109 0.037281718105077744 -0.02015714906156063 0.0 0.0 0.0 0.0
2.904 -0.6762116551399231 0.6255823969841003 0.036410681903362274 -0.02107592672109604 0.0 0.0 0.0 0.0
2.905 -0.6731793880462646 0.6276475787162781 0.035317666828632355 -0.022358223795890808 0.0 0.0 0.0 0.0
2.906 -0.6749060153961182 0.6295057535171509 0.03457137197256088 -0.02332361415028572 0.0 0.0 0.0 0.0
2.907 -0.6756818890571594 0.6277375221252441 0.03357499837875366 -0.02421703189611435 0.0 0.0 0.0 0.0
2.908 -0.6771981120109558 0.6270446181297302 0.03261426091194153 -0.025211069732904434 0.0 0.0 0.0 0.0
2.909 -0.6716374754905701 0.6328227519989014 0.03160808980464935 -0.0261943731456995 0.0 0.0 0.0 0.0
2.91 -0.6739458441734314 0.6314063668251038 0.030646074563264847 -0.02701042778789997 0.0 0.0 0.0 0.0
2.911 -0.6753381490707397 0.6304528713226318 0.02959774248301983 -0.02778932824730873 0.0 0.0 0.0 0.0
2.912 -0.6750622987747192 0.6323049664497375 0.02872239425778389 -0.028617003932595253 0.0 0.0 0.0 0.0
2.913 -0.6761594414710999 0.631313145160675 0.027801701799035072 -0.029189899563789368 0.0 0.0 0.0 0.0
2.914 -0.6771442890167236 0.6338486075401306 0.026530183851718903 -0.03018372878432274 0.0 0.0 0.0 0.0
2.915 -0.6788025498390198 0.6283581256866455 0.025729089975357056 -0.03057992272078991 0.0 0.0 0.0 0.0
2.916 -0.66934734582901 0.6347981691360474 0.024259841069579124 -0.03141576424241066 0.0 0.0 0.0 0.0
2.917 -0.6814744472503662 0.6336856484413147 0.023659590631723404 -0.03216161951422691 0.0 0.0 0.0 0.0
2.918 -0.6740244626998901 0.6356173753738403 0.022240115329623222 -0.03269803524017334 0.0 0.0 0.0 0.0
2.919 -0.6727554798126221 0.639960527420044 0.02114124596118927 -0.03338630124926567 0.0 0.0 0.0 0.0
2.92 -0.6785387992858887 0.6348612904548645 0.020488664507865906 -0.03361498937010765 0.0 0.0 0.0 0.0
2.921 -0.6786718368530273 0.6328136920928955 0.019256392493844032 -0.03414124250411987 0.0 0.0 0.0 0.0
2.922 -0.6757537722587585 0.6356297731399536 0.01792171411216259 -0.034709833562374115 0.0 0.0 0.0 0.0
2.923 -0.6768456101417542 0.638374924659729 0.017029397189617157 -0.03522249683737755 0.0 0.0 0.0 0.0
2.924 -0.6747387647628784 0.6385256052017212 0.015750303864479065 -0.035585254430770874 0.0 0.0 0.0 0.0
2.925 -0.6766012907028198 0.6381683945655823 0.014793077483773232 -0.035930145531892776 0.0 0.0 0.0 0.0
2.926 -0.6760060787200928 0.6442914009094238 0.013758983463048935 -0.03652185574173927 0.0 0.0 0.0 0.0
2.927 -0.6761385202407837 0.6386804580688477 0.012717092409729958 -0.03648921847343445 0.0 0.0 0.0 0.0
2.928 -0.6768190264701843 0.6394548416137695 0.011557748541235924 -0.03684239089488983 0.0 0.0 0.0 0.0
2.929 -0.681689977645874 0.6375335454940796 0.01058806199580431 -0.03709740936756134 0.0 0.0 0.0 0.0
2.93 -0.6775043606758118 0.6390305757522583 0.009268063120543957 -0.0373474657535553 0.0 0.0 0.0 0.0
2.931 -0.6738716959953308 0.6454419493675232 0.008104907348752022 -0.03772113099694252 0.0 0.0 0.0 0.0
2.932 -0.6816363334655762 0.6414674520492554 0.007111262530088425 -0.03785870224237442 0.0 0.0 0.0 0.0
2.933 -0.6794207096099854 0.6405019164085388 0.0058815861120820045 -0.03788667172193527 0.0 0.0 0.0 0.0
2.934 -0.6765536665916443 0.6427783966064453 0.004544680006802082 -0.038036055862903595 0.0 0.0 0.0 0.0
2.935 -0.6780077219009399 0.6456235647201538 0.0033081024885177612 -0.03821535408496857 0.0 0.0 0.0 0.0
2.936 -0.6798344254493713 0.6427918076515198 0.0020093070343136787 -0.03816007077693939 0.0 0.0 0.0 0.0
2.937 -0.6775338053703308 0.6435484290122986 0.0008113449439406395 -0.03802144527435303 0.0 0.0 0.0 0.0
2.938 -0.6779322028160095 0.6477763652801514 -0.00041280873119831085 -0.03828702121973038 0.0 0.0 0.0 0.0
2.939 -0.6786077618598938 0.6449017524719238 -0.0015738867223262787 -0.0380338579416275 0.0 0.0 0.0 0.0
2.94 -0.6746320724487305 0.6427723169326782 -0.0031671831384301186 -0.03773250803351402 0.0 0.0 0.0 0.0
2.941 -0.6777007579803467 0.6497218608856201 -0.00423834566026926 -0.037873078137636185 0.0 0.0 0.0 0.0
2.942 -0.6793263554573059 0.6454171538352966 -0.005379160866141319 -0.03740251809358597 0.0 0.0 0.0 0.0
2.943 -0.6780054569244385 0.6448167562484741 -0.0067038703709840775 -0.03711911290884018 0.0 0.0 0.0 0.0
2.944 -0.6788842082023621 0.647956132888794 -0.007872032932937145 -0.03683256357908249 0.0 0.0 0.0 0.0
2.945 -0.6761810183525085 0.6497753262519836 -0.009240621700882912 -0.03650180250406265 0.0 0.0 0.0 0.0
2.946 -0.6776557564735413 0.6467268466949463 -0.010381028056144714 -0.03612697869539261 0.0 0.0 0.0 0.0
2.947 -0.6824662089347839 0.647790253162384 -0.01118522696197033 -0.03601106256246567 0.0 0.0 0.0 0.0
2.948 -0.678037703037262 0.6529930830001831 -0.012625783681869507 -0.035378776490688324 0.0 0.0 0.0 0.0
2.949 -0.6784104108810425 0.6485339403152466 -0.01377908792346716 -0.03492823988199234 0.0 0.0 0.0 0.0
2.95 -0.6785876750946045 0.6513499021530151 -0.014726170338690281 -0.03440394625067711 0.0 0.0 0.0 0.0
2.951 -0.6795313358306885 0.6514227390289307 -0.015702681615948677 -0.03392674773931503 0.0 0.0 0.0 0.0
2.952 -0.677940845489502 0.6540377140045166 -0.017025355249643326 -0.03323506936430931 0.0 0.0 0.0 0.0
2.953 -0.6790724396705627 0.649018406867981 -0.01805141195654869 -0.032605208456516266 0.0 0.0 0.0 0.0
2.954 -0.6756225228309631 0.6567866802215576 -0.01920315809547901 -0.03192558139562607 0.0 0.0 0.0 0.0
2.955 -0.6828187704086304 0.6518101692199707 -0.01983553171157837 -0.031304143369197845 0.0 0.0 0.0 0.0
2.956 -0.6809450387954712 0.6539793014526367 -0.02102428860962391 -0.03071841225028038 0.0 0.0 0.0 0.0
2.957 -0.6796072721481323 0.653501033782959 -0.02214551344513893 -0.029697753489017487 0.0 0.0 0.0 0.0
2.958 -0.6776148676872253 0.6543474197387695 -0.023000502958893776 -0.029038727283477783 0.0 0.0 0.0 0.0
2.959 -0.6811984777450562 0.6536825299263 -0.023720968514680862 -0.028271419927477837 0.0 0.0 0.0 0.0
2.96 -0.6805468201637268 0.6555841565132141 -0.024653181433677673 -0.02739916741847992 0.0 0.0 0.0 0.0
2.961 -0.6801406741142273 0.655598521232605 -0.025397488847374916 -0.02655160240828991 0.0 0.0 0.0 0.0
2.962 -0.6827652454376221 0.6595700979232788 -0.026155985891819 -0.025841154158115387 0.0 0.0 0.0 0.0
2.963 -0.6824140548706055 0.6553009748458862 -0.027039971202611923 -0.024937396869063377 0.0 0.0 0.0 0.0
2.964 -0.6745617389678955 0.6581783294677734 -0.02795993722975254 -0.023873982951045036 0.0 0.0 0.0 0.0
2.965 -0.6824643015861511 0.662706732749939 -0.028315454721450806 -0.023129979148507118 0.0 0.0 0.0 0.0
2.966 -0.6816956400871277 0.658547043800354 -0.028950881212949753 -0.02211853116750717 0.0 0.0 0.0 0.0
2.967 -0.6807746291160583 0.6586607098579407 -0.029786985367536545 -0.021142354235053062 0.0 0.0 0.0 0.0
2.968 -0.6774761080741882 0.6630098819732666 -0.03034423664212227 -0.020264454185962677 0.0 0.0 0.0 0.0
2.969 -0.678959310054779 0.6600556373596191 -0.030946752056479454 -0.01924899034202099 0.0 0.0 0.0 0.0
2.97 -0.6834388375282288 0.6558728814125061 -0.03146309778094292 -0.018299397081136703 0.0 0.0 0.0 0.0
2.971 -0.6799752116203308 0.6615349054336548 -0.031979575753211975 -0.017313599586486816 0.0 0.0 0.0 0.0
2.972 -0.6805172562599182 0.66252201795578 -0.03246540203690529 -0.016172440722584724 0.0 0.0 0.0 0.0
2.973 -0.6823784112930298 0.6625881791114807 -0.032917022705078125 -0.0151344183832407 0.0 0.0 0.0 0.0
2.974 -0.6830043196678162 0.6585607528686523 -0.03334745019674301 -0.014302731491625309 0.0 0.0 0.0 0.0
2.975 -0.6796109080314636 0.6627944707870483 -0.033760543912649155 -0.013288854621350765 0.0 0.0 0.0 0.0
2.976 -0.678946852684021 0.6648381352424622 -0.034191012382507324 -0.01227546390146017 0.0 0.0 0.0 0.0
2.977 -0.6793891191482544 0.6617394685745239 -0.03456098213791847 -0.011142454110085964 0.0 0.0 0.0 0.0
2.978 -0.6809317469596863 0.6653103828430176 -0.03480143845081329 -0.010231793858110905 0.0 0.0 0.0 0.0
2.979 -0.6822574734687805 0.6638773679733276 -0.03508811444044113 -0.009471586905419827 0.0 0.0 0.0 0.0
2.98 -0.684942901134491 0.6624473929405212 -0.03528878092765808 -0.008177573792636395 0.0 0.0 0.0 0.0
2.981 -0.6803992986679077 0.6667441725730896 -0.03563237562775612 -0.007049906067550182 0.0 0.0 0.0 0.0
2.982 -0.6810533404350281 0.6691176891326904 -0.035799432545900345 -0.006075471639633179 0.0 0.0 0.0 0.0
2.983 -0.6840499639511108 0.6687077879905701 -0.03590527921915054 -0.0051819272339344025 0.0 0.0 0.0 0.0
2.984 -0.6761298775672913 0.6714152693748474 -0.03611215204000473 -0.00372873991727829 0.0 0.0 0.0 0.0
2.985 -0.6788580417633057 0.6706434488296509 -0.036204542964696884 -0.002823405899107456 0.0 0.0 0.0 0.0
2.986 -0.6843574643135071 0.6635130047798157 -0.03613556921482086 -0.002117954194545746 0.0 0.0 0.0 0.0
2.987 -0.6792771816253662 0.6713172793388367 -0.036159150302410126 -0.00040820613503456116 0.0 0.0 0.0 0.0
2.988 -0.6811279058456421 0.6698561906814575 -0.03621143102645874 0.00015506334602832794 0.0 0.0 0.0 0.0
2.989 -0.6814345717430115 0.6728097200393677 -0.0361584834754467 0.0014567552134394646 0.0 0.0 0.0 0.0
2.99 -0.6796628832817078 0.6727433204650879 -0.036076661199331284 0.0025968635454773903 0.0 0.0 0.0 0.0
2.991 -0.6826234459877014 0.6704636216163635 -0.03601028025150299 0.0036328528076410294 0.0 0.0 0.0 0.0
2.992 -0.6822023987770081 0.6701980233192444 -0.035823754966259 0.0046576932072639465 0.0 0.0 0.0 0.0
2.993 -0.6817846298217773 0.6728930473327637 -0.03565550595521927 0.0057585956528782845 0.0 0.0 0.0 0.0
2.994 -0.6840927600860596 0.6728003025054932 -0.03552192449569702 0.006694666109979153 0.0 0.0 0.0 0.0
2.995 -0.682486355304718 0.6714118719100952 -0.03525941073894501 0.007821300998330116 0.0 0.0 0.0 0.0
2.996 -0.6805197596549988 0.6757113933563232 -0.035070087760686874 0.008883052505552769 0.0 0.0 0.0 0.0
2.997 -0.6841562390327454 0.6748239994049072 -0.03477954864501953 0.00994401890784502 0.0 0.0 0.0 0.0
2.998 -0.6822689175605774 0.6739445328712463 -0.03447161614894867 0.01095410343259573 0.0 0.0 0.0 0.0
2.999 -0.683100163936615 0.6735836267471313 -0.03416522219777107 0.011955156922340393 0.0 0.0 0.0 0.0
3.0 -0.684078574180603 0.677348792552948 -0.033894654363393784 0.012993158772587776 0.0 0.0 0.0 0.0
3.001 -0.6881157159805298 0.6717459559440613 -0.022962180897593498 0.018308069556951523 0.0 0.0 0.0 0.0
3.002 -0.6838626265525818 0.6776185035705566 -0.022445499897003174 0.01902521774172783 0.0 0.0 0.0 0.0
3.003 -0.6817508935928345 0.6791484355926514 -0.02209175005555153 0.019638214260339737 0.0 0.0 0.0 0.0
3.004 -0.6804629564285278 0.6783546209335327 -0.021575186401605606 0.020164813846349716 0.0 0.0 0.0 0.0
3.005 -0.682878315448761 0.6798419952392578 -0.02118505723774433 0.02087208442389965 0.0 0.0 0.0 0.0
3.006 -0.6857620477676392 0.6783750057220459 -0.020819619297981262 0.021480662748217583 0.0 0.0 0.0 0.0
3.007 -0.6837640404701233 0.6797524690628052 -0.02037726528942585 0.022063441574573517 0.0 0.0 0.0 0.0
3.008 -0.6838025450706482 0.6786667704582214 -0.019878597930073738 0.022626865655183792 0.0 0.0 0.0 0.0
3.009 -0.6853181719779968 0.677273690700531 -0.01939396746456623 0.02323152869939804 0.0 0.0 0.0 0.0
3.01 -0.6818893551826477 0.683197557926178 -0.018779590725898743 0.024059360846877098 0.0 0.0 0.0 0.0
3.011 -0.682356059551239 0.6822800636291504 -0.018315264955163002 0.02454461343586445 0.0 0.0 0.0 0.0
3.012 -0.6794281005859375 0.6883438229560852 -0.01765616610646248 0.02531844563782215 0.0 0.0 0.0 0.0
3.013 -0.6882520318031311 0.6782430410385132 -0.017370235174894333 0.025645239278674126 0.0 0.0 0.0 0.0
3.014 -0.6812616586685181 0.6830076575279236 -0.016553090885281563 0.026258908212184906 0.0 0.0 0.0 0.0
3.015 -0.6812593340873718 0.6831257939338684 -0.016132382676005363 0.02689548023045063 0.0 0.0 0.0 0.0
3.016 -0.6843136548995972 0.6838729381561279 -0.01558611635118723 0.027462052181363106 0.0 0.0 0.0 0.0
3.017 -0.6845434308052063 0.6835529208183289 -0.014934725128114223 0.028191078454256058 0.0 0.0 0.0 0.0
3.018 -0.6863852143287659 0.6862116456031799 -0.014269080944359303 0.028856150805950165 0.0 0.0 0.0 0.0
3.019 -0.6805118918418884 0.6915846467018127 -0.013499769382178783 0.029446283355355263 0.0 0.0 0.0 0.0
3.02 -0.686703085899353 0.6817079782485962 -0.013002287596464157 0.02980761043727398 0.0 0.0 0.0 0.0
3.021 -0.6803082227706909 0.6866980195045471 -0.011921914294362068 0.030537012964487076 0.0 0.0 0.0 0.0
3.022 -0.6793173551559448 0.6871964931488037 -0.011226913891732693 0.031118180602788925 0.0 0.0 0.0 0.0
3.023 -0.6818662881851196 0.6903452277183533 -0.01055952999740839 0.031708478927612305 0.0 0.0 0.0 0.0
3.024 -0.6888272166252136 0.686764657497406 -0.010010911151766777 0.03226127848029137 0.0 0.0 0.0 0.0
3.025 -0.6824068427085876 0.6881974339485168 -0.008787811733782291 0.032733868807554245 0.0 0.0 0.0 0.0
3.026 -0.6808182001113892 0.6916348934173584 -0.007937408052384853 0.033270061016082764 0.0 0.0 0.0 0.0
3.027 -0.6824032068252563 0.6915872097015381 -0.007041912525892258 0.03385476395487785 0.0 0.0 0.0 0.0
3.028 -0.6824507117271423 0.6880844235420227 -0.006048046983778477 0.034303802996873856 0.0 0.0 0.0 0.0
3.029 -0.6805118918418884 0.6939657926559448 -0.005072448402643204 0.03481202572584152 0.0 0.0 0.0 0.0
3.03 -0.6847198605537415 0.6909226775169373 -0.004326055757701397 0.03522751107811928 0.0 0.0 0.0 0.0
3.031 -0.6799048185348511 0.6927468776702881 -0.002935962751507759 0.03578164055943489 0.0 0.0 0.0 0.0
3.032 -0.6821621060371399 0.6945172548294067 -0.0018956707790493965 0.036175016313791275 0.0 0.0 0.0 0.0
3.033 -0.6794471740722656 0.696313202381134 -0.0008414052426815033 0.036563653498888016 0.0 0.0 0.0 0.0
3.034 -0.6855233311653137 0.6901607513427734 0.00013914424926042557 0.03688778355717659 0.0 0.0 0.0 0.0
3.035 -0.6845386028289795 0.6934691071510315 0.0014411713927984238 0.037284571677446365 0.0 0.0 0.0 0.0
3.036 -0.6826927065849304 0.6987782120704651 0.0026181768625974655 0.03768540173768997 0.0 0.0 0.0 0.0
3.037 -0.6821438074111938 0.6950666904449463 0.00398607924580574 0.03779256343841553 0.0 0.0 0.0 0.0
3.038 -0.6836796402931213 0.6959870457649231 0.005249082110822201 0.038003552705049515 0.0 0.0 0.0 0.0
3.039 -0.6816762089729309 0.6974442005157471 0.0065721264109015465 0.03820725902915001 0.0 0.0 0.0 0.0
3.04 -0.6852948069572449 0.6953582763671875 0.007752738893032074 0.038238026201725006 0.0 0.0 0.0 0.0
3.041 -0.6841531991958618 0.6967178583145142 0.009225658141076565 0.03846588358283043 0.0 0.0 0.0 0.0
3.042 -0.6853662133216858 0.6966140866279602 0.010691222734749317 0.03839080408215523 0.0 0.0 0.0 0.0
3.043 -0.6815651655197144 0.6965563893318176 0.012249981053173542 0.038291219621896744 0.0 0.0 0.0 0.0
3.044 -0.6804652810096741 0.7004193067550659 0.013837125152349472 0.038302600383758545 0.0 0.0 0.0 0.0
3.045 -0.6836016774177551 0.6991437673568726 0.015299572609364986 0.03811714053153992 0.0 0.0 0.0 0.0
3.046 -0.6825881004333496 0.6994472742080688 0.016721390187740326 0.03787315636873245 0.0 0.0 0.0 0.0
3.047 -0.6810265183448792 0.7020143866539001 0.018185734748840332 0.03766334056854248 0.0 0.0 0.0 0.0
3.048 -0.6858654618263245 0.6974385976791382 0.019568465650081635 0.03731446713209152 0.0 0.0 0.0 0.0
3.049 -0.6850404143333435 0.6995704174041748 0.021278362721204758 0.036764852702617645 0.0 0.0 0.0 0.0
3.05 -0.6833828091621399 0.7018804550170898 0.022850416600704193 0.03646562620997429 0.0 0.0 0.0 0.0
3.051 -0.6820777654647827 0.7026735544204712 0.02455923520028591 0.03568628802895546 0.0 0.0 0.0 0.0
3.052 -0.6841943264007568 0.6999191641807556 0.02598249725997448 0.0350075326859951 0.0 0.0 0.0 0.0
3.053 -0.680622935295105 0.7058936953544617 0.027750298380851746 0.034268107265233994 0.0 0.0 0.0 0.0
3.054 -0.6845696568489075 0.7038137316703796 0.02904430776834488 0.0335109569132328 0.0 0.0 0.0 0.0
3.055 -0.6826612949371338 0.7037220597267151 0.030748168006539345 0.03254532068967819 0.0 0.0 0.0 0.0
3.056 -0.6835818290710449 0.7018463611602783 0.032050229609012604 0.0316186361014843 0.0 0.0 0.0 0.0
3.057 -0.6797351837158203 0.7057132124900818 0.03376413509249687 0.030463984236121178 0.0 0.0 0.0 0.0
3.058 -0.6807448863983154 0.7068294882774353 0.035214588046073914 0.029362879693508148 0.0 0.0 0.0 0.0
3.059 -0.6833251714706421 0.7039134502410889 0.03655214607715607 0.027927059680223465 0.0 0.0 0.0 0.0
3.06 -0.6810521483421326 0.7036433219909668 0.03798762336373329 0.026457395404577255 0.0 0.0 0.0 0.0
3.061 -0.6875287890434265 0.7039523124694824 0.03896474465727806 0.025350401178002357 0.0 0.0 0.0 0.0
3.062 -0.6852208375930786 0.7044059038162231 0.040256861597299576 0.024019094184041023 0.0 0.0 0.0 0.0
3.063 -0.6814573407173157 0.7072086334228516 0.04157709702849388 0.022176455706357956 0.0 0.0 0.0 0.0
3.064 -0.6810461282730103 0.708971381187439 0.04266292229294777 0.020554035902023315 0.0 0.0 0.0 0.0
3.065 -0.6859230399131775 0.7054311037063599 0.043595850467681885 0.018931368365883827 0.0 0.0 0.0 0.0
3.066 -0.688309907913208 0.7018709182739258 0.04453299939632416 0.017205476760864258 0.0 0.0 0.0 0.0
3.067 -0.6818679571151733 0.7092301845550537 0.045479822903871536 0.015240670181810856 0.0 0.0 0.0 0.0
3.068 -0.682072639465332 0.7098477482795715 0.04629070311784744 0.013367234729230404 0.0 0.0 0.0 0.0
3.069 -0.6849083304405212 0.708371639251709 0.04685744270682335 0.011413177475333214 0.0 0.0 0.0 0.0
3.07 -0.6890642642974854 0.7081779837608337 0.04739902913570404 0.009446284733712673 0.0 0.0 0.0 0.0
3.071 -0.6807103157043457 0.7127825617790222 0.047969214618206024 0.007418942637741566 0.0 0.0 0.0 0.0
3.072 -0.6863325238227844 0.7076778411865234 0.04828784987330437 0.005469948053359985 0.0 0.0 0.0 0.0
3.073 -0.6835948824882507 0.7097474932670593 0.04857061058282852 0.0033746017143130302 0.0 0.0 0.0 0.0
3.074 -0.6820022463798523 0.7132762670516968 0.04876808077096939 0.0011068498715758324 0.0 0.0 0.0 0.0
3.075 -0.684271514415741 0.7119079232215881 0.04883025959134102 -0.0006273388862609863 0.0 0.0 0.0 0.0
3.076 -0.6814594268798828 0.7114347219467163 0.04872536659240723 -0.0029353899881243706 0.0 0.0 0.0 0.0
3.077 -0.6832329034805298 0.7126671075820923 0.04856003448367119 -0.00514175184071064 0.0 0.0 0.0 0.0
3.078 -0.681087851524353 0.7144185304641724 0.0482989139854908 -0.007082461379468441 0.0 0.0 0.0 0.0
3.079 -0.6831668615341187 0.7164773941040039 0.04796123504638672 -0.00928665604442358 0.0 0.0 0.0 0.0
3.08 -0.6857737898826599 0.7122517824172974 0.047478169202804565 -0.011151548475027084 0.0 0.0 0.0 0.0
3.081 -0.6833553314208984 0.7160579562187195 0.04683472961187363 -0.01340852677822113 0.0 0.0 0.0 0.0
3.082 -0.6826826333999634 0.7187937498092651 0.04627981036901474 -0.015196618624031544 0.0 0.0 0.0 0.0
3.083 -0.6832870244979858 0.715549111366272 0.045377109199762344 -0.01723402552306652 0.0 0.0 0.0 0.0
3.084 -0.6794818639755249 0.718110203742981 0.04441104084253311 -0.019138891249895096 0.0 0.0 0.0 0.0
3.085 -0.6828790903091431 0.718424379825592 0.043560437858104706 -0.020932329818606377 0.0 0.0 0.0 0.0
3.086 -0.6866792440414429 0.7160574793815613 0.04255947470664978 -0.02260383404791355 0.0 0.0 0.0 0.0
3.087 -0.6835631132125854 0.7183105945587158 0.04121875390410423 -0.024694837629795074 0.0 0.0 0.0 0.0
3.088 -0.687386691570282 0.7181979417800903 0.040288373827934265 -0.025990787893533707 0.0 0.0 0.0 0.0
3.089 -0.6845359802246094 0.7183889746665955 0.03879856690764427 -0.027560528367757797 0.0 0.0 0.0 0.0
3.09 -0.6848359107971191 0.71916264295578 0.037388402968645096 -0.02915194071829319 0.0 0.0 0.0 0.0
3.091 -0.6823613047599792 0.7223315238952637 0.0359351821243763 -0.030646607279777527 0.0 0.0 0.0 0.0
3.092 -0.6840465664863586 0.7203698754310608 0.03461490571498871 -0.03167599439620972 0.0 0.0 0.0 0.0
3.093 -0.691031277179718 0.715809166431427 0.033105313777923584 -0.03298569843173027 0.0 0.0 0.0 0.0
3.094 -0.6812761425971985 0.7230545878410339 0.03123881295323372 -0.03433329239487648 0.0 0.0 0.0 0.0
3.095 -0.6833446025848389 0.7226437330245972 0.029729653149843216 -0.03535691276192665 0.0 0.0 0.0 0.0
3.096 -0.6857826709747314 0.7202422022819519 0.028130261227488518 -0.03615936264395714 0.0 0.0 0.0 0.0
3.097 -0.6854081153869629 0.7194082140922546 0.026369767263531685 -0.03701670095324516 0.0 0.0 0.0 0.0
3.098 -0.6816858053207397 0.7243099212646484 0.024569643661379814 -0.037898845970630646 0.0 0.0 0.0 0.0
3.099 -0.6835165023803711 0.7243580222129822 0.02278468757867813 -0.03866051882505417 0.0 0.0 0.0 0.0
3.1 -0.6827751994132996 0.7257229685783386 0.021055126562714577 -0.039291493594646454 0.0 0.0 0.0 0.0
3.101 -0.6842511296272278 0.7240395545959473 0.019210753962397575 -0.03975176066160202 0.0 0.0 0.0 0.0
3.102 -0.6853775978088379 0.7219910621643066 0.017578886821866035 -0.04005134105682373 0.0 0.0 0.0 0.0
3.103 -0.6817145943641663 0.7272352576255798 0.015568776987493038 -0.04050590097904205 0.0 0.0 0.0 0.0
3.104 -0.6874595284461975 0.7225877642631531 0.014349005185067654 -0.040576349943876266 0.0 0.0 0.0 0.0
3.105 -0.6857950091362 0.7243046760559082 0.012439141049981117 -0.04072072356939316 0.0 0.0 0.0 0.0
3.106 -0.6865231990814209 0.7249303460121155 0.0108597781509161 -0.04082069545984268 0.0 0.0 0.0 0.0
3.107 -0.6840445399284363 0.7281779050827026 0.008979612961411476 -0.04087202250957489 0.0 0.0 0.0 0.0
3.108 -0.6840101480484009 0.7358902096748352 0.007247272878885269 -0.041115231812000275 0.0 0.0 0.0 0.0
3.109 -0.685897707939148 0.7258458137512207 0.005873239599168301 -0.04053352773189545 0.0 0.0 0.0 0.0
3.11 -0.6841842532157898 0.7292881011962891 0.004280376248061657 -0.04030938819050789 0.0 0.0 0.0 0.0
3.111 -0.6850588321685791 0.7278965711593628 0.002683190628886223 -0.0398876816034317 0.0 0.0 0.0 0.0
3.112 -0.6815469264984131 0.7308638095855713 0.0007927427068352699 -0.0395851694047451 0.0 0.0 0.0 0.0
3.113 -0.687537670135498 0.7264837622642517 -0.0002056872472167015 -0.03920925036072731 0.0 0.0 0.0 0.0
3.114 -0.6799674034118652 0.7352014183998108 -0.0018389886245131493 -0.03870244696736336 0.0 0.0 0.0 0.0
3.115 -0.6907227039337158 0.7259490489959717 -0.002752506174147129 -0.038297880440950394 0.0 0.0 0.0 0.0
3.116 -0.6858755350112915 0.7300217747688293 -0.004321664571762085 -0.03765208274126053 0.0 0.0 0.0 0.0
3.117 -0.6850870251655579 0.7312906980514526 -0.005576322786509991 -0.037140123546123505 0.0 0.0 0.0 0.0
3.118 -0.6856133341789246 0.7314419746398926 -0.006634429097175598 -0.0365116223692894 0.0 0.0 0.0 0.0
3.119 -0.6859532594680786 0.7311260104179382 -0.007988054305315018 -0.03582543879747391 0.0 0.0 0.0 0.0
3.12 -0.6834713220596313 0.7340822219848633 -0.008955970406532288 -0.03510743007063866 0.0 0.0 0.0 0.0
3.121 -0.6854029297828674 0.7331915497779846 -0.009995563887059689 -0.03449408337473869 0.0 0.0 0.0 0.0
3.122 -0.6865835189819336 0.732562780380249 -0.011113528162240982 -0.03362871706485748 0.0 0.0 0.0 0.0
3.123 -0.6844594478607178 0.7354885935783386 -0.01200035773217678 -0.032976165413856506 0.0 0.0 0.0 0.0
3.124 -0.685042142868042 0.7345240116119385 -0.012900348752737045 -0.03218992426991463 0.0 0.0 0.0 0.0
3.125 -0.6885952353477478 0.7317672371864319 -0.013698100112378597 -0.03136153891682625 0.0 0.0 0.0 0.0
3.126 -0.6857289671897888 0.7356258630752563 -0.014534435234963894 -0.03058263659477234 0.0 0.0 0.0 0.0
3.127 -0.6850571632385254 0.7375780344009399 -0.015218248590826988 -0.02977813594043255 0.0 0.0 0.0 0.0
3.128 -0.6859672665596008 0.7362340092658997 -0.01609235443174839 -0.028908831998705864 0.0 0.0 0.0 0.0
3.129 -0.688156247138977 0.7361236214637756 -0.01661256141960621 -0.028217710554599762 0.0 0.0 0.0 0.0
3.13 -0.6837136149406433 0.7389313578605652 -0.017326461151242256 -0.02734539844095707 0.0 0.0 0.0 0.0
3.131 -0.685550332069397 0.738082766532898 -0.017986992374062538 -0.026542548090219498 0.0 0.0 0.0 0.0
3.132 -0.6830649971961975 0.7360925078392029 -0.01859508641064167 -0.025693517178297043 0.0 0.0 0.0 0.0
3.133 -0.6824561953544617 0.7410496473312378 -0.01914910599589348 -0.024821698665618896 0.0 0.0 0.0 0.0
3.134 -0.682805061340332 0.7416302561759949 -0.0196484737098217 -0.024037618190050125 0.0 0.0 0.0 0.0
3.135 -0.6858325600624084 0.7398260235786438 -0.019984357059001923 -0.023274602368474007 0.0 0.0 0.0 0.0
3.136 -0.686951756477356 0.740128755569458 -0.020413164049386978 -0.022477099671959877 0.0 0.0 0.0 0.0
3.137 -0.6811408996582031 0.7444702982902527 -0.020942822098731995 -0.021702636033296585 0.0 0.0 0.0 0.0
3.138 -0.6868444085121155 0.7404265403747559 -0.02110263518989086 -0.02093597687780857 0.0 0.0 0.0 0.0
3.139 -0.6873277425765991 0.7402399778366089 -0.021467283368110657 -0.0202194657176733 0.0 0.0 0.0 0.0
3.14 -0.6847450733184814 0.7420185208320618 -0.021881116554141045 -0.01946105994284153 0.0 0.0 0.0 0.0
3.141 -0.6829730272293091 0.7436500787734985 -0.02219509147107601 -0.0186455138027668 0.0 0.0 0.0 0.0
3.142 -0.6857958436012268 0.7439417243003845 -0.02249125950038433 -0.017813686281442642 0.0 0.0 0.0 0.0
3.143 -0.6860700249671936 0.7421576380729675 -0.02264910750091076 -0.017257612198591232 0.0 0.0 0.0 0.0
3.144 -0.6858707070350647 0.7456133365631104 -0.022828400135040283 -0.01643410511314869 0.0 0.0 0.0 0.0
3.145 -0.6853893995285034 0.744886040687561 -0.023062849417328835 -0.01572217419743538 0.0 0.0 0.0 0.0
3.146 -0.6832216382026672 0.7474047541618347 -0.023445630446076393 -0.01492550689727068 0.0 0.0 0.0 0.0
3.147 -0.6841169595718384 0.7438433170318604 -0.023574966937303543 -0.014299088157713413 0.0 0.0 0.0 0.0
3.148 -0.6859059929847717 0.7470704913139343 -0.023551810532808304 -0.01373384241014719 0.0 0.0 0.0 0.0
3.149 -0.6818154454231262 0.7489429116249084 -0.02388385310769081 -0.012867696583271027 0.0 0.0 0.0 0.0
3.15 -0.6837164759635925 0.7478637099266052 -0.023971548303961754 -0.0123308589681983 0.0 0.0 0.0 0.0
3.151 -0.687743067741394 0.7445482611656189 -0.024009086191654205 -0.01171516440808773 0.0 0.0 0.0 0.0
3.152 -0.6853764057159424 0.7470077276229858 -0.024192046374082565 -0.011066703125834465 0.0 0.0 0.0 0.0
3.153 -0.6839935183525085 0.7487361431121826 -0.024272091686725616 -0.010359876789152622 0.0 0.0 0.0 0.0
3.154 -0.6827325820922852 0.7484312653541565 -0.024432245641946793 -0.009614848531782627 0.0 0.0 0.0 0.0
3.155 -0.6792442202568054 0.7543832063674927 -0.024550694972276688 -0.00892091728746891 0.0 0.0 0.0 0.0
3.156 -0.6862046122550964 0.7501047849655151 -0.024500327184796333 -0.008401179686188698 0.0 0.0 0.0 0.0
3.157 -0.6844048500061035 0.7490327954292297 -0.02463640831410885 -0.007852699607610703 0.0 0.0 0.0 0.0
3.158 -0.6802055239677429 0.7541760802268982 -0.024651791900396347 -0.00712395366281271 0.0 0.0 0.0 0.0
3.159 -0.6833840012550354 0.7521103024482727 -0.024659577757120132 -0.0067331837490201 0.0 0.0 0.0 0.0
3.16 -0.6891822218894958 0.7474029064178467 -0.024765685200691223 -0.006098557263612747 0.0 0.0 0.0 0.0
3.161 -0.6838664412498474 0.7527608275413513 -0.024747585877776146 -0.005478191189467907 0.0 0.0 0.0 0.0
3.162 -0.681293785572052 0.7562705278396606 -0.02480193041265011 -0.004806517623364925 0.0 0.0 0.0 0.0
3.163 -0.6846299171447754 0.7532983422279358 -0.02477034367620945 -0.004359964281320572 0.0 0.0 0.0 0.0
3.164 -0.6826565265655518 0.7539549469947815 -0.02488318458199501 -0.0037333453074097633 0.0 0.0 0.0 0.0
3.165 -0.6833158731460571 0.7565048933029175 -0.024803314357995987 -0.0031859315931797028 0.0 0.0 0.0 0.0
3.166 -0.6824102401733398 0.7553519606590271 -0.02476429007947445 -0.002659149467945099 0.0 0.0 0.0 0.0
3.167 -0.6831757426261902 0.7548696398735046 -0.024856507778167725 -0.00201498344540596 0.0 0.0 0.0 0.0
3.168 -0.6836104393005371 0.7558349967002869 -0.02480783313512802 -0.0016327155753970146 0.0 0.0 0.0 0.0
3.169 -0.6820645928382874 0.7565597295761108 -0.024819152429699898 -0.000998329371213913 0.0 0.0 0.0 0.0
3.17 -0.6826333403587341 0.7577188611030579 -0.024757830426096916 -0.00028881989419460297 0.0 0.0 0.0 0.0
3.171 -0.679776668548584 0.7593449354171753 -0.024755464866757393 0.00022473372519016266 0.0 0.0 0.0 0.0
3.172 -0.6827325820922852 0.7581124305725098 -0.024754013866186142 0.0007166331633925438 0.0 0.0 0.0 0.0
3.173 -0.6805428862571716 0.7602438926696777 -0.024600112810730934 0.0012756595388054848 0.0 0.0 0.0 0.0
3.174 -0.6814510822296143 0.7600722312927246 -0.024630803614854813 0.0018682479858398438 0.0 0.0 0.0 0.0
3.175 -0.6853246688842773 0.7567504644393921 -0.02451321855187416 0.0023529184982180595 0.0 0.0 0.0 0.0
3.176 -0.679533839225769 0.7609408497810364 -0.024515235796570778 0.002935050055384636 0.0 0.0 0.0 0.0
3.177 -0.6815302968025208 0.759192943572998 -0.02437996305525303 0.0034549031406641006 0.0 0.0 0.0 0.0
3.178 -0.679700493812561 0.7618039846420288 -0.024271460250020027 0.004092566668987274 0.0 0.0 0.0 0.0
3.179 -0.6830308437347412 0.7595506906509399 -0.02429022081196308 0.004487259313464165 0.0 0.0 0.0 0.0
3.18 -0.6774207353591919 0.7686368823051453 -0.024131687358021736 0.005194514989852905 0.0 0.0 0.0 0.0
3.181 -0.6816335916519165 0.7631806135177612 -0.024115532636642456 0.00552664790302515 0.0 0.0 0.0 0.0
3.182 -0.6836104989051819 0.7608897686004639 -0.02408377081155777 0.006024417467415333 0.0 0.0 0.0 0.0
3.183 -0.6792701482772827 0.7631378173828125 -0.023841340094804764 0.006714066490530968 0.0 0.0 0.0 0.0
3.184 -0.6827078461647034 0.764540433883667 -0.023748666048049927 0.007193784229457378 0.0 0.0 0.0 0.0
3.185 -0.6830666065216064 0.7617183923721313 -0.023668061941862106 0.007704814895987511 0.0 0.0 0.0 0.0
3.186 -0.6803761720657349 0.7652207016944885 -0.023563582450151443 0.008323675021529198 0.0 0.0 0.0 0.0
3.187 -0.680636465549469 0.7667170166969299 -0.023382054641842842 0.0089531559497118 0.0 0.0 0.0 0.0
3.188 -0.6841895580291748 0.7620919346809387 -0.023271720856428146 0.009565785527229309 0.0 0.0 0.0 0.0
3.189 -0.676934540271759 0.767611563205719 -0.023038387298583984 0.010131822898983955 0.0 0.0 0.0 0.0
3.19 -0.6805247664451599 0.7681179046630859 -0.022995050996541977 0.010698600672185421 0.0 0.0 0.0 0.0
3.191 -0.6825230121612549 0.7659913301467896 -0.022757448256015778 0.011210721917450428 0.0 0.0 0.0 0.0
3.192 -0.6786828637123108 0.7683054208755493 -0.022520456463098526 0.011888638138771057 0.0 0.0 0.0 0.0
3.193 -0.6812855005264282 0.7685788869857788 -0.022401276975870132 0.012365754693746567 0.0 0.0 0.0 0.0
3.194 -0.6819842457771301 0.7671176195144653 -0.022196777164936066 0.013047497719526291 0.0 0.0 0.0 0.0
3.195 -0.6809326410293579 0.7684354782104492 -0.022031493484973907 0.013561229221522808 0.0 0.0 0.0 0.0
3.196 -0.6780403256416321 0.7708556056022644 -0.021784812211990356 0.014149270951747894 0.0 0.0 0.0 0.0
3.197 -0.6817314624786377 0.7694401741027832 -0.02155805379152298 0.014638005755841732 0.0 0.0 0.0 0.0
3.198 -0.6795051693916321 0.7701624631881714 -0.021237000823020935 0.015414976514875889 0.0 0.0 0.0 0.0
3.199 -0.6766917109489441 0.7728621959686279 -0.02092624455690384 0.015935540199279785 0.0 0.0 0.0 0.0
3.2 -0.6828892230987549 0.7680498957633972 -0.02085944451391697 0.016374053433537483 0.0 0.0 0.0 0.0
3.201 -0.6815102696418762 0.7704285383224487 -0.020431367680430412 0.017218314111232758 0.0 0.0 0.0 0.0
3.202 -0.6787902116775513 0.7724704146385193 -0.020130956545472145 0.017733342945575714 0.0 0.0 0.0 0.0
3.203 -0.6787751913070679 0.7737307548522949 -0.01981695368885994 0.018352868035435677 0.0 0.0 0.0 0.0
3.204 -0.6837387681007385 0.7758938670158386 -0.019527964293956757 0.019040251150727272 0.0 0.0 0.0 0.0
3.205 -0.6768699288368225 0.7738706469535828 -0.01896236091852188 0.01963054947555065 0.0 0.0 0.0 0.0
3.206 -0.6781476736068726 0.7746723294258118 -0.018670381978154182 0.020278170704841614 0.0 0.0 0.0 0.0
3.207 -0.6822391748428345 0.7727876305580139 -0.018481777980923653 0.02069973014295101 0.0 0.0 0.0 0.0
3.208 -0.6777086853981018 0.7773672938346863 -0.017923524603247643 0.021499011665582657 0.0 0.0 0.0 0.0
3.209 -0.6753621101379395 0.777624249458313 -0.017491072416305542 0.022080212831497192 0.0 0.0 0.0 0.0
3.21 -0.6781975626945496 0.7778142094612122 -0.017085138708353043 0.022625965997576714 0.0 0.0 0.0 0.0
3.211 -0.6787629723548889 0.7751664519309998 -0.01642906852066517 0.023311031982302666 0.0 0.0 0.0 0.0
3.212 -0.6762101650238037 0.779127836227417 -0.015925375744700432 0.023923611268401146 0.0 0.0 0.0 0.0
3.213 -0.6754907369613647 0.7792222499847412 -0.015406446531414986 0.024426493793725967 0.0 0.0 0.0 0.0
3.214 -0.6815774440765381 0.7764695882797241 -0.015005468390882015 0.025021733716130257 0.0 0.0 0.0 0.0
3.215 -0.6763343214988708 0.7795455455780029 -0.014308360405266285 0.025732768699526787 0.0 0.0 0.0 0.0
3.216 -0.6786934733390808 0.7803420424461365 -0.013960146345198154 0.026172572746872902 0.0 0.0 0.0 0.0
3.217 -0.6772683262825012 0.7805609703063965 -0.013165273703634739 0.026824958622455597 0.0 0.0 0.0 0.0
3.218 -0.677817165851593 0.7796977162361145 -0.012562355026602745 0.02746816724538803 0.0 0.0 0.0 0.0
3.219 -0.6765323877334595 0.7821313738822937 -0.01181352324783802 0.028009172528982162 0.0 0.0 0.0 0.0
3.22 -0.6747532486915588 0.7843109965324402 -0.011149651370942593 0.028567392379045486 0.0 0.0 0.0 0.0
3.221 -0.6781144142150879 0.7814322710037231 -0.010205798782408237 0.02923615276813507 0.0 0.0 0.0 0.0
3.222 -0.6752153635025024 0.7824181318283081 -0.009636218659579754 0.029692208394408226 0.0 0.0 0.0 0.0
3.223 -0.6752777695655823 0.7839414477348328 -0.008931186981499195 0.030200468376278877 0.0 0.0 0.0 0.0
3.224 -0.6765009760856628 0.7843040823936462 -0.008009539917111397 0.030732570216059685 0.0 0.0 0.0 0.0
3.225 -0.6789835691452026 0.7825313806533813 -0.007212627679109573 0.031081238761544228 0.0 0.0 0.0 0.0
3.226 -0.6754884719848633 0.7851318717002869 -0.006257888861000538 0.03170387074351311 0.0 0.0 0.0 0.0
3.227 -0.6783761382102966 0.783694326877594 -0.005545865744352341 0.03207045793533325 0.0 0.0 0.0 0.0
3.228 -0.6789870262145996 0.7902638912200928 -0.004594753496348858 0.03281578794121742 0.0 0.0 0.0 0.0
3.229 -0.6757673025131226 0.7845956683158875 -0.0034788399934768677 0.0329284742474556 0.0 0.0 0.0 0.0
3.23 -0.672444224357605 0.7883799076080322 -0.0025068288668990135 0.03332559019327164 0.0 0.0 0.0 0.0
3.231 -0.672128438949585 0.790202796459198 -0.0014840876683592796 0.033773016184568405 0.0 0.0 0.0 0.0
3.232 -0.6761194467544556 0.7866354584693909 -0.0006839316338300705 0.0339338555932045 0.0 0.0 0.0 0.0
3.233 -0.6728022694587708 0.7899892330169678 0.0006035696715116501 0.034322917461395264 0.0 0.0 0.0 0.0
3.234 -0.6744479537010193 0.7890623211860657 0.0016162684187293053 0.03458990901708603 0.0 0.0 0.0 0.0
3.235 -0.6758221387863159 0.7879061102867126 0.002752021886408329 0.03482644259929657 0.0 0.0 0.0 0.0
3.236 -0.6753355264663696 0.7884851098060608 0.0039004702121019363 0.035079844295978546 0.0 0.0 0.0 0.0
3.237 -0.6753506660461426 0.7876104116439819 0.005193776451051235 0.0351937934756279 0.0 0.0 0.0 0.0
3.238 -0.6723383665084839 0.7925093770027161 0.00634293258190155 0.03532306104898453 0.0 0.0 0.0 0.0
3.239 -0.6742010116577148 0.7906702160835266 0.0073542362079024315 0.035467617213726044 0.0 0.0 0.0 0.0
3.24 -0.6732591390609741 0.7918413877487183 0.008800738491117954 0.03551306575536728 0.0 0.0 0.0 0.0
3.241 -0.6718775033950806 0.7929292321205139 0.01002628542482853 0.035491615533828735 0.0 0.0 0.0 0.0
3.242 -0.6721661686897278 0.7938723564147949 0.011257912032306194 0.03540768846869469 0.0 0.0 0.0 0.0
3.243 -0.6760200262069702 0.792492687702179 0.012470593675971031 0.03541411831974983 0.0 0.0 0.0 0.0
3.244 -0.6743117570877075 0.791530430316925 0.0139085054397583 0.03515405207872391 0.0 0.0 0.0 0.0
3.245 -0.6701376438140869 0.7974264621734619 0.015285169705748558 0.03505336120724678 0.0 0.0 0.0 0.0
3.246 -0.6728973984718323 0.7942059636116028 0.01637483388185501 0.03485521301627159 0.0 0.0 0.0 0.0
3.247 -0.6736775040626526 0.794410228729248 0.0178732518106699 0.03452624753117561 0.0 0.0 0.0 0.0
3.248 -0.6683315634727478 0.7974354028701782 0.019254369661211967 0.034064874053001404 0.0 0.0 0.0 0.0
3.249 -0.6700699329376221 0.7976019978523254 0.02056838572025299 0.0336017981171608 0.0 0.0 0.0 0.0
3.25 -0.6738888025283813 0.7951739430427551 0.02179744467139244 0.03318512439727783 0.0 0.0 0.0 0.0
3.251 -0.6713451743125916 0.7967066168785095 0.02329586260020733 0.032681647688150406 0.0 0.0 0.0 0.0
3.252 -0.6677331328392029 0.7976154685020447 0.02483222261071205 0.031931981444358826 0.0 0.0 0.0 0.0
3.253 -0.6720547080039978 0.7987598180770874 0.02598489820957184 0.03128757327795029 0.0 0.0 0.0 0.0
3.254 -0.6720643639564514 0.7982017397880554 0.02731131576001644 0.030717412009835243 0.0 0.0 0.0 0.0
3.255 -0.6692482829093933 0.801680326461792 0.028669031336903572 0.029886119067668915 0.0 0.0 0.0 0.0
3.256 -0.6702850461006165 0.7985221743583679 0.029764613136649132 0.029202623292803764 0.0 0.0 0.0 0.0
3.257 -0.6707906126976013 0.8006807565689087 0.0311791580170393 0.028096217662096024 0.0 0.0 0.0 0.0
3.258 -0.6701072454452515 0.8008170127868652 0.03240789473056793 0.02712141163647175 0.0 0.0 0.0 0.0
3.259 -0.6696948409080505 0.8019130825996399 0.033584412187337875 0.0261879563331604 0.0 0.0 0.0 0.0
3.26 -0.6709511876106262 0.801753580570221 0.03481905907392502 0.024868594482541084 0.0 0.0 0.0 0.0
3.261 -0.6714084148406982 0.8007500767707825 0.03598719462752342 0.023727379739284515 0.0 0.0 0.0 0.0
3.262 -0.6666973829269409 0.805172324180603 0.03717349097132683 0.02251613698899746 0.0 0.0 0.0 0.0
3.263 -0.6705613136291504 0.8033402562141418 0.03803342953324318 0.02124777063727379 0.0 0.0 0.0 0.0
3.264 -0.6661096811294556 0.8056343197822571 0.03918847814202309 0.019606830552220345 0.0 0.0 0.0 0.0
3.265 -0.670939028263092 0.8053178787231445 0.04010769724845886 0.018465125933289528 0.0 0.0 0.0 0.0
3.266 -0.6692945957183838 0.804965615272522 0.04099026322364807 0.01696632243692875 0.0 0.0 0.0 0.0
3.267 -0.6686832308769226 0.8058696389198303 0.041890546679496765 0.015217101201415062 0.0 0.0 0.0 0.0
3.268 -0.6657588481903076 0.8083203434944153 0.042690638452768326 0.013651796616613865 0.0 0.0 0.0 0.0
3.269 -0.6683400869369507 0.8082473278045654 0.04339428246021271 0.012077538296580315 0.0 0.0 0.0 0.0
3.27 -0.6713510751724243 0.8059956431388855 0.043911222368478775 0.010589247569441795 0.0 0.0 0.0 0.0
3.271 -0.6696840524673462 0.8064058423042297 0.0445740632712841 0.00867402646690607 0.0 0.0 0.0 0.0
3.272 -0.6630048155784607 0.8136810064315796 0.045093853026628494 0.006709384731948376 0.0 0.0 0.0 0.0
3.273 -0.664791464805603 0.8124950528144836 0.04533294588327408 0.004939166828989983 0.0 0.0 0.0 0.0
3.274 -0.6703697443008423 0.805402398109436 0.04567158967256546 0.0034120548516511917 0.0 0.0 0.0 0.0
3.275 -0.6666284203529358 0.8118602633476257 0.04591520130634308 0.0013151830062270164 0.0 0.0 0.0 0.0
3.276 -0.6713862419128418 0.8142211437225342 0.04599669203162193 -0.00016168411821126938 0.0 0.0 0.0 0.0
3.277 -0.6684032678604126 0.8101293444633484 0.04602231830358505 -0.002216087654232979 0.0 0.0 0.0 0.0
3.278 -0.6671321392059326 0.8130274415016174 0.046003904193639755 -0.004231049679219723 0.0 0.0 0.0 0.0
3.279 -0.6655484437942505 0.8141911625862122 0.045871615409851074 -0.006106154061853886 0.0 0.0 0.0 0.0
3.28 -0.6664741635322571 0.8140289783477783 0.04560740664601326 -0.008043534122407436 0.0 0.0 0.0 0.0
3.281 -0.6638798713684082 0.8150835633277893 0.045257408171892166 -0.009810940362513065 0.0 0.0 0.0 0.0
3.282 -0.663572371006012 0.817509114742279 0.0448911227285862 -0.011699948459863663 0.0 0.0 0.0 0.0
3.283 -0.6644925475120544 0.8171923160552979 0.04425685107707977 -0.013393353670835495 0.0 0.0 0.0 0.0
3.284 -0.6673645973205566 0.8161159753799438 0.043724071234464645 -0.015080511569976807 0.0 0.0 0.0 0.0
3.285 -0.6619812250137329 0.8186628818511963 0.0430135615170002 -0.017075031995773315 0.0 0.0 0.0 0.0
3.286 -0.6704885959625244 0.8150007724761963 0.04238041117787361 -0.01837042346596718 0.0 0.0 0.0 0.0
3.287 -0.6662327647209167 0.8178068995475769 0.04149039462208748 -0.020245684310793877 0.0 0.0 0.0 0.0
3.288 -0.6594484448432922 0.8221732974052429 0.04036281257867813 -0.022055046632885933 0.0 0.0 0.0 0.0
3.289 -0.66297447681427 0.8215981721878052 0.039426304399967194 -0.023502830415964127 0.0 0.0 0.0 0.0
3.29 -0.6649429798126221 0.8201065063476562 0.03841694816946983 -0.024812495335936546 0.0 0.0 0.0 0.0
3.291 -0.662067174911499 0.8210098743438721 0.03726853430271149 -0.026250824332237244 0.0 0.0 0.0 0.0
3.292 -0.6595165133476257 0.8242635726928711 0.03598210588097572 -0.02776600420475006 0.0 0.0 0.0 0.0
3.293 -0.6651964783668518 0.8213139772415161 0.034890227019786835 -0.028816841542720795 0.0 0.0 0.0 0.0
3.294 -0.6620879173278809 0.8241629004478455 0.033411137759685516 -0.030321640893816948 0.0 0.0 0.0 0.0
3.295 -0.6595814228057861 0.826151430606842 0.03216554969549179 -0.031321823596954346 0.0 0.0 0.0 0.0
3.296 -0.6625143885612488 0.825322687625885 0.03070211037993431 -0.03243172541260719 0.0 0.0 0.0 0.0
3.297 -0.664593517780304 0.8224006295204163 0.029438598081469536 -0.03329233080148697 0.0 0.0 0.0 0.0
3.298 -0.6599020957946777 0.8281229138374329 0.02804289385676384 -0.034314073622226715 0.0 0.0 0.0 0.0
3.299 -0.6614258289337158 0.8265317678451538 0.026490937918424606 -0.03510894998908043 0.0 0.0 0.0 0.0
3.3 -0.659100353717804 0.8243124485015869 0.024945637211203575 -0.03575161099433899 0.0 0.0 0.0 0.0
3.301 -0.6599815487861633 0.8292000889778137 0.023639757186174393 -0.03664059564471245 0.0 0.0 0.0 0.0
3.302 -0.6597830653190613 0.8297637701034546 0.022261977195739746 -0.037078920751810074 0.0 0.0 0.0 0.0
3.303 -0.6612682342529297 0.8281174898147583 0.02066642977297306 -0.03769524022936821 0.0 0.0 0.0 0.0
3.304 -0.6570730805397034 0.8297524452209473 0.019114477559924126 -0.0382579006254673 0.0 0.0 0.0 0.0
3.305 -0.6611322164535522 0.8306813836097717 0.017995456233620644 -0.038562219589948654 0.0 0.0 0.0 0.0
3.306 -0.6606944799423218 0.830108106136322 0.016157541424036026 -0.0389772467315197 0.0 0.0 0.0 0.0
3.307 -0.6564632654190063 0.8351552486419678 0.014755094423890114 -0.03932208567857742 0.0 0.0 0.0 0.0
3.308 -0.6594915986061096 0.8335266709327698 0.013463570736348629 -0.039579540491104126 0.0 0.0 0.0 0.0
3.309 -0.6599686741828918 0.8336285948753357 0.0118567468598485 -0.039753444492816925 0.0 0.0 0.0 0.0
3.31 -0.6570217609405518 0.8349891304969788 0.010470181703567505 -0.039807625114917755 0.0 0.0 0.0 0.0
3.311 -0.6567932963371277 0.8362109661102295 0.009071866050362587 -0.039977796375751495 0.0 0.0 0.0 0.0
3.312 -0.6594831943511963 0.8359101414680481 0.007722838781774044 -0.039987314492464066 0.0 0.0 0.0 0.0
3.313 -0.654315173625946 0.8386546969413757 0.0062898797914385796 -0.03995686396956444 0.0 0.0 0.0 0.0
3.314 -0.653862476348877 0.8385892510414124 0.005019897595047951 -0.03978913649916649 0.0 0.0 0.0 0.0
3.315 -0.6570426225662231 0.8382704854011536 0.003823339007794857 -0.039783935993909836 0.0 0.0 0.0 0.0
3.316 -0.6551792025566101 0.8399665951728821 0.0024014655500650406 -0.03958998993039131 0.0 0.0 0.0 0.0
3.317 -0.6545425057411194 0.8391890525817871 0.001021452248096466 -0.03938232362270355 0.0 0.0 0.0 0.0
3.318 -0.6579346060752869 0.839390218257904 5.6873075664043427e-05 -0.03918289765715599 0.0 0.0 0.0 0.0
3.319 -0.654561460018158 0.8407458066940308 -0.0013942234218120575 -0.03889454901218414 0.0 0.0 0.0 0.0
3.32 -0.6539453864097595 0.8403491377830505 -0.0026125162839889526 -0.03847894445061684 0.0 0.0 0.0 0.0
3.321 -0.6544210314750671 0.8423839211463928 -0.0036182189360260963 -0.038298700004816055 0.0 0.0 0.0 0.0
3.322 -0.6545823812484741 0.8423249125480652 -0.0047654444351792336 -0.03791196271777153 0.0 0.0 0.0 0.0
3.323 -0.65190190076828 0.8428459763526917 -0.005889249965548515 -0.03738453611731529 0.0 0.0 0.0 0.0
3.324 -0.6503328680992126 0.8437322974205017 -0.0070699360221624374 -0.036919064819812775 0.0 0.0 0.0 0.0
3.325 -0.6519104838371277 0.8444820046424866 -0.00799583736807108 -0.03667668625712395 0.0 0.0 0.0 0.0
3.326 -0.6529808044433594 0.84469074010849 -0.009022366255521774 -0.03624676913022995 0.0 0.0 0.0 0.0
3.327 -0.6463801264762878 0.8499082922935486 -0.01021852158010006 -0.03563433140516281 0.0 0.0 0.0 0.0
3.328 -0.6502140760421753 0.8493500351905823 -0.011156389489769936 -0.03520631045103073 0.0 0.0 0.0 0.0
3.329 -0.652582049369812 0.8455628752708435 -0.01187659427523613 -0.03471352159976959 0.0 0.0 0.0 0.0
3.33 -0.6503738164901733 0.8475020527839661 -0.012795045040547848 -0.034088507294654846 0.0 0.0 0.0 0.0
3.331 -0.6463533639907837 0.8502469062805176 -0.01396187674254179 -0.03342730924487114 0.0 0.0 0.0 0.0
3.332 -0.6490479111671448 0.8494055867195129 -0.014687779359519482 -0.032922305166721344 0.0 0.0 0.0 0.0
3.333 -0.6480333209037781 0.8487279415130615 -0.015586546622216702 -0.032259922474622726 0.0 0.0 0.0 0.0
3.334 -0.6468691825866699 0.8511312007904053 -0.016392434015870094 -0.031818412244319916 0.0 0.0 0.0 0.0
3.335 -0.646441638469696 0.8520273566246033 -0.017013253644108772 -0.031248191371560097 0.0 0.0 0.0 0.0
3.336 -0.6442033648490906 0.8508929014205933 -0.01798895373940468 -0.030356232076883316 0.0 0.0 0.0 0.0
3.337 -0.6417555212974548 0.8565707802772522 -0.018724747002124786 -0.03000325709581375 0.0 0.0 0.0 0.0
3.338 -0.6446680426597595 0.855917751789093 -0.019330909475684166 -0.02942565828561783 0.0 0.0 0.0 0.0
3.339 -0.6435529589653015 0.8537434339523315 -0.020070528611540794 -0.028594613075256348 0.0 0.0 0.0 0.0
3.34 -0.6404314637184143 0.856468141078949 -0.0206840131431818 -0.027978362515568733 0.0 0.0 0.0 0.0
3.341 -0.6411369442939758 0.8577069044113159 -0.021357141435146332 -0.02727927267551422 0.0 0.0 0.0 0.0
3.342 -0.6430638432502747 0.8561996817588806 -0.022041210904717445 -0.026604825630784035 0.0 0.0 0.0 0.0
3.343 -0.6399560570716858 0.8596115112304688 -0.022469807416200638 -0.026176273822784424 0.0 0.0 0.0 0.0
3.344 -0.6437300443649292 0.8565577268600464 -0.023156842216849327 -0.025564540177583694 0.0 0.0 0.0 0.0
3.345 -0.6395147442817688 0.8590225577354431 -0.023692458868026733 -0.024783022701740265 0.0 0.0 0.0 0.0
3.346 -0.6361950635910034 0.8623443841934204 -0.024397315457463264 -0.02404862642288208 0.0 0.0 0.0 0.0
3.347 -0.6382322907447815 0.8632494211196899 -0.024816444143652916 -0.023569202050566673 0.0 0.0 0.0 0.0
3.348 -0.6450528502464294 0.862162172794342 -0.025231344625353813 -0.022941024973988533 0.0 0.0 0.0 0.0
3.349 -0.638720691204071 0.8615943193435669 -0.025988634675741196 -0.022114884108304977 0.0 0.0 0.0 0.0
3.35 -0.6303624510765076 0.8680906891822815 -0.02657959796488285 -0.021318646147847176 0.0 0.0 0.0 0.0
3.351 -0.6382839679718018 0.8627314567565918 -0.027002334594726562 -0.020808761939406395 0.0 0.0 0.0 0.0
3.352 -0.6333487629890442 0.8660954833030701 -0.027469530701637268 -0.01996924914419651 0.0 0.0 0.0 0.0
3.353 -0.6340315341949463 0.8646871447563171 -0.02794669196009636 -0.019109895452857018 0.0 0.0 0.0 0.0
3.354 -0.6354249119758606 0.8655672073364258 -0.0284415390342474 -0.01853710040450096 0.0 0.0 0.0 0.0
3.355 -0.6335471272468567 0.8669097423553467 -0.029029645025730133 -0.0176620464771986 0.0 0.0 0.0 0.0
3.356 -0.6340680718421936 0.866710901260376 -0.029178760945796967 -0.01703772321343422 0.0 0.0 0.0 0.0
3.357 -0.6317579746246338 0.867246687412262 -0.02969222702085972 -0.016238782554864883 0.0 0.0 0.0 0.0
3.358 -0.6328299641609192 0.8676037192344666 -0.03013327345252037 -0.015502695925533772 0.0 0.0 0.0 0.0
3.359 -0.6337125897407532 0.8676669001579285 -0.030360348522663116 -0.014770500361919403 0.0 0.0 0.0 0.0
3.36 -0.6294264197349548 0.8674436211585999 -0.03081352263689041 -0.013894518837332726 0.0 0.0 0.0 0.0
3.361 -0.6300203204154968 0.8690794706344604 -0.031141147017478943 -0.013175709173083305 0.0 0.0 0.0 0.0
3.362 -0.6298492550849915 0.8713268041610718 -0.031473949551582336 -0.012496327981352806 0.0 0.0 0.0 0.0
3.363 -0.6213601231575012 0.8759096264839172 -0.03196210041642189 -0.011470363475382328 0.0 0.0 0.0 0.0
3.364 -0.6287299394607544 0.8732054829597473 -0.03196630999445915 -0.0109955333173275 0.0 0.0 0.0 0.0
3.365 -0.6263458132743835 0.8742204904556274 -0.03248860687017441 -0.010007472708821297 0.0 0.0 0.0 0.0
3.366 -0.6249389052391052 0.8751868605613708 -0.03267967328429222 -0.009463123977184296 0.0 0.0 0.0 0.0
3.367 -0.6215623617172241 0.877297580242157 -0.03285113722085953 -0.008365626446902752 0.0 0.0 0.0 0.0
3.368 -0.6264535784721375 0.8729320168495178 -0.033229175955057144 -0.007610785774886608 0.0 0.0 0.0 0.0
3.369 -0.6184442043304443 0.8790181875228882 -0.03359844163060188 -0.006654567085206509 0.0 0.0 0.0 0.0
3.37 -0.6245810985565186 0.8760308623313904 -0.03372335061430931 -0.006070244126021862 0.0 0.0 0.0 0.0
3.371 -0.6193587183952332 0.8791458606719971 -0.03393242508172989 -0.0049178628250956535 0.0 0.0 0.0 0.0
3.372 -0.6163288950920105 0.8835517168045044 -0.034154392778873444 -0.004367533139884472 0.0 0.0 0.0 0.0
3.373 -0.6223292946815491 0.878567099571228 -0.03434985131025314 -0.003580903634428978 0.0 0.0 0.0 0.0
3.374 -0.6221246719360352 0.8779748678207397 -0.03436163440346718 -0.002644551917910576 0.0 0.0 0.0 0.0
3.375 -0.6187689304351807 0.8813721537590027 -0.034536052495241165 -0.0017457995563745499 0.0 0.0 0.0 0.0
3.376 -0.6184969544410706 0.8832348585128784 -0.03476221114397049 -0.0010349778458476067 0.0 0.0 0.0 0.0
3.377 -0.619688093662262 0.8802672028541565 -0.03491876274347305 -7.223617285490036e-05 0.0 0.0 0.0 0.0
3.378 -0.6162025928497314 0.8827033042907715 -0.035047922283411026 0.0007579037919640541 0.0 0.0 0.0 0.0
3.379 -0.6137740015983582 0.8838112950325012 -0.03505230322480202 0.0017639463767409325 0.0 0.0 0.0 0.0
3.38 -0.6174529194831848 0.8828533887863159 -0.03512352705001831 0.002584262751042843 0.0 0.0 0.0 0.0
3.381 -0.6154121160507202 0.8827088475227356 -0.0352361835539341 0.003549826331436634 0.0 0.0 0.0 0.0
3.382 -0.6097206473350525 0.8885627388954163 -0.035291071981191635 0.004432513378560543 0.0 0.0 0.0 0.0
3.383 -0.6127376556396484 0.8865405917167664 -0.035282716155052185 0.00528707355260849 0.0 0.0 0.0 0.0
3.384 -0.6121519207954407 0.8843523263931274 -0.03533386066555977 0.006236622110009193 0.0 0.0 0.0 0.0
3.385 -0.6113945245742798 0.8864170908927917 -0.035251323133707047 0.007224217057228088 0.0 0.0 0.0 0.0
3.386 -0.6103129982948303 0.8884038329124451 -0.03531477972865105 0.008029062300920486 0.0 0.0 0.0 0.0
3.387 -0.6121047139167786 0.8874937891960144 -0.03504343330860138 0.009087961167097092 0.0 0.0 0.0 0.0
3.388 -0.6084515452384949 0.8876671195030212 -0.035126324743032455 0.010015007108449936 0.0 0.0 0.0 0.0
3.389 -0.6074947714805603 0.8901057839393616 -0.03510762006044388 0.010981209576129913 0.0 0.0 0.0 0.0
3.39 -0.6087300181388855 0.8885129690170288 -0.034857530146837234 0.011983980424702168 0.0 0.0 0.0 0.0
3.391 -0.6044650077819824 0.8917064666748047 -0.034865885972976685 0.012775059789419174 0.0 0.0 0.0 0.0
3.392 -0.6045745611190796 0.8916422128677368 -0.03458556905388832 0.01391055528074503 0.0 0.0 0.0 0.0
3.393 -0.608089029788971 0.888981819152832 -0.03457316756248474 0.014884923584759235 0.0 0.0 0.0 0.0
3.394 -0.6034871339797974 0.8920241594314575 -0.03411250561475754 0.015931200236082077 0.0 0.0 0.0 0.0
3.395 -0.6007473468780518 0.8958419561386108 -0.03397383913397789 0.016778508201241493 0.0 0.0 0.0 0.0
3.396 -0.6050145030021667 0.8899791240692139 -0.03376035764813423 0.017837537452578545 0.0 0.0 0.0 0.0
3.397 -0.6026604771614075 0.8912839293479919 -0.03356097638607025 0.0188448429107666 0.0 0.0 0.0 0.0
3.398 -0.5971137881278992 0.898030161857605 -0.03326944634318352 0.019846320152282715 0.0 0.0 0.0 0.0
3.399 -0.5974469780921936 0.8975762128829956 -0.032827895134687424 0.02079474739730358 0.0 0.0 0.0 0.0
3.4 -0.5988969206809998 0.8937288522720337 -0.032459378242492676 0.021907830610871315 0.0 0.0 0.0 0.0
3.401 -0.5917458534240723 0.8985248804092407 -0.0321662537753582 0.023085951805114746 0.0 0.0 0.0 0.0
3.402 -0.5983898639678955 0.8966927528381348 -0.0319543220102787 0.023768708109855652 0.0 0.0 0.0 0.0
3.403 -0.5959136486053467 0.8973332047462463 -0.031439490616321564 0.024914642795920372 0.0 0.0 0.0 0.0
3.404 -0.5966092348098755 0.8971535563468933 -0.0309124942868948 0.02590028941631317 0.0 0.0 0.0 0.0
3.405 -0.5960500836372375 0.8974918723106384 -0.03037894144654274 0.02711341716349125 0.0 0.0 0.0 0.0
3.406 -0.5977611541748047 0.8965473771095276 -0.029895532876253128 0.02815067209303379 0.0 0.0 0.0 0.0
3.407 -0.5899882912635803 0.9012516736984253 -0.02935304120182991 0.029007352888584137 0.0 0.0 0.0 0.0
3.408 -0.5868160128593445 0.9018540978431702 -0.028514258563518524 0.030209148302674294 0.0 0.0 0.0 0.0
3.409 -0.5938233137130737 0.8991637229919434 -0.02813229337334633 0.03110409900546074 0.0 0.0 0.0 0.0
3.41 -0.5887243747711182 0.902333676815033 -0.027433421462774277 0.03230989724397659 0.0 0.0 0.0 0.0
3.411 -0.5884585976600647 0.9035294651985168 -0.026788709685206413 0.033245012164115906 0.0 0.0 0.0 0.0
3.412 -0.5885530114173889 0.9011808633804321 -0.025993458926677704 0.03426729515194893 0.0 0.0 0.0 0.0
3.413 -0.5872690081596375 0.9033780097961426 -0.025248322635889053 0.03535778447985649 0.0 0.0 0.0 0.0
3.414 -0.5815076231956482 0.9054809808731079 -0.024236280471086502 0.03641907125711441 0.0 0.0 0.0 0.0
3.415 -0.5876137614250183 0.9023653268814087 -0.0237090103328228 0.03730260953307152 0.0 0.0 0.0 0.0
3.416 -0.5851627588272095 0.9035986661911011 -0.022667571902275085 0.038323331624269485 0.0 0.0 0.0 0.0
3.417 -0.5835542678833008 0.9053106307983398 -0.021709797903895378 0.03952242061495781 0.0 0.0 0.0 0.0
3.418 -0.586372435092926 0.9034311175346375 -0.02098086290061474 0.040345195680856705 0.0 0.0 0.0 0.0
3.419 -0.5849586725234985 0.9034395813941956 -0.01985933817923069 0.04126167297363281 0.0 0.0 0.0 0.0
3.42 -0.5841051340103149 0.9099215269088745 -0.018781689926981926 0.0424211323261261 0.0 0.0 0.0 0.0
3.421 -0.5853875875473022 0.8964807987213135 -0.01759747415781021 0.04332408308982849 0.0 0.0 0.0 0.0
3.422 -0.5835056304931641 0.898758590221405 -0.016384344547986984 0.044088464230298996 0.0 0.0 0.0 0.0
3.423 -0.5860196352005005 0.8954346776008606 -0.015176977030932903 0.04509288817644119 0.0 0.0 0.0 0.0
3.424 -0.5801118016242981 0.9002209901809692 -0.013782322406768799 0.046032946556806564 0.0 0.0 0.0 0.0
3.425 -0.5770620703697205 0.9011712670326233 -0.012680762447416782 0.04686019942164421 0.0 0.0 0.0 0.0
3.426 -0.5826954245567322 0.8977905511856079 -0.011400943621993065 0.0476389117538929 0.0 0.0 0.0 0.0
3.427 -0.5791160464286804 0.8990880250930786 -0.009915446862578392 0.048516396433115005 0.0 0.0 0.0 0.0
3.428 -0.5754671096801758 0.9027944803237915 -0.008444069884717464 0.04935363680124283 0.0 0.0 0.0 0.0
3.429 -0.5752213597297668 0.903793215751648 -0.007028432562947273 0.05015803501009941 0.0 0.0 0.0 0.0
3.43 -0.5796599984169006 0.8993358612060547 -0.005258204415440559 0.05072768032550812 0.0 0.0 0.0 0.0
3.431 -0.5755501389503479 0.9014870524406433 -0.003853866830468178 0.05146102234721184 0.0 0.0 0.0 0.0
3.432 -0.574250340461731 0.9048710465431213 -0.0022057034075260162 0.05231048911809921 0.0 0.0 0.0 0.0
3.433 -0.575847327709198 0.90156090259552 -0.000527496449649334 0.05258446931838989 0.0 0.0 0.0 0.0
3.434 -0.5760112404823303 0.9001172184944153 0.0011015012860298157 0.05319901183247566 0.0 0.0 0.0 0.0
3.435 -0.5676173567771912 0.9053552746772766 0.003128265030682087 0.053640760481357574 0.0 0.0 0.0 0.0
3.436 -0.5760632753372192 0.9030202031135559 0.004621453583240509 0.05429670214653015 0.0 0.0 0.0 0.0
3.437 -0.5615074038505554 0.9100696444511414 0.007307734340429306 0.054405905306339264 0.0 0.0 0.0 0.0
3.438 -0.5629100799560547 0.9089130163192749 0.00882805697619915 0.05481329932808876 0.0 0.0 0.0 0.0
3.439 -0.5747706294059753 0.9031045436859131 0.010341211222112179 0.055111873894929886 0.0 0.0 0.0 0.0
3.44 -0.5653984546661377 0.9071195125579834 0.013097024522721767 0.0551743321120739 0.0 0.0 0.0 0.0
3.441 -0.5571789145469666 0.9136324524879456 0.015279414132237434 0.0552617646753788 0.0 0.0 0.0 0.0
3.442 -0.5704065561294556 0.905415952205658 0.01672479882836342 0.05546597018837929 0.0 0.0 0.0 0.0
3.443 -0.5632801651954651 0.9080067873001099 0.01944824494421482 0.05530856177210808 0.0 0.0 0.0 0.0
3.444 -0.5593304634094238 0.902854859828949 0.021541889756917953 0.054878368973731995 0.0 0.0 0.0 0.0
3.445 -0.5620285868644714 0.909985363483429 0.023868709802627563 0.05489902198314667 0.0 0.0 0.0 0.0
3.446 -0.5635858178138733 0.9073320031166077 0.026153914630413055 0.054485708475112915 0.0 0.0 0.0 0.0
3.447 -0.5565263628959656 0.9103786945343018 0.028601735830307007 0.05415676161646843 0.0 0.0 0.0 0.0
3.448 -0.5571237206459045 0.9101570248603821 0.030688190832734108 0.05354449525475502 0.0 0.0 0.0 0.0
3.449 -0.5572047829627991 0.9107190370559692 0.033120229840278625 0.05271265283226967 0.0 0.0 0.0 0.0
3.45 -0.559319019317627 0.9086486101150513 0.03530261293053627 0.05226684361696243 0.0 0.0 0.0 0.0
3.451 -0.5573200583457947 0.9109081625938416 0.03765444457530975 0.051457639783620834 0.0 0.0 0.0 0.0
3.452 -0.5617604851722717 0.9086808562278748 0.03979330509901047 0.05058291554450989 0.0 0.0 0.0 0.0
3.453 -0.5547696948051453 0.9124210476875305 0.042555369436740875 0.049032773822546005 0.0 0.0 0.0 0.0
3.454 -0.549579381942749 0.9143297076225281 0.04499154910445213 0.04773804917931557 0.0 0.0 0.0 0.0
3.455 -0.5543965697288513 0.9119610786437988 0.046996742486953735 0.04675544798374176 0.0 0.0 0.0 0.0
3.456 -0.5514353513717651 0.9160085916519165 0.04944339022040367 0.0450233556330204 0.0 0.0 0.0 0.0
3.457 -0.5486822128295898 0.915483295917511 0.05158408731222153 0.04358021542429924 0.0 0.0 0.0 0.0
3.458 -0.5538426041603088 0.9143967628479004 0.05398331582546234 0.041703011840581894 0.0 0.0 0.0 0.0
3.459 -0.5477393865585327 0.9147107005119324 0.05611982196569443 0.03971364349126816 0.0 0.0 0.0 0.0
3.46 -0.5480614900588989 0.9144777059555054 0.05825287848711014 0.03759830817580223 0.0 0.0 0.0 0.0
3.461 -0.5440228581428528 0.9175285696983337 0.06033516675233841 0.035411249846220016 0.0 0.0 0.0 0.0
3.462 -0.5441790819168091 0.9168042540550232 0.06237826123833656 0.03303493931889534 0.0 0.0 0.0 0.0
3.463 -0.5472761988639832 0.914980947971344 0.06405534595251083 0.030760133638978004 0.0 0.0 0.0 0.0
3.464 -0.5419756174087524 0.9171323180198669 0.06559567153453827 0.02826690301299095 0.0 0.0 0.0 0.0
3.465 -0.5427021980285645 0.9183995723724365 0.06731681525707245 0.025446685031056404 0.0 0.0 0.0 0.0
3.466 -0.5426731109619141 0.9177582263946533 0.06881995499134064 0.022554703056812286 0.0 0.0 0.0 0.0
3.467 -0.5409443974494934 0.9173708558082581 0.07018519937992096 0.019631516188383102 0.0 0.0 0.0 0.0
3.468 -0.5388096570968628 0.9108651280403137 0.07132191956043243 0.017061887308955193 0.0 0.0 0.0 0.0
3.469 -0.5382328629493713 0.9193836450576782 0.07238934934139252 0.013322418555617332 0.0 0.0 0.0 0.0
3.47 -0.536227285861969 0.9192034006118774 0.0733460783958435 0.01059137936681509 0.0 0.0 0.0 0.0
3.471 -0.5363587141036987 0.9199905395507812 0.07398103922605515 0.007450046017765999 0.0 0.0 0.0 0.0
3.472 -0.5331080555915833 0.9197492003440857 0.07455690205097198 0.004250194877386093 0.0 0.0 0.0 0.0
3.473 -0.5333606004714966 0.921726644039154 0.07488492876291275 0.0006567342206835747 0.0 0.0 0.0 0.0
3.474 -0.5307533740997314 0.9213694930076599 0.07510364055633545 -0.002563045360147953 0.0 0.0 0.0 0.0
3.475 -0.5332383513450623 0.9207696318626404 0.07515119016170502 -0.006023895926773548 0.0 0.0 0.0 0.0
3.476 -0.5304379463195801 0.9223688244819641 0.07486427575349808 -0.009619359858334064 0.0 0.0 0.0 0.0
3.477 -0.5282837748527527 0.9234672784805298 0.07447499781847 -0.012856838293373585 0.0 0.0 0.0 0.0
3.478 -0.52935391664505 0.9235031008720398 0.07404612004756927 -0.01630163937807083 0.0 0.0 0.0 0.0
3.479 -0.5278946757316589 0.9227050542831421 0.07326794415712357 -0.019477559253573418 0.0 0.0 0.0 0.0
3.48 -0.5300452709197998 0.9229245781898499 0.07241615653038025 -0.022335542365908623 0.0 0.0 0.0 0.0
3.481 -0.5251493453979492 0.9243200421333313 0.07133299112319946 -0.02565760351717472 0.0 0.0 0.0 0.0
3.482 -0.52414870262146 0.9258624315261841 0.07015307992696762 -0.028989946469664574 0.0 0.0 0.0 0.0
3.483 -0.5263816118240356 0.9226897358894348 0.06860250234603882 -0.03205113485455513 0.0 0.0 0.0 0.0
3.484 -0.5248532295227051 0.924409031867981 0.06722050160169601 -0.03474333882331848 0.0 0.0 0.0 0.0
3.485 -0.5238130688667297 0.924915611743927 0.0656026154756546 -0.03740885108709335 0.0 0.0 0.0 0.0
3.486 -0.5257083773612976 0.9235849976539612 0.06365106999874115 -0.04039826989173889 0.0 0.0 0.0 0.0
3.487 -0.5195726156234741 0.9274297952651978 0.06150876358151436 -0.043180886656045914 0.0 0.0 0.0 0.0
3.488 -0.5197532176971436 0.9261193871498108 0.05969442054629326 -0.045259520411491394 0.0 0.0 0.0 0.0
3.489 -0.5170742869377136 0.9278039336204529 0.05719761922955513 -0.047926753759384155 0.0 0.0 0.0 0.0
3.49 -0.5172570943832397 0.9250523447990417 0.05493538826704025 -0.05001110956072807 0.0 0.0 0.0 0.0
3.491 -0.5130835175514221 0.928399920463562 0.05272207409143448 -0.052078258246183395 0.0 0.0 0.0 0.0
3.492 -0.5132302045822144 0.9291344881057739 0.05013767629861832 -0.053919605910778046 0.0 0.0 0.0 0.0
3.493 -0.5137410759925842 0.926827073097229 0.04776402935385704 -0.05553102865815163 0.0 0.0 0.0 0.0
3.494 -0.5135895013809204 0.9277421236038208 0.04516042768955231 -0.05754515156149864 0.0 0.0 0.0 0.0
3.495 -0.5131180882453918 0.9303125739097595 0.04300929233431816 -0.058925021439790726 0.0 0.0 0.0 0.0
3.496 -0.5137807130813599 0.9276683926582336 0.039993222802877426 -0.060443952679634094 0.0 0.0 0.0 0.0
3.497 -0.5083446502685547 0.9306971430778503 0.03715704381465912 -0.061629969626665115 0.0 0.0 0.0 0.0
3.498 -0.5059583783149719 0.932666540145874 0.03462378680706024 -0.0627552717924118 0.0 0.0 0.0 0.0
3.499 -0.5075690150260925 0.9319071173667908 0.03185800835490227 -0.06380192190408707 0.0 0.0 0.0 0.0
3.5 -0.5069963932037354 0.9292246103286743 0.0292881578207016 -0.06437692046165466 0.0 0.0 0.0 0.0
3.501 -0.5048423409461975 0.9321146607398987 0.026760919019579887 -0.06521026045084 0.0 0.0 0.0 0.0
3.502 -0.500156044960022 0.9342188835144043 0.023475700989365578 -0.06584092974662781 0.0 0.0 0.0 0.0
3.503 -0.5048690438270569 0.9323638677597046 0.021337879821658134 -0.06621629744768143 0.0 0.0 0.0 0.0
3.504 -0.5038979649543762 0.9299814701080322 0.018567560240626335 -0.0663566067814827 0.0 0.0 0.0 0.0
3.505 -0.5016182661056519 0.9328835010528564 0.01593501679599285 -0.06666784733533859 0.0 0.0 0.0 0.0
3.506 -0.50105881690979 0.9336135983467102 0.01329739484935999 -0.06707502901554108 0.0 0.0 0.0 0.0
3.507 -0.4996073842048645 0.9329137206077576 0.010565405711531639 -0.06679391860961914 0.0 0.0 0.0 0.0
3.508 -0.4953318238258362 0.9362920522689819 0.008200900629162788 -0.06668782234191895 0.0 0.0 0.0 0.0
3.509 -0.49602675437927246 0.9358006119728088 0.005621694028377533 -0.06656690686941147 0.0 0.0 0.0 0.0
3.51 -0.4953649342060089 0.9351611137390137 0.0033865272998809814 -0.06612701714038849 0.0 0.0 0.0 0.0
3.511 -0.4887930452823639 0.9374271035194397 0.0005947453901171684 -0.06587139517068863 0.0 0.0 0.0 0.0
3.512 -0.48887282609939575 0.9382355213165283 -0.0014786748215556145 -0.06531491130590439 0.0 0.0 0.0 0.0
3.513 -0.4898335933685303 0.9390950798988342 -0.003747381269931793 -0.0649811327457428 0.0 0.0 0.0 0.0
3.514 -0.49140989780426025 0.9372142553329468 -0.005888194777071476 -0.06429729610681534 0.0 0.0 0.0 0.0
3.515 -0.48747146129608154 0.9393235445022583 -0.008348432369530201 -0.06390011310577393 0.0 0.0 0.0 0.0
3.516 -0.48500728607177734 0.9438426494598389 -0.010058277286589146 -0.0631900280714035 0.0 0.0 0.0 0.0
3.517 -0.487907737493515 0.9405336976051331 -0.012313253246247768 -0.06248151510953903 0.0 0.0 0.0 0.0
3.518 -0.4821246564388275 0.9421550631523132 -0.014478768222033978 -0.06165623292326927 0.0 0.0 0.0 0.0
3.519 -0.48433753848075867 0.940888524055481 -0.015965798869729042 -0.060722604393959045 0.0 0.0 0.0 0.0
3.52 -0.48221299052238464 0.9403422474861145 -0.01805167831480503 -0.059717729687690735 0.0 0.0 0.0 0.0
3.521 -0.47971656918525696 0.9421845078468323 -0.02048252895474434 -0.05867184326052666 0.0 0.0 0.0 0.0
3.522 -0.478581964969635 0.9443986415863037 -0.021876052021980286 -0.05793856829404831 0.0 0.0 0.0 0.0
3.523 -0.48098573088645935 0.9402467012405396 -0.023557471111416817 -0.05666089802980423 0.0 0.0 0.0 0.0
3.524 -0.47800832986831665 0.941912829875946 -0.02533869259059429 -0.05576879531145096 0.0 0.0 0.0 0.0
3.525 -0.4774831533432007 0.9396390914916992 -0.02676468901336193 -0.054445959627628326 0.0 0.0 0.0 0.0
3.526 -0.47527357935905457 0.9445403814315796 -0.02825373411178589 -0.05341191589832306 0.0 0.0 0.0 0.0
3.527 -0.4779640734195709 0.9421442747116089 -0.029952403157949448 -0.05239341780543327 0.0 0.0 0.0 0.0
3.528 -0.4782516360282898 0.9452994465827942 -0.03104609064757824 -0.051118411123752594 0.0 0.0 0.0 0.0
3.529 -0.47084635496139526 0.9422739744186401 -0.03288749232888222 -0.049550823867321014 0.0 0.0 0.0 0.0
3.53 -0.4705154001712799 0.9435317516326904 -0.03412183001637459 -0.048468217253685 0.0 0.0 0.0 0.0
3.531 -0.4726290702819824 0.943880021572113 -0.035487279295921326 -0.047482144087553024 0.0 0.0 0.0 0.0
3.532 -0.4679877460002899 0.9455699324607849 -0.036705486476421356 -0.04613471403717995 0.0 0.0 0.0 0.0
3.533 -0.4671059250831604 0.9434547424316406 -0.03796412795782089 -0.044570501893758774 0.0 0.0 0.0 0.0
3.534 -0.4678044319152832 0.9442138671875 -0.03909768536686897 -0.0434315986931324 0.0 0.0 0.0 0.0
3.535 -0.4675993323326111 0.9444139003753662 -0.040484942495822906 -0.04198218137025833 0.0 0.0 0.0 0.0
3.536 -0.4623158872127533 0.9476903676986694 -0.04158050939440727 -0.04076223075389862 0.0 0.0 0.0 0.0
3.537 -0.4631044566631317 0.9466293454170227 -0.042831238359212875 -0.039179928600788116 0.0 0.0 0.0 0.0
3.538 -0.46392861008644104 0.9458217620849609 -0.043735817074775696 -0.03806721419095993 0.0 0.0 0.0 0.0
3.539 -0.46257901191711426 0.9458716511726379 -0.044515348970890045 -0.03658493608236313 0.0 0.0 0.0 0.0
3.54 -0.45808035135269165 0.9587522745132446 -0.04543358087539673 -0.03513256460428238 0.0 0.0 0.0 0.0
3.541 -0.4559876322746277 0.9487725496292114 -0.04648232460021973 -0.03357372432947159 0.0 0.0 0.0 0.0
3.542 -0.4596436023712158 0.9440332651138306 -0.04739801213145256 -0.031803444027900696 0.0 0.0 0.0 0.0
3.543 -0.4541524648666382 0.9499723315238953 -0.04845267906785011 -0.03057035058736801 0.0 0.0 0.0 0.0
3.544 -0.4524037837982178 0.9512336254119873 -0.04911219701170921 -0.029092153534293175 0.0 0.0 0.0 0.0
3.545 -0.45915281772613525 0.9464859962463379 -0.049404989928007126 -0.027815870940685272 0.0 0.0 0.0 0.0
3.546 -0.4511334300041199 0.9474160671234131 -0.0503242202103138 -0.025984585285186768 0.0 0.0 0.0 0.0
3.547 -0.44453421235084534 0.9526596665382385 -0.051367759704589844 -0.024273615330457687 0.0 0.0 0.0 0.0
3.548 -0.44849100708961487 0.948413610458374 -0.05160416662693024 -0.022974617779254913 0.0 0.0 0.0 0.0
3.549 -0.450390487909317 0.9492149949073792 -0.05230196565389633 -0.02148006670176983 0.0 0.0 0.0 0.0
3.55 -0.45116302371025085 0.9472589492797852 -0.05275675281882286 -0.020083680748939514 0.0 0.0 0.0 0.0
3.551 -0.4444335997104645 0.9492858648300171 -0.05319064110517502 -0.018433958292007446 0.0 0.0 0.0 0.0
3.552 -0.44755232334136963 0.9480434060096741 -0.053829409182071686 -0.016797466203570366 0.0 0.0 0.0 0.0
3.553 -0.44188159704208374 0.9505608081817627 -0.05433379486203194 -0.015197370201349258 0.0 0.0 0.0 0.0
3.554 -0.4400036633014679 0.95188307762146 -0.054535601288080215 -0.01360485702753067 0.0 0.0 0.0 0.0
3.555 -0.4422423541545868 0.9494237899780273 -0.0547773651778698 -0.012077967636287212 0.0 0.0 0.0 0.0
3.556 -0.4387330412864685 0.950736939907074 -0.05489315092563629 -0.010479886084794998 0.0 0.0 0.0 0.0
3.557 -0.4431706368923187 0.9495370984077454 -0.055345240980386734 -0.008834843523800373 0.0 0.0 0.0 0.0
3.558 -0.4373161792755127 0.9489863514900208 -0.055630069226026535 -0.006949692964553833 0.0 0.0 0.0 0.0
3.559 -0.4355519711971283 0.951022207736969 -0.05598162114620209 -0.005904840305447578 0.0 0.0 0.0 0.0
3.56 -0.43133676052093506 0.9519965052604675 -0.056147512048482895 -0.004097720608115196 0.0 0.0 0.0 0.0
3.561 -0.43469083309173584 0.949675977230072 -0.0561770424246788 -0.002588442526757717 0.0 0.0 0.0 0.0
3.562 -0.4316565692424774 0.9494378566741943 -0.05619277432560921 -0.000614359974861145 0.0 0.0 0.0 0.0
3.563 -0.43135228753089905 0.9501515626907349 -0.0563112236559391 0.0006800815463066101 0.0 0.0 0.0 0.0
3.564 -0.42783164978027344 0.9576619267463684 -0.05602479353547096 0.002591462805867195 0.0 0.0 0.0 0.0
3.565 -0.43195098638534546 0.9505130648612976 -0.055985596030950546 0.004149504005908966 0.0 0.0 0.0 0.0
3.566 -0.425960898399353 0.951557993888855 -0.05578088015317917 0.005750661715865135 0.0 0.0 0.0 0.0
3.567 -0.41982221603393555 0.954014241695404 -0.05577387660741806 0.007518233731389046 0.0 0.0 0.0 0.0
3.568 -0.4323970377445221 0.948645830154419 -0.05575059726834297 0.008642624132335186 0.0 0.0 0.0 0.0
3.569 -0.42675548791885376 0.9486091136932373 -0.055506911128759384 0.010381597094237804 0.0 0.0 0.0 0.0
3.57 -0.42118820548057556 0.9525331258773804 -0.05528285354375839 0.011915355920791626 0.0 0.0 0.0 0.0
3.571 -0.4237968623638153 0.9505326151847839 -0.05496742203831673 0.013348069041967392 0.0 0.0 0.0 0.0
3.572 -0.422513872385025 0.9531604051589966 -0.05452732741832733 0.015220986679196358 0.0 0.0 0.0 0.0
3.573 -0.41492703557014465 0.9535518884658813 -0.054171036928892136 0.016776906326413155 0.0 0.0 0.0 0.0
3.574 -0.41889625787734985 0.9541206359863281 -0.05383903160691261 0.018307946622371674 0.0 0.0 0.0 0.0
3.575 -0.41438987851142883 0.9538263082504272 -0.05326090008020401 0.01971597969532013 0.0 0.0 0.0 0.0
3.576 -0.4172501564025879 0.9526041746139526 -0.052654676139354706 0.02174769714474678 0.0 0.0 0.0 0.0
3.577 -0.4129585921764374 0.952437162399292 -0.05215657502412796 0.023030702024698257 0.0 0.0 0.0 0.0
3.578 -0.41611748933792114 0.9498187899589539 -0.05174774304032326 0.024503324180841446 0.0 0.0 0.0 0.0
3.579 -0.41368529200553894 0.9486716389656067 -0.05087094008922577 0.026207489892840385 0.0 0.0 0.0 0.0
3.58 -0.41253241896629333 0.9524519443511963 -0.05025707557797432 0.027930326759815216 0.0 0.0 0.0 0.0
3.581 -0.40970879793167114 0.9541663527488708 -0.04963541030883789 0.029050255194306374 0.0 0.0 0.0 0.0
3.582 -0.40581369400024414 0.9547723531723022 -0.048898618668317795 0.030727552250027657 0.0 0.0 0.0 0.0
3.583 -0.40650269389152527 0.9527507424354553 -0.047861065715551376 0.03227021545171738 0.0 0.0 0.0 0.0
3.584 -0.4040251672267914 0.9537959098815918 -0.046936050057411194 0.0337987095117569 0.0 0.0 0.0 0.0
3.585 -0.4035584628582001 0.9546223282814026 -0.04637950286269188 0.03503260388970375 0.0 0.0 0.0 0.0
3.586 -0.4067056477069855 0.9511610865592957 -0.045493803918361664 0.036490779370069504 0.0 0.0 0.0 0.0
3.587 -0.4001111388206482 0.9538540244102478 -0.04420335590839386 0.03777844086289406 0.0 0.0 0.0 0.0
3.588 -0.4005771577358246 0.9598003029823303 -0.04328521341085434 0.039630576968193054 0.0 0.0 0.0 0.0
3.589 -0.3988588750362396 0.9519274234771729 -0.04225010797381401 0.04065069556236267 0.0 0.0 0.0 0.0
3.59 -0.3986222743988037 0.9542098045349121 -0.040921401232481 0.04204897955060005 0.0 0.0 0.0 0.0
3.591 -0.3945586383342743 0.9550244808197021 -0.04000570625066757 0.0431947223842144 0.0 0.0 0.0 0.0
3.592 -0.3967340290546417 0.9533572793006897 -0.03861892223358154 0.044571761041879654 0.0 0.0 0.0 0.0
3.593 -0.3981820344924927 0.9521922469139099 -0.0376131534576416 0.045542243868112564 0.0 0.0 0.0 0.0
3.594 -0.3903946876525879 0.9538266062736511 -0.035962603986263275 0.04720552638173103 0.0 0.0 0.0 0.0
3.595 -0.39161238074302673 0.9544624090194702 -0.03489943966269493 0.04839371517300606 0.0 0.0 0.0 0.0
3.596 -0.39664632081985474 0.9525896906852722 -0.03358730301260948 0.049244474619627 0.0 0.0 0.0 0.0
3.597 -0.3862212002277374 0.9524734616279602 -0.03184094652533531 0.05045991390943527 0.0 0.0 0.0 0.0
3.598 -0.38667669892311096 0.95411217212677 -0.030941370874643326 0.051364194601774216 0.0 0.0 0.0 0.0
3.599 -0.387923926115036 0.953127920627594 -0.02936076559126377 0.05269952490925789 0.0 0.0 0.0 0.0
3.6 -0.3826106786727905 0.9584660530090332 -0.02771163359284401 0.054168105125427246 0.0 0.0 0.0 0.0
3.601 -0.37514251470565796 0.96414715051651 -0.025860032066702843 0.055257562547922134 0.0 0.0 0.0 0.0
3.602 -0.3800216317176819 0.9602435827255249 -0.02459104359149933 0.056102387607097626 0.0 0.0 0.0 0.0
3.603 -0.3788388669490814 0.9595020413398743 -0.022776266559958458 0.05701092258095741 0.0 0.0 0.0 0.0
3.604 -0.37495505809783936 0.9615737795829773 -0.02152292989194393 0.058004215359687805 0.0 0.0 0.0 0.0
3.605 -0.37392929196357727 0.9627594351768494 -0.019363751634955406 0.058609358966350555 0.0 0.0 0.0 0.0
3.606 -0.36793267726898193 0.9639514088630676 -0.017637863755226135 0.05938247963786125 0.0 0.0 0.0 0.0
3.607 -0.37411603331565857 0.9613099098205566 -0.016327327117323875 0.06016165390610695 0.0 0.0 0.0 0.0
3.608 -0.3703029155731201 0.9613893032073975 -0.014271690510213375 0.060769595205783844 0.0 0.0 0.0 0.0
3.609 -0.36626940965652466 0.9621564745903015 -0.012370673939585686 0.06152324378490448 0.0 0.0 0.0 0.0
3.61 -0.3680672347545624 0.9624561667442322 -0.010615242645144463 0.06208708882331848 0.0 0.0 0.0 0.0
3.611 -0.3644399642944336 0.961463987827301 -0.008601663634181023 0.06250746548175812 0.0 0.0 0.0 0.0
3.612 -0.3644115626811981 0.9590747356414795 -0.006958617828786373 0.06275642663240433 0.0 0.0 0.0 0.0
3.613 -0.3673357665538788 0.9600253701210022 -0.005476233549416065 0.06346047669649124 0.0 0.0 0.0 0.0
3.614 -0.36388009786605835 0.961540699005127 -0.003227020613849163 0.06385869532823563 0.0 0.0 0.0 0.0
3.615 -0.35853347182273865 0.9616696238517761 -0.0012533515691757202 0.06407807022333145 0.0 0.0 0.0 0.0
3.616 -0.36141645908355713 0.9626719355583191 0.00041423458606004715 0.06463514268398285 0.0 0.0 0.0 0.0
3.617 -0.359649658203125 0.9611503481864929 0.0028267856687307358 0.06463959813117981 0.0 0.0 0.0 0.0
3.618 -0.3585193455219269 0.9613512754440308 0.0045761242508888245 0.06488019227981567 0.0 0.0 0.0 0.0
3.619 -0.3539779484272003 0.963322103023529 0.006667391397058964 0.06515630334615707 0.0 0.0 0.0 0.0
3.62 -0.35539689660072327 0.9627971053123474 0.008826157078146935 0.06498128175735474 0.0 0.0 0.0 0.0
3.621 -0.3534483015537262 0.9607464671134949 0.010764186270534992 0.06499405205249786 0.0 0.0 0.0 0.0
3.622 -0.3504495918750763 0.9610230326652527 0.012726870365440845 0.06505762040615082 0.0 0.0 0.0 0.0
3.623 -0.35384565591812134 0.9611725211143494 0.014702890999615192 0.06504040211439133 0.0 0.0 0.0 0.0
3.624 -0.35190895199775696 0.9584218263626099 0.016558051109313965 0.06475398689508438 0.0 0.0 0.0 0.0
3.625 -0.34682348370552063 0.963555634021759 0.01878475584089756 0.06489052623510361 0.0 0.0 0.0 0.0
3.626 -0.3467518389225006 0.9627446532249451 0.02111216075718403 0.0643688440322876 0.0 0.0 0.0 0.0
3.627 -0.35075753927230835 0.9596214890480042 0.022915512323379517 0.06426400691270828 0.0 0.0 0.0 0.0
3.628 -0.34513479471206665 0.959540843963623 0.025241181254386902 0.06374746561050415 0.0 0.0 0.0 0.0
3.629 -0.34371671080589294 0.96302330493927 0.027087092399597168 0.06346814334392548 0.0 0.0 0.0 0.0
3.63 -0.34728801250457764 0.9589077234268188 0.02945425733923912 0.06300421059131622 0.0 0.0 0.0 0.0
3.631 -0.33866602182388306 0.9618582725524902 0.03169652819633484 0.062407445162534714 0.0 0.0 0.0 0.0
3.632 -0.33843958377838135 0.9636688828468323 0.034016601741313934 0.06177835538983345 0.0 0.0 0.0 0.0
3.633 -0.34128767251968384 0.9601144194602966 0.035453297197818756 0.061238572001457214 0.0 0.0 0.0 0.0
3.634 -0.33391156792640686 0.9624627828598022 0.03844982758164406 0.06037786975502968 0.0 0.0 0.0 0.0
3.635 -0.3369188606739044 0.9610084295272827 0.04066769406199455 0.059276435524225235 0.0 0.0 0.0 0.0
3.636 -0.33144375681877136 0.9597208499908447 0.04242332652211189 0.05855986848473549 0.0 0.0 0.0 0.0
3.637 -0.33423498272895813 0.9617392420768738 0.044810887426137924 0.05757003650069237 0.0 0.0 0.0 0.0
3.638 -0.33741074800491333 0.958420991897583 0.04674125462770462 0.056708529591560364 0.0 0.0 0.0 0.0
3.639 -0.33180806040763855 0.958449125289917 0.04912755265831947 0.055409133434295654 0.0 0.0 0.0 0.0
3.64 -0.3319046199321747 0.9594717621803284 0.05102689936757088 0.054254200309515 0.0 0.0 0.0 0.0
3.641 -0.32632923126220703 0.9612727761268616 0.05362028256058693 0.052834995090961456 0.0 0.0 0.0 0.0
3.642 -0.33128583431243896 0.9586851000785828 0.055461205542087555 0.051863428205251694 0.0 0.0 0.0 0.0
3.643 -0.32487720251083374 0.96027010679245 0.057751938700675964 0.050122011452913284 0.0 0.0 0.0 0.0
3.644 -0.31828412413597107 0.9626502990722656 0.0601215660572052 0.04837163910269737 0.0 0.0 0.0 0.0
3.645 -0.3325573205947876 0.9573991894721985 0.06175326555967331 0.047553837299346924 0.0 0.0 0.0 0.0
3.646 -0.3191660940647125 0.961175799369812 0.06438737362623215 0.044916216284036636 0.0 0.0 0.0 0.0
3.647 -0.32135599851608276 0.9598021507263184 0.0662553533911705 0.04373271018266678 0.0 0.0 0.0 0.0
3.648 -0.32139715552330017 0.9607264399528503 0.06825324892997742 0.04161803796887398 0.0 0.0 0.0 0.0
3.649 -0.3195952773094177 0.9590131044387817 0.07045302540063858 0.039119333028793335 0.0 0.0 0.0 0.0
3.65 -0.3181885778903961 0.9596818089485168 0.07258981466293335 0.037197086960077286 0.0 0.0 0.0 0.0
3.651 -0.31647273898124695 0.9615121483802795 0.07437271624803543 0.03523499146103859 0.0 0.0 0.0 0.0
3.652 -0.3172592222690582 0.9574360847473145 0.07633718848228455 0.032713714987039566 0.0 0.0 0.0 0.0
3.653 -0.3182240426540375 0.9584504961967468 0.07831516116857529 0.03052167035639286 0.0 0.0 0.0 0.0
3.654 -0.3075988292694092 0.9606174230575562 0.08017619699239731 0.027435684576630592 0.0 0.0 0.0 0.0
3.655 -0.3126000165939331 0.9599723815917969 0.08217674493789673 0.02458348497748375 0.0 0.0 0.0 0.0
3.656 -0.30891862511634827 0.9602025151252747 0.08378788083791733 0.021757051348686218 0.0 0.0 0.0 0.0
3.657 -0.3068847954273224 0.9591585397720337 0.08547966182231903 0.01900128275156021 0.0 0.0 0.0 0.0
3.658 -0.30976220965385437 0.9580562114715576 0.08687006682157516 0.015789233148097992 0.0 0.0 0.0 0.0
3.659 -0.3090088367462158 0.9571483731269836 0.08845511823892593 0.012413919903337955 0.0 0.0 0.0 0.0
3.66 -0.30230849981307983 0.964106023311615 0.08976121246814728 0.008750979788601398 0.0 0.0 0.0 0.0
3.661 -0.30539384484291077 0.9583946466445923 0.09096816182136536 0.0060210395604372025 0.0 0.0 0.0 0.0
3.662 -0.3024761378765106 0.9579315781593323 0.09199772030115128 0.0017751902341842651 0.0 0.0 0.0 0.0
3.663 -0.3003377616405487 0.9569579362869263 0.09311284124851227 -0.0020815180614590645 0.0 0.0 0.0 0.0
3.664 -0.2961501479148865 0.9578675031661987 0.09397821873426437 -0.005896944552659988 0.0 0.0 0.0 0.0
3.665 -0.2978995442390442 0.9574337601661682 0.09446151554584503 -0.009864997118711472 0.0 0.0 0.0 0.0
3.666 -0.2951502799987793 0.9583226442337036 0.09488952904939651 -0.014353686012327671 0.0 0.0 0.0 0.0
3.667 -0.2931300699710846 0.9575713872909546 0.09496622532606125 -0.018258925527334213 0.0 0.0 0.0 0.0
3.668 -0.29404544830322266 0.9582468867301941 0.0952010229229927 -0.022492974996566772 0.0 0.0 0.0 0.0
3.669 -0.2963688373565674 0.9566217064857483 0.09482257813215256 -0.02713560126721859 0.0 0.0 0.0 0.0
3.67 -0.2928566634654999 0.9564250111579895 0.09459506720304489 -0.03138790652155876 0.0 0.0 0.0 0.0
3.671 -0.28633859753608704 0.9579953551292419 0.09344080090522766 -0.03655896335840225 0.0 0.0 0.0 0.0
3.672 -0.28870508074760437 0.9551653861999512 0.09265583008527756 -0.04055776819586754 0.0 0.0 0.0 0.0
3.673 -0.2896058261394501 0.95819491147995 0.09128810465335846 -0.045168690383434296 0.0 0.0 0.0 0.0
3.674 -0.28604352474212646 0.9564611911773682 0.08968613296747208 -0.04981215298175812 0.0 0.0 0.0 0.0
3.675 -0.28410908579826355 0.958314061164856 0.08779649436473846 -0.05449980869889259 0.0 0.0 0.0 0.0
3.676 -0.28464534878730774 0.9565390348434448 0.0856674462556839 -0.05884929001331329 0.0 0.0 0.0 0.0
3.677 -0.2878160774707794 0.955315351486206 0.08383949100971222 -0.06265928596258163 0.0 0.0 0.0 0.0
3.678 -0.2793146073818207 0.9569525718688965 0.08041795343160629 -0.06749045848846436 0.0 0.0 0.0 0.0
3.679 -0.2861417531967163 0.9546401500701904 0.07772918045520782 -0.07135043293237686 0.0 0.0 0.0 0.0
3.68 -0.27619805932044983 0.9553232789039612 0.07379141449928284 -0.07580934464931488 0.0 0.0 0.0 0.0
3.681 -0.2813754975795746 0.9528242945671082 0.07072360068559647 -0.07902053743600845 0.0 0.0 0.0 0.0
3.682 -0.27348893880844116 0.9562011361122131 0.06662275642156601 -0.08316558599472046 0.0 0.0 0.0 0.0
3.683 -0.27836915850639343 0.9534801840782166 0.06310877203941345 -0.08602433651685715 0.0 0.0 0.0 0.0
3.684 -0.26896050572395325 0.9505789279937744 0.05800773203372955 -0.08911699801683426 0.0 0.0 0.0 0.0
3.685 -0.27144762873649597 0.9567643404006958 0.054354529827833176 -0.09200972318649292 0.0 0.0 0.0 0.0
3.686 -0.2741834223270416 0.9537354111671448 0.04978339746594429 -0.09454622864723206 0.0 0.0 0.0 0.0
3.687 -0.277344286441803 0.9527119994163513 0.045167308300733566 -0.09677012264728546 0.0 0.0 0.0 0.0
3.688 -0.26806655526161194 0.9566693902015686 0.04021628201007843 -0.09879153221845627 0.0 0.0 0.0 0.0
3.689 -0.27143383026123047 0.9543126225471497 0.035369034856557846 -0.10009835660457611 0.0 0.0 0.0 0.0
3.69 -0.27345263957977295 0.9513669013977051 0.03053523786365986 -0.10136052966117859 0.0 0.0 0.0 0.0
3.691 -0.26518964767456055 0.9525671005249023 0.025053080171346664 -0.10248123854398727 0.0 0.0 0.0 0.0
3.692 -0.2612854242324829 0.9554144740104675 0.01981666311621666 -0.10334412008523941 0.0 0.0 0.0 0.0
3.693 -0.26321983337402344 0.9536582827568054 0.014876632951200008 -0.10335779935121536 0.0 0.0 0.0 0.0
3.694 -0.26886889338493347 0.95073002576828 0.010475780814886093 -0.10345012694597244 0.0 0.0 0.0 0.0
3.695 -0.2598574459552765 0.9536565542221069 0.00472393911331892 -0.1033373773097992 0.0 0.0 0.0 0.0
3.696 -0.25823915004730225 0.9533548951148987 0.00030846334993839264 -0.10272781550884247 0.0 0.0 0.0 0.0
3.697 -0.26309680938720703 0.9503980875015259 -0.0037793582305312157 -0.1016576960682869 0.0 0.0 0.0 0.0
3.698 -0.2601889371871948 0.9509169459342957 -0.009379979223012924 -0.1007814034819603 0.0 0.0 0.0 0.0
3.699 -0.2608707547187805 0.9502203464508057 -0.013155578635632992 -0.09957258403301239 0.0 0.0 0.0 0.0
3.7 -0.2616525888442993 0.9511966109275818 -0.017214253544807434 -0.09796740859746933 0.0 0.0 0.0 0.0
3.701 -0.2569560706615448 0.9505735635757446 -0.021871745586395264 -0.09652252495288849 0.0 0.0 0.0 0.0
3.702 -0.25151148438453674 0.9520611763000488 -0.025715097784996033 -0.09432057291269302 0.0 0.0 0.0 0.0
3.703 -0.25249069929122925 0.9510141015052795 -0.02929607219994068 -0.09259583801031113 0.0 0.0 0.0 0.0
3.704 -0.2584232985973358 0.9499492645263672 -0.03266463056206703 -0.09040185809135437 0.0 0.0 0.0 0.0
3.705 -0.24882107973098755 0.9501836895942688 -0.03664235770702362 -0.0879281684756279 0.0 0.0 0.0 0.0
3.706 -0.24806484580039978 0.949298083782196 -0.039735082536935806 -0.08555275201797485 0.0 0.0 0.0 0.0
3.707 -0.2509945034980774 0.9507557153701782 -0.043062858283519745 -0.08315051347017288 0.0 0.0 0.0 0.0
3.708 -0.24906288087368011 0.9501041769981384 -0.04544839262962341 -0.0804145559668541 0.0 0.0 0.0 0.0
3.709 -0.24064631760120392 0.9496268630027771 -0.04841277375817299 -0.07767464965581894 0.0 0.0 0.0 0.0
3.71 -0.2455928772687912 0.9506984949111938 -0.05114950239658356 -0.07528315484523773 0.0 0.0 0.0 0.0
3.711 -0.24507226049900055 0.9493996500968933 -0.05332573503255844 -0.07272233814001083 0.0 0.0 0.0 0.0
3.712 -0.2368406355381012 0.9513990879058838 -0.056410495191812515 -0.06948346644639969 0.0 0.0 0.0 0.0
3.713 -0.23963205516338348 0.9516697525978088 -0.05792953073978424 -0.06670788675546646 0.0 0.0 0.0 0.0
3.714 -0.23872973024845123 0.9498918652534485 -0.05982504412531853 -0.0638049766421318 0.0 0.0 0.0 0.0
3.715 -0.240940123796463 0.9482100009918213 -0.06131055951118469 -0.06089946627616882 0.0 0.0 0.0 0.0
3.716 -0.23362702131271362 0.9496431946754456 -0.06320557743310928 -0.05795155465602875 0.0 0.0 0.0 0.0
3.717 -0.2372688502073288 0.9484694600105286 -0.06454860419034958 -0.055238593369722366 0.0 0.0 0.0 0.0
3.718 -0.23621942102909088 0.9471568465232849 -0.06574644148349762 -0.05236884951591492 0.0 0.0 0.0 0.0
3.719 -0.232539102435112 0.9486181735992432 -0.06727182120084763 -0.04930046945810318 0.0 0.0 0.0 0.0
3.72 -0.2330426126718521 0.9462624192237854 -0.06788316369056702 -0.04687589779496193 0.0 0.0 0.0 0.0
3.721 -0.234172523021698 0.947350263595581 -0.06923181563615799 -0.04442821815609932 0.0 0.0 0.0 0.0
3.722 -0.2312752604484558 0.9463497400283813 -0.06997296214103699 -0.04109150916337967 0.0 0.0 0.0 0.0
3.723 -0.22597824037075043 0.947557270526886 -0.07078523188829422 -0.03815702721476555 0.0 0.0 0.0 0.0
3.724 -0.22512124478816986 0.9465833306312561 -0.07157227396965027 -0.03556198999285698 0.0 0.0 0.0 0.0
3.725 -0.22733870148658752 0.9478275775909424 -0.07207026332616806 -0.033110786229372025 0.0 0.0 0.0 0.0
3.726 -0.22307471930980682 0.9477093815803528 -0.07287058234214783 -0.03007013536989689 0.0 0.0 0.0 0.0
3.727 -0.22158847749233246 0.9484174251556396 -0.07349131256341934 -0.02763378992676735 0.0 0.0 0.0 0.0
3.728 -0.22658002376556396 0.9456685185432434 -0.07310505956411362 -0.02529755048453808 0.0 0.0 0.0 0.0
3.729 -0.2219955176115036 0.947088897228241 -0.07363267242908478 -0.022283324971795082 0.0 0.0 0.0 0.0
3.73 -0.2157689332962036 0.9466792941093445 -0.07396025210618973 -0.019180988892912865 0.0 0.0 0.0 0.0
3.731 -0.21994295716285706 0.9464526176452637 -0.07367733865976334 -0.017678918316960335 0.0 0.0 0.0 0.0
3.732 -0.21657279133796692 0.938360333442688 -0.07382875680923462 -0.014834022149443626 0.0 0.0 0.0 0.0
3.733 -0.21499058604240417 0.9434581995010376 -0.07384008169174194 -0.012161164544522762 0.0 0.0 0.0 0.0
3.734 -0.22200541198253632 0.9441060423851013 -0.07363858073949814 -0.010704563930630684 0.0 0.0 0.0 0.0
3.735 -0.20602619647979736 0.9464341402053833 -0.07342971116304398 -0.006785296835005283 0.0 0.0 0.0 0.0
3.736 -0.21872170269489288 0.9442136883735657 -0.07310783863067627 -0.005658294074237347 0.0 0.0 0.0 0.0
3.737 -0.2065182775259018 0.9448495507240295 -0.07293777912855148 -0.0024007875472307205 0.0 0.0 0.0 0.0
3.738 -0.21328069269657135 0.9428401589393616 -0.07258382439613342 -0.000626392662525177 0.0 0.0 0.0 0.0
3.739 -0.20792147517204285 0.9439787864685059 -0.07225561887025833 0.001973629929125309 0.0 0.0 0.0 0.0
3.74 -0.2051534801721573 0.9446030259132385 -0.07162591069936752 0.004026946611702442 0.0 0.0 0.0 0.0
3.741 -0.19989106059074402 0.9432965517044067 -0.07097847014665604 0.006335374899208546 0.0 0.0 0.0 0.0
3.742 -0.20792731642723083 0.9419634938240051 -0.07040943950414658 0.008497804403305054 0.0 0.0 0.0 0.0
3.743 -0.2007802277803421 0.9449302554130554 -0.06999920308589935 0.010483957827091217 0.0 0.0 0.0 0.0
3.744 -0.20594365894794464 0.9423105716705322 -0.0696333646774292 0.012395135127007961 0.0 0.0 0.0 0.0
3.745 -0.20372574031352997 0.9403560757637024 -0.0683937519788742 0.014409476891160011 0.0 0.0 0.0 0.0
3.746 -0.20673590898513794 0.9398065805435181 -0.0677797943353653 0.016111718490719795 0.0 0.0 0.0 0.0
3.747 -0.20160935819149017 0.9402478337287903 -0.06673571467399597 0.018450288102030754 0.0 0.0 0.0 0.0
3.748 -0.20053723454475403 0.9430956840515137 -0.06587562710046768 0.020494593307375908 0.0 0.0 0.0 0.0
3.749 -0.19988921284675598 0.9418458938598633 -0.06531409174203873 0.022173363715410233 0.0 0.0 0.0 0.0
3.75 -0.19644533097743988 0.9408648610115051 -0.06378916651010513 0.024272974580526352 0.0 0.0 0.0 0.0
3.751 -0.19009904563426971 0.9419516324996948 -0.06294094026088715 0.02624719962477684 0.0 0.0 0.0 0.0
3.752 -0.19607919454574585 0.9405099153518677 -0.062394920736551285 0.0277669969946146 0.0 0.0 0.0 0.0
3.753 -0.19093285501003265 0.9395002722740173 -0.06099342927336693 0.029900146648287773 0.0 0.0 0.0 0.0
3.754 -0.1911463737487793 0.938421368598938 -0.05987332761287689 0.03107099048793316 0.0 0.0 0.0 0.0
3.755 -0.1904485821723938 0.9380152821540833 -0.05865389481186867 0.03302525356411934 0.0 0.0 0.0 0.0
3.756 -0.18195697665214539 0.9423407912254333 -0.05738559365272522 0.034797344356775284 0.0 0.0 0.0 0.0
3.757 -0.18782711029052734 0.9397324919700623 -0.05607930198311806 0.036462120711803436 0.0 0.0 0.0 0.0
3.758 -0.18507038056850433 0.9403852820396423 -0.05510010942816734 0.03787659853696823 0.0 0.0 0.0 0.0
3.759 -0.18776825070381165 0.9382687211036682 -0.05349723994731903 0.03911544382572174 0.0 0.0 0.0 0.0
3.76 -0.1870446652173996 0.9385198354721069 -0.052685681730508804 0.040708594024181366 0.0 0.0 0.0 0.0
3.761 -0.18052424490451813 0.9379265904426575 -0.05070358142256737 0.042034607380628586 0.0 0.0 0.0 0.0
3.762 -0.18161167204380035 0.9381635189056396 -0.04904314503073692 0.043628837913274765 0.0 0.0 0.0 0.0
3.763 -0.18398401141166687 0.9368227124214172 -0.04812144488096237 0.0452134869992733 0.0 0.0 0.0 0.0
3.764 -0.17624928057193756 0.9380313158035278 -0.04631403461098671 0.045905426144599915 0.0 0.0 0.0 0.0
3.765 -0.17688541114330292 0.9371967911720276 -0.04509216547012329 0.04770442098379135 0.0 0.0 0.0 0.0
3.766 -0.17966268956661224 0.9373440146446228 -0.04361582547426224 0.048910897225141525 0.0 0.0 0.0 0.0
3.767 -0.17724452912807465 0.9363739490509033 -0.041885942220687866 0.05000089481472969 0.0 0.0 0.0 0.0
3.768 -0.16693921387195587 0.93403160572052 -0.03976241126656532 0.05062178522348404 0.0 0.0 0.0 0.0
3.769 -0.17362350225448608 0.9359819889068604 -0.038064781576395035 0.051831379532814026 0.0 0.0 0.0 0.0
3.77 -0.17344242334365845 0.9339516162872314 -0.03649086877703667 0.05279846861958504 0.0 0.0 0.0 0.0
3.771 -0.1715240776538849 0.9353008270263672 -0.035407572984695435 0.053708478808403015 0.0 0.0 0.0 0.0
3.772 -0.16941052675247192 0.9322829842567444 -0.033794987946748734 0.05489332601428032 0.0 0.0 0.0 0.0
3.773 -0.17371314764022827 0.9326622486114502 -0.03123585321009159 0.055662788450717926 0.0 0.0 0.0 0.0
3.774 -0.1642552763223648 0.9329900741577148 -0.02985001541674137 0.056609492748975754 0.0 0.0 0.0 0.0
3.775 -0.16682839393615723 0.9339371919631958 -0.028190001845359802 0.056901101022958755 0.0 0.0 0.0 0.0
3.776 -0.16134005784988403 0.9376976490020752 -0.026386497542262077 0.05778830870985985 0.0 0.0 0.0 0.0
3.777 -0.16318367421627045 0.9344879388809204 -0.025033719837665558 0.0584937259554863 0.0 0.0 0.0 0.0
3.778 -0.16427652537822723 0.934131920337677 -0.02362224832177162 0.05882963910698891 0.0 0.0 0.0 0.0
3.779 -0.16629977524280548 0.9322786927223206 -0.021638009697198868 0.05904151126742363 0.0 0.0 0.0 0.0
3.78 -0.16117259860038757 0.9242891669273376 -0.019533153623342514 0.05988246947526932 0.0 0.0 0.0 0.0
3.781 -0.15292775630950928 0.932016909122467 -0.017337605357170105 0.06074158847332001 0.0 0.0 0.0 0.0
3.782 -0.1540861278772354 0.9328086376190186 -0.01638900861144066 0.061319224536418915 0.0 0.0 0.0 0.0
3.783 -0.16603554785251617 0.9282365441322327 -0.014483717270195484 0.06163795292377472 0.0 0.0 0.0 0.0
3.784 -0.1511201560497284 0.9307426810264587 -0.012768461368978024 0.06161202862858772 0.0 0.0 0.0 0.0
3.785 -0.1515260487794876 0.9332661032676697 -0.010931102558970451 0.061559781432151794 0.0 0.0 0.0 0.0
3.786 -0.15522797405719757 0.9313843846321106 -0.009320646524429321 0.06171241030097008 0.0 0.0 0.0 0.0
3.787 -0.15652130544185638 0.9295749664306641 -0.007377897389233112 0.06183740124106407 0.0 0.0 0.0 0.0
3.788 -0.1475682258605957 0.9321591258049011 -0.005424675531685352 0.06235172599554062 0.0 0.0 0.0 0.0
3.789 -0.1538769155740738 0.9326097369194031 -0.0040501076728105545 0.062020137906074524 0.0 0.0 0.0 0.0
3.79 -0.1532522737979889 0.9302673935890198 -0.0022913385182619095 0.062381256371736526 0.0 0.0 0.0 0.0
3.791 -0.14427165687084198 0.9265527129173279 -0.0004972722381353378 0.06319927424192429 0.0 0.0 0.0 0.0
3.792 -0.1399930715560913 0.928113579750061 0.0011060815304517746 0.062439315021038055 0.0 0.0 0.0 0.0
3.793 -0.14461609721183777 0.9280338287353516 0.0032011419534683228 0.06284540146589279 0.0 0.0 0.0 0.0
3.794 -0.14538580179214478 0.9266602993011475 0.004608349874615669 0.06268690526485443 0.0 0.0 0.0 0.0
3.795 -0.14340028166770935 0.927709698677063 0.006182397715747356 0.06226947903633118 0.0 0.0 0.0 0.0
3.796 -0.14133886992931366 0.9290391206741333 0.007898465730249882 0.062369734048843384 0.0 0.0 0.0 0.0
3.797 -0.13985219597816467 0.9247193336486816 0.010249471291899681 0.062223222106695175 0.0 0.0 0.0 0.0
3.798 -0.1396971046924591 0.9309369921684265 0.01167495921254158 0.06141619384288788 0.0 0.0 0.0 0.0
3.799 -0.1356697380542755 0.9299567341804504 0.013526651076972485 0.060669299215078354 0.0 0.0 0.0 0.0
3.8 -0.1345190554857254 0.928972065448761 0.014470599591732025 0.06083442270755768 0.0 0.0 0.0 0.0
3.801 -0.1331479251384735 0.9270371198654175 0.016802405938506126 0.06070924922823906 0.0 0.0 0.0 0.0
3.802 -0.12971477210521698 0.9285072088241577 0.017984822392463684 0.06016237661242485 0.0 0.0 0.0 0.0
3.803 -0.1335792988538742 0.9255691170692444 0.01972891576588154 0.0603703036904335 0.0 0.0 0.0 0.0
3.804 -0.13787472248077393 0.9228702187538147 0.02080462872982025 0.05965013802051544 0.0 0.0 0.0 0.0
3.805 -0.1358344554901123 0.9254221320152283 0.023304173722863197 0.059073980897665024 0.0 0.0 0.0 0.0
3.806 -0.12849007546901703 0.9230878353118896 0.024956345558166504 0.05880076438188553 0.0 0.0 0.0 0.0
3.807 -0.13182541728019714 0.9210286736488342 0.0268039982765913 0.0583176352083683 0.0 0.0 0.0 0.0
3.808 -0.12519261240959167 0.9213817715644836 0.028217673301696777 0.05751420557498932 0.0 0.0 0.0 0.0
3.809 -0.1257626861333847 0.9260066151618958 0.02990660071372986 0.056203972548246384 0.0 0.0 0.0 0.0
3.81 -0.12938418984413147 0.9226201772689819 0.03173196315765381 0.05613011494278908 0.0 0.0 0.0 0.0
3.811 -0.12783309817314148 0.9224409461021423 0.032688796520233154 0.05540292710065842 0.0 0.0 0.0 0.0
3.812 -0.12095465511083603 0.9234578609466553 0.03515789285302162 0.054443079978227615 0.0 0.0 0.0 0.0
3.813 -0.12349221110343933 0.9220482707023621 0.036154814064502716 0.05457379296422005 0.0 0.0 0.0 0.0
3.814 -0.12325865030288696 0.9218677282333374 0.03842892125248909 0.05316588655114174 0.0 0.0 0.0 0.0
3.815 -0.11872631311416626 0.9214190244674683 0.039885301142930984 0.05228200927376747 0.0 0.0 0.0 0.0
3.816 -0.11356065422296524 0.9208618998527527 0.04146752879023552 0.050669122487306595 0.0 0.0 0.0 0.0
3.817 -0.11788762360811234 0.918418824672699 0.04238494858145714 0.051040250808000565 0.0 0.0 0.0 0.0
3.818 -0.11592233180999756 0.9157961010932922 0.044307559728622437 0.05010797083377838 0.0 0.0 0.0 0.0
3.819 -0.1147434189915657 0.9215672612190247 0.04550841078162193 0.04832666739821434 0.0 0.0 0.0 0.0
3.82 -0.11310898512601852 0.9224108457565308 0.04764422029256821 0.04736814275383949 0.0 0.0 0.0 0.0
3.821 -0.11260312795639038 0.9189039468765259 0.04857827350497246 0.047425348311662674 0.0 0.0 0.0 0.0
3.822 -0.11104432493448257 0.9214388728141785 0.05036549270153046 0.0454055517911911 0.0 0.0 0.0 0.0
3.823 -0.11080939322710037 0.919293224811554 0.05256541445851326 0.044429756700992584 0.0 0.0 0.0 0.0
3.824 -0.11113523691892624 0.921452522277832 0.05400725454092026 0.04346157982945442 0.0 0.0 0.0 0.0
3.825 -0.10637217015028 0.9169952273368835 0.055438119918107986 0.04265005886554718 0.0 0.0 0.0 0.0
3.826 -0.10007414221763611 0.9165710210800171 0.056897785514593124 0.04126232862472534 0.0 0.0 0.0 0.0
3.827 -0.10316633433103561 0.9166899919509888 0.058385126292705536 0.03948678821325302 0.0 0.0 0.0 0.0
3.828 -0.10747721046209335 0.9186092019081116 0.06013001501560211 0.037808701395988464 0.0 0.0 0.0 0.0
3.829 -0.11071032285690308 0.9149266481399536 0.06201498210430145 0.03704855963587761 0.0 0.0 0.0 0.0
3.83 -0.10395777225494385 0.915176510810852 0.06360042840242386 0.035769835114479065 0.0 0.0 0.0 0.0
3.831 -0.09657197445631027 0.9185183048248291 0.06469833850860596 0.03416086360812187 0.0 0.0 0.0 0.0
3.832 -0.10363371670246124 0.9153215289115906 0.06680472195148468 0.032765500247478485 0.0 0.0 0.0 0.0
3.833 -0.09592003375291824 0.9159430861473083 0.06743023544549942 0.03131895884871483 0.0 0.0 0.0 0.0
3.834 -0.10112697631120682 0.9146365523338318 0.06961814314126968 0.029053520411252975 0.0 0.0 0.0 0.0
3.835 -0.09823031723499298 0.9154664278030396 0.07155589759349823 0.027578869834542274 0.0 0.0 0.0 0.0
3.836 -0.09266690909862518 0.9141215085983276 0.0722542256116867 0.025509247556328773 0.0 0.0 0.0 0.0
3.837 -0.09309510886669159 0.9153708219528198 0.07470565289258957 0.023778190836310387 0.0 0.0 0.0 0.0
3.838 -0.09921782463788986 0.9157840013504028 0.07570041716098785 0.02118527889251709 0.0 0.0 0.0 0.0
3.839 -0.08704719692468643 0.9113996028900146 0.07688461989164352 0.019691601395606995 0.0 0.0 0.0 0.0
3.84 -0.0936254933476448 0.9146134257316589 0.0775352194905281 0.016974445432424545 0.0 0.0 0.0 0.0
3.841 -0.09168916195631027 0.9147214293479919 0.07961488515138626 0.014331811107695103 0.0 0.0 0.0 0.0
3.842 -0.08674054592847824 0.9161152243614197 0.08177708834409714 0.011733640916645527 0.0 0.0 0.0 0.0
3.843 -0.08407182991504669 0.9152665734291077 0.08237281441688538 0.010239692404866219 0.0 0.0 0.0 0.0
3.844 -0.08895028382539749 0.9095463752746582 0.08393148332834244 0.006639354862272739 0.0 0.0 0.0 0.0
3.845 -0.09325838834047318 0.9106682538986206 0.08523072302341461 0.005135883577167988 0.0 0.0 0.0 0.0
3.846 -0.08009596168994904 0.9102627038955688 0.08642130345106125 0.0014557652175426483 0.0 0.0 0.0 0.0
3.847 -0.0824417844414711 0.909611165523529 0.08754374831914902 -0.0014001447707414627 0.0 0.0 0.0 0.0
3.848 -0.0861399695277214 0.9082757830619812 0.0882687047123909 -0.004898120649158955 0.0 0.0 0.0 0.0
3.849 -0.07696621865034103 0.907276451587677 0.08871711790561676 -0.007681392133235931 0.0 0.0 0.0 0.0
3.85 -0.07642939686775208 0.913462221622467 0.08959932625293732 -0.010827510617673397 0.0 0.0 0.0 0.0
3.851 -0.07873064279556274 0.9119561910629272 0.09096691757440567 -0.015247175469994545 0.0 0.0 0.0 0.0
3.852 -0.07556700706481934 0.9066671133041382 0.09124429523944855 -0.018149234354496002 0.0 0.0 0.0 0.0
3.853 -0.06915567815303802 0.9096503257751465 0.09111996740102768 -0.02215687371790409 0.0 0.0 0.0 0.0
3.854 -0.07719967514276505 0.9076920747756958 0.09193842113018036 -0.025934536010026932 0.0 0.0 0.0 0.0
3.855 -0.07969807833433151 0.9045441746711731 0.09249464422464371 -0.029951374977827072 0.0 0.0 0.0 0.0
3.856 -0.07088284939527512 0.9076434373855591 0.09174838662147522 -0.033666715025901794 0.0 0.0 0.0 0.0
3.857 -0.07235189527273178 0.9061715602874756 0.09209922701120377 -0.03719135373830795 0.0 0.0 0.0 0.0
3.858 -0.06982581317424774 0.9064768552780151 0.0909704864025116 -0.04145818203687668 0.0 0.0 0.0 0.0
3.859 -0.06654975563287735 0.9082028865814209 0.09068982303142548 -0.046467509120702744 0.0 0.0 0.0 0.0
3.86 -0.069136843085289 0.9064222574234009 0.09005937725305557 -0.05090605095028877 0.0 0.0 0.0 0.0
3.861 -0.06511599570512772 0.905179500579834 0.08753983676433563 -0.05489525943994522 0.0 0.0 0.0 0.0
3.862 -0.06460395455360413 0.9039326310157776 0.08617133647203445 -0.05987483263015747 0.0 0.0 0.0 0.0
3.863 -0.0660371258854866 0.9039422273635864 0.08491316437721252 -0.06362134963274002 0.0 0.0 0.0 0.0
3.864 -0.06444074958562851 0.9075069427490234 0.08296152204275131 -0.06860499083995819 0.0 0.0 0.0 0.0
3.865 -0.06251345574855804 0.9017261266708374 0.07980366051197052 -0.07291252911090851 0.0 0.0 0.0 0.0
3.866 -0.06135725975036621 0.904683530330658 0.07795485109090805 -0.07763222604990005 0.0 0.0 0.0 0.0
3.867 -0.06330197304487228 0.899951696395874 0.07483454793691635 -0.08062449842691422 0.0 0.0 0.0 0.0
3.868 -0.06816066056489944 0.903247058391571 0.072125144302845 -0.08529200404882431 0.0 0.0 0.0 0.0
3.869 -0.05863523483276367 0.8969727158546448 0.06771193444728851 -0.08815780282020569 0.0 0.0 0.0 0.0
3.87 -0.05838692933320999 0.9024624228477478 0.0636778175830841 -0.09283094108104706 0.0 0.0 0.0 0.0
3.871 -0.057942792773246765 0.8996391892433167 0.058896254748106 -0.09615854173898697 0.0 0.0 0.0 0.0
3.872 -0.053904253989458084 0.902312695980072 0.05446271598339081 -0.09998691827058792 0.0 0.0 0.0 0.0
3.873 -0.05625617131590843 0.9032471776008606 0.05104448273777962 -0.10331033170223236 0.0 0.0 0.0 0.0
3.874 -0.058883555233478546 0.900172770023346 0.046184372156858444 -0.10583382099866867 0.0 0.0 0.0 0.0
3.875 -0.05461949482560158 0.8979862332344055 0.04062563553452492 -0.10794069617986679 0.0 0.0 0.0 0.0
3.876 -0.04298754036426544 0.9002467393875122 0.033322494477033615 -0.11026085913181305 0.0 0.0 0.0 0.0
3.877 -0.05665556713938713 0.9003846049308777 0.0304778590798378 -0.11182276159524918 0.0 0.0 0.0 0.0
3.878 -0.053227756172418594 0.8953409194946289 0.024065902456641197 -0.11199192702770233 0.0 0.0 0.0 0.0
3.879 -0.05049510300159454 0.8990418910980225 0.018304500728845596 -0.11416465789079666 0.0 0.0 0.0 0.0
3.88 -0.0540805384516716 0.8959397673606873 0.013721221126616001 -0.11422372609376907 0.0 0.0 0.0 0.0
3.881 -0.04664231836795807 0.8997437357902527 0.0074087586253881454 -0.11496434360742569 0.0 0.0 0.0 0.0
3.882 -0.051418453454971313 0.8982401490211487 0.0019315192475914955 -0.11503682285547256 0.0 0.0 0.0 0.0
3.883 -0.04533243551850319 0.8968510031700134 -0.004436837509274483 -0.11461158841848373 0.0 0.0 0.0 0.0
3.884 -0.04213762655854225 0.8953149318695068 -0.008883015252649784 -0.11286772042512894 0.0 0.0 0.0 0.0
3.885 -0.04929494112730026 0.8997498750686646 -0.014082501642405987 -0.11319738626480103 0.0 0.0 0.0 0.0
3.886 -0.04591718316078186 0.8956648111343384 -0.02005763351917267 -0.11092107743024826 0.0 0.0 0.0 0.0
3.887 -0.04559091106057167 0.8938933610916138 -0.024059321731328964 -0.10852665454149246 0.0 0.0 0.0 0.0
3.888 -0.038289036601781845 0.8922433853149414 -0.030622372403740883 -0.10624290257692337 0.0 0.0 0.0 0.0
3.889 -0.0477292500436306 0.8940584659576416 -0.03331693634390831 -0.10426215827465057 0.0 0.0 0.0 0.0
3.89 -0.04998623579740524 0.8907287120819092 -0.037752993404865265 -0.10228221118450165 0.0 0.0 0.0 0.0
3.891 -0.03837323933839798 0.896172821521759 -0.04297224432229996 -0.09935262799263 0.0 0.0 0.0 0.0
3.892 -0.042198967188596725 0.8938928842544556 -0.04715045168995857 -0.09645102173089981 0.0 0.0 0.0 0.0
3.893 -0.038703542202711105 0.8976456522941589 -0.050383977591991425 -0.09454668313264847 0.0 0.0 0.0 0.0
3.894 -0.029799843207001686 0.8981802463531494 -0.05495741218328476 -0.09109313786029816 0.0 0.0 0.0 0.0
3.895 -0.03889703378081322 0.8946964144706726 -0.05716137960553169 -0.0876840278506279 0.0 0.0 0.0 0.0
3.896 -0.0408482700586319 0.8966047167778015 -0.059535931795835495 -0.08480678498744965 0.0 0.0 0.0 0.0
3.897 -0.037412453442811966 0.8959057927131653 -0.062407542020082474 -0.08103592693805695 0.0 0.0 0.0 0.0
3.898 -0.0351794995367527 0.8943129181861877 -0.06530322879552841 -0.07797223329544067 0.0 0.0 0.0 0.0
3.899 -0.03588028997182846 0.8953167796134949 -0.0684710443019867 -0.07461852580308914 0.0 0.0 0.0 0.0
3.9 -0.02977600507438183 0.897565484046936 -0.07113030552864075 -0.07145940512418747 0.0 0.0 0.0 0.0
3.901 -0.031207891181111336 0.8964643478393555 -0.07254292815923691 -0.06801027059555054 0.0 0.0 0.0 0.0
3.902 -0.031908970326185226 0.892852783203125 -0.07386255264282227 -0.0631261095404625 0.0 0.0 0.0 0.0
3.903 -0.025210754945874214 0.8929117321968079 -0.07686083763837814 -0.05910995602607727 0.0 0.0 0.0 0.0
3.904 -0.024903949350118637 0.8943080902099609 -0.07792089134454727 -0.05652730166912079 0.0 0.0 0.0 0.0
3.905 -0.031018400564789772 0.8949865102767944 -0.07833303511142731 -0.05401334539055824 0.0 0.0 0.0 0.0
3.906 -0.03012719377875328 0.8941657543182373 -0.07961522787809372 -0.04943251237273216 0.0 0.0 0.0 0.0
3.907 -0.025112342089414597 0.8948258757591248 -0.08176793903112411 -0.04614580422639847 0.0 0.0 0.0 0.0
3.908 -0.025492463260889053 0.8958510756492615 -0.08253441751003265 -0.043366000056266785 0.0 0.0 0.0 0.0
3.909 -0.025551237165927887 0.896093487739563 -0.08281147480010986 -0.03930437192320824 0.0 0.0 0.0 0.0
3.91 -0.0228604506701231 0.8974830508232117 -0.08347704261541367 -0.03623219579458237 0.0 0.0 0.0 0.0
3.911 -0.0202349666506052 0.8907158970832825 -0.08363475650548935 -0.03205520659685135 0.0 0.0 0.0 0.0
3.912 -0.023920617997646332 0.889057993888855 -0.08310048282146454 -0.028477627784013748 0.0 0.0 0.0 0.0
3.913 -0.020643357187509537 0.8906540870666504 -0.08340157568454742 -0.02574445679783821 0.0 0.0 0.0 0.0
3.914 -0.019618961960077286 0.8927654027938843 -0.08372204005718231 -0.022682037204504013 0.0 0.0 0.0 0.0
3.915 -0.017955610528588295 0.8929272890090942 -0.08385923504829407 -0.019062740728259087 0.0 0.0 0.0 0.0
3.916 -0.019758334383368492 0.8908873200416565 -0.0835680216550827 -0.015597496181726456 0.0 0.0 0.0 0.0
3.917 -0.01753886044025421 0.8928523659706116 -0.08325879275798798 -0.013701232150197029 0.0 0.0 0.0 0.0
3.918 -0.012710550799965858 0.8943175673484802 -0.08343860507011414 -0.010725989006459713 0.0 0.0 0.0 0.0
3.919 -0.013470415957272053 0.8900554776191711 -0.08284016698598862 -0.005967353470623493 0.0 0.0 0.0 0.0
3.92 -0.00970072578638792 0.8902799487113953 -0.08292184770107269 -0.003764030523598194 0.0 0.0 0.0 0.0
3.921 -0.011770651675760746 0.8916952610015869 -0.08155232667922974 -0.0012722304090857506 0.0 0.0 0.0 0.0
3.922 -0.014908098615705967 0.8909547328948975 -0.08066224306821823 0.0019095810130238533 0.0 0.0 0.0 0.0
3.923 -0.003270491026341915 0.8905797600746155 -0.08044100552797318 0.005664668045938015 0.0 0.0 0.0 0.0
3.924 -0.006205516867339611 0.890948474407196 -0.08019356429576874 0.006775078363716602 0.0 0.0 0.0 0.0
3.925 -0.006978845223784447 0.8946378231048584 -0.07894612103700638 0.00926861260086298 0.0 0.0 0.0 0.0
3.926 -0.007763952948153019 0.8888126611709595 -0.07791194319725037 0.012688254937529564 0.0 0.0 0.0 0.0
3.927 1.393444836139679e-05 0.8924666047096252 -0.07743538171052933 0.015061378479003906 0.0 0.0 0.0 0.0
3.928 0.003318818286061287 0.8920329213142395 -0.07598061114549637 0.017471717670559883 0.0 0.0 0.0 0.0
3.929 -0.00465466920286417 0.8892486095428467 -0.07397544384002686 0.019766073673963547 0.0 0.0 0.0 0.0
3.93 0.002241091802716255 0.8884435296058655 -0.07266850024461746 0.022439012303948402 0.0 0.0 0.0 0.0
3.931 0.0010172557085752487 0.8913503289222717 -0.07229528576135635 0.02443549782037735 0.0 0.0 0.0 0.0
3.932 -0.00010368227958679199 0.890705943107605 -0.06966521590948105 0.025889014825224876 0.0 0.0 0.0 0.0
3.933 0.00552842952311039 0.8909760117530823 -0.06885326653718948 0.029588185250759125 0.0 0.0 0.0 0.0
3.934 0.008616773411631584 0.888765275478363 -0.06700962036848068 0.030782116577029228 0.0 0.0 0.0 0.0
3.935 0.00383917149156332 0.8935002088546753 -0.06641829013824463 0.03194881230592728 0.0 0.0 0.0 0.0
3.936 0.0026634251698851585 0.8917811512947083 -0.06336884945631027 0.03405536711215973 0.0 0.0 0.0 0.0
3.937 0.01097234059125185 0.8937697410583496 -0.06259176880121231 0.035721901804208755 0.0 0.0 0.0 0.0
3.938 0.0069000134244561195 0.893116295337677 -0.06139899790287018 0.037402670830488205 0.0 0.0 0.0 0.0
3.939 0.015411991626024246 0.8912163972854614 -0.05882510542869568 0.040388334542512894 0.0 0.0 0.0 0.0
3.94 0.014002405107021332 0.888801097869873 -0.05737224966287613 0.041808243840932846 0.0 0.0 0.0 0.0
3.941 0.006032590754330158 0.8887014389038086 -0.05583823472261429 0.04262606427073479 0.0 0.0 0.0 0.0
3.942 0.014428744092583656 0.8903107047080994 -0.05472630262374878 0.04403013363480568 0.0 0.0 0.0 0.0
3.943 0.01763133518397808 0.8927933573722839 -0.05225769057869911 0.04548202455043793 0.0 0.0 0.0 0.0
3.944 0.014020641334354877 0.8889821171760559 -0.05039907991886139 0.047192029654979706 0.0 0.0 0.0 0.0
3.945 0.010983414947986603 0.8880086541175842 -0.04849565401673317 0.048682186752557755 0.0 0.0 0.0 0.0
3.946 0.02536970004439354 0.888106107711792 -0.0460495688021183 0.05014507472515106 0.0 0.0 0.0 0.0
3.947 0.016167910769581795 0.8923743963241577 -0.045500949025154114 0.05039755254983902 0.0 0.0 0.0 0.0
3.948 0.02090821973979473 0.8874430060386658 -0.04262792319059372 0.05219629779458046 0.0 0.0 0.0 0.0
3.949 0.022763296961784363 0.8870682120323181 -0.04014725983142853 0.053040944039821625 0.0 0.0 0.0 0.0
3.95 0.02040180005133152 0.8908454775810242 -0.03941253572702408 0.052964504808187485 0.0 0.0 0.0 0.0
3.951 0.022631743922829628 0.8908867835998535 -0.03750241920351982 0.05389226973056793 0.0 0.0 0.0 0.0
3.952 0.024137821048498154 0.8917195796966553 -0.03548808768391609 0.05483872815966606 0.0 0.0 0.0 0.0
3.953 0.0298156775534153 0.8867499828338623 -0.03300519287586212 0.05636448785662651 0.0 0.0 0.0 0.0
3.954 0.030937597155570984 0.8897476196289062 -0.03136410936713219 0.05639718472957611 0.0 0.0 0.0 0.0
3.955 0.029117263853549957 0.8915626406669617 -0.029553651809692383 0.05683548003435135 0.0 0.0 0.0 0.0
3.956 0.028090832754969597 0.8874293565750122 -0.027086865156888962 0.0580691322684288 0.0 0.0 0.0 0.0
3.957 0.03398125618696213 0.8873924612998962 -0.025764258578419685 0.058635927736759186 0.0 0.0 0.0 0.0
3.958 0.03483894094824791 0.8868256211280823 -0.023509107530117035 0.05859524384140968 0.0 0.0 0.0 0.0
3.959 0.03467308357357979 0.8866443634033203 -0.021802490577101707 0.059029825031757355 0.0 0.0 0.0 0.0
3.96 0.03442917764186859 0.888993501663208 -0.0195575300604105 0.05915180593729019 0.0 0.0 0.0 0.0
3.961 0.0416993647813797 0.8864039182662964 -0.017559805884957314 0.05963336303830147 0.0 0.0 0.0 0.0
3.962 0.03633802384138107 0.8893408179283142 -0.015776099637150764 0.05963817238807678 0.0 0.0 0.0 0.0
3.963 0.03765855357050896 0.8875845074653625 -0.013232842087745667 0.05941430851817131 0.0 0.0 0.0 0.0
3.964 0.03792015463113785 0.8883993625640869 -0.012085246853530407 0.05968188866972923 0.0 0.0 0.0 0.0
3.965 0.038905661553144455 0.8886639475822449 -0.010912809520959854 0.060145143419504166 0.0 0.0 0.0 0.0
3.966 0.04316665977239609 0.8899608254432678 -0.008556392043828964 0.059617362916469574 0.0 0.0 0.0 0.0
3.967 0.045915160328149796 0.887907087802887 -0.007068217732012272 0.059756603091955185 0.0 0.0 0.0 0.0
3.968 0.039830904453992844 0.885383665561676 -0.004601701162755489 0.05989592522382736 0.0 0.0 0.0 0.0
3.969 0.04551916942000389 0.8846710920333862 -0.0032948721200227737 0.05977500602602959 0.0 0.0 0.0 0.0
3.97 0.050096381455659866 0.8844419121742249 -0.0017082113772630692 0.05967871844768524 0.0 0.0 0.0 0.0
3.971 0.04256480559706688 0.8888092041015625 3.3731572329998016e-05 0.059067707508802414 0.0 0.0 0.0 0.0
3.972 0.04313841089606285 0.8833683133125305 0.0018400400876998901 0.05870353430509567 0.0 0.0 0.0 0.0
3.973 0.04917276278138161 0.884962260723114 0.004091732203960419 0.05862412974238396 0.0 0.0 0.0 0.0
3.974 0.05122896656394005 0.8865244388580322 0.004722374491393566 0.058526139706373215 0.0 0.0 0.0 0.0
3.975 0.04944625496864319 0.8870700597763062 0.007297927513718605 0.0575689971446991 0.0 0.0 0.0 0.0
3.976 0.0520440973341465 0.8877760767936707 0.008208805695176125 0.05744042620062828 0.0 0.0 0.0 0.0
3.977 0.061137668788433075 0.8842979073524475 0.010292049497365952 0.05742812529206276 0.0 0.0 0.0 0.0
3.978 0.05720227584242821 0.8871253132820129 0.011443931609392166 0.05673704668879509 0.0 0.0 0.0 0.0
3.979 0.06302723288536072 0.8847556710243225 0.012819661758840084 0.05668310448527336 0.0 0.0 0.0 0.0
3.98 0.05846165120601654 0.8838369846343994 0.01502294559031725 0.05549921467900276 0.0 0.0 0.0 0.0
3.981 0.06354863941669464 0.8840868473052979 0.016006749123334885 0.055495671927928925 0.0 0.0 0.0 0.0
3.982 0.06543176621198654 0.8827539086341858 0.0180989857763052 0.054431892931461334 0.0 0.0 0.0 0.0
3.983 0.06329306215047836 0.8864709734916687 0.01915643736720085 0.05349661409854889 0.0 0.0 0.0 0.0
3.984 0.060550183057785034 0.8822547197341919 0.021189510822296143 0.053483981639146805 0.0 0.0 0.0 0.0
3.985 0.06263906508684158 0.8820963501930237 0.022025423124432564 0.05292193591594696 0.0 0.0 0.0 0.0
3.986 0.06882911175489426 0.8849008679389954 0.023172106593847275 0.051722921431064606 0.0 0.0 0.0 0.0
3.987 0.06392405182123184 0.8831668496131897 0.024745456874370575 0.05140925198793411 0.0 0.0 0.0 0.0
3.988 0.0638241097331047 0.8850575089454651 0.026108557358384132 0.05037865787744522 0.0 0.0 0.0 0.0
3.989 0.07114503532648087 0.8822544813156128 0.02699456550180912 0.05027848482131958 0.0 0.0 0.0 0.0
3.99 0.0727139413356781 0.8843780159950256 0.028702815994620323 0.048679132014513016 0.0 0.0 0.0 0.0
3.991 0.06775420904159546 0.8848955631256104 0.030027583241462708 0.048127755522727966 0.0 0.0 0.0 0.0
3.992 0.07364586740732193 0.8804852366447449 0.03130461648106575 0.04768003523349762 0.0 0.0 0.0 0.0
3.993 0.07899430394172668 0.8826120495796204 0.0333256833255291 0.04666722193360329 0.0 0.0 0.0 0.0
3.994 0.0738741084933281 0.8840256929397583 0.03343780338764191 0.04623683542013168 0.0 0.0 0.0 0.0
3.995 0.07704468816518784 0.8803825974464417 0.03567268326878548 0.04507426172494888 0.0 0.0 0.0 0.0
3.996 0.0842200443148613 0.8814163208007812 0.03660827502608299 0.04385124891996384 0.0 0.0 0.0 0.0
3.997 0.08373616635799408 0.8817492723464966 0.0372500866651535 0.04353979602456093 0.0 0.0 0.0 0.0
3.998 0.08178206533193588 0.882994532585144 0.038889721035957336 0.04179060086607933 0.0 0.0 0.0 0.0
3.999 0.08637890964746475 0.8779757022857666 0.04060274735093117 0.0411001518368721 0.0 0.0 0.0 0.0
4.0 0.08401443064212799 0.8842921853065491 0.04125015810132027 0.03983109071850777 0.0 0.0 0.0 0.0
