!Created with skrf (http://scikit-rf.org).
# GHz S RI R 50.0 
!freq ReS11 ImS11 ReS21 ImS21 ReS12 ImS12 ReS22 ImS22
0.001 1.0044949054718018 -0.0018599210307002068 -1.4297664165496826e-05 6.910413503646851e-07 0.0 0.0 0.0 0.0
0.002 0.9996259808540344 -0.003257937729358673 -4.215165972709656e-06 1.878105103969574e-05 0.0 0.0 0.0 0.0
0.003 0.9998903870582581 -0.004584587179124355 2.5410205125808716e-05 1.7862766981124878e-05 0.0 0.0 0.0 0.0
0.004 0.9994031190872192 -0.005175490863621235 -2.8423964977264404e-06 -2.1812506020069122e-05 0.0 0.0 0.0 0.0
0.005 1.0001367330551147 -0.006875721737742424 -2.4720095098018646e-05 1.3407319784164429e-05 0.0 0.0 0.0 0.0
0.006 0.9995958209037781 -0.008120319806039333 1.638103276491165e-05 8.689239621162415e-06 0.0 0.0 0.0 0.0
0.007 0.9998184442520142 -0.009232561103999615 6.367452442646027e-06 1.8374994397163391e-06 0.0 0.0 0.0 0.0
0.008 0.9997676610946655 -0.010769935324788094 7.482245564460754e-06 -1.0207295417785645e-05 0.0 0.0 0.0 0.0
0.009 0.9997478127479553 -0.012489404529333115 -2.4165958166122437e-05 1.1091120541095734e-05 0.0 0.0 0.0 0.0
0.01 1.0002037286758423 -0.014001603238284588 8.518807590007782e-06 -6.988644599914551e-06 0.0 0.0 0.0 0.0
0.011 0.999383270740509 -0.015319612808525562 -4.870817065238953e-07 2.021249383687973e-05 0.0 0.0 0.0 0.0
0.012 0.9992314577102661 -0.016142789274454117 1.0464340448379517e-05 1.0217539966106415e-05 0.0 0.0 0.0 0.0
0.013 0.9999675750732422 -0.01795099303126335 -4.244968295097351e-06 -6.085261702537537e-06 0.0 0.0 0.0 0.0
0.014 0.9991433024406433 -0.01937701180577278 -7.384456694126129e-06 1.6007572412490845e-05 0.0 0.0 0.0 0.0
0.015 0.999575138092041 -0.02010064572095871 9.403564035892487e-06 2.794899046421051e-06 0.0 0.0 0.0 0.0
0.016 0.9998424053192139 -0.021881548687815666 1.7844140529632568e-06 -1.7909333109855652e-06 0.0 0.0 0.0 0.0
0.017 0.9994653463363647 -0.023335183039307594 6.757490336894989e-05 -0.00010850094258785248 0.0 0.0 0.0 0.0
0.018 0.999190092086792 -0.02464762143790722 -1.6131438314914703e-05 8.800998330116272e-06 0.0 0.0 0.0 0.0
0.019 0.9993408918380737 -0.026168981567025185 -2.969987690448761e-06 1.8162652850151062e-05 0.0 0.0 0.0 0.0
0.02 0.9990725517272949 -0.027377625927329063 1.613236963748932e-05 1.8952414393424988e-05 0.0 0.0 0.0 0.0
0.021 0.9991666078567505 -0.02886931225657463 1.6845762729644775e-05 2.8878450393676758e-05 0.0 0.0 0.0 0.0
0.022 0.9988537430763245 -0.030055969953536987 2.202484756708145e-05 -5.817972123622894e-06 0.0 0.0 0.0 0.0
0.023 0.9990513920783997 -0.03164396807551384 -8.64081084728241e-06 1.904275268316269e-05 0.0 0.0 0.0 0.0
0.024 0.9998210072517395 -0.03246976435184479 1.104641705751419e-05 8.150003850460052e-06 0.0 0.0 0.0 0.0
0.025 0.9995353817939758 -0.034253913909196854 4.124827682971954e-06 -1.4722347259521484e-05 0.0 0.0 0.0 0.0
0.026 0.998973548412323 -0.03529459610581398 -7.088296115398407e-06 -2.2845342755317688e-05 0.0 0.0 0.0 0.0
0.027 0.9996036291122437 -0.036563940346241 7.19074159860611e-06 4.0605664253234863e-07 0.0 0.0 0.0 0.0
0.028 0.9992896914482117 -0.038022201508283615 -9.263865649700165e-06 -2.5434419512748718e-05 0.0 0.0 0.0 0.0
0.029 0.9988985061645508 -0.03966081142425537 3.87243926525116e-06 -2.523884177207947e-07 0.0 0.0 0.0 0.0
0.03 0.9997114539146423 -0.040920790284872055 -2.0423904061317444e-06 -2.1580606698989868e-05 0.0 0.0 0.0 0.0
0.031 0.9983751773834229 -0.04184034839272499 5.602836608886719e-06 1.1548399925231934e-07 0.0 0.0 0.0 0.0
0.032 0.9985529780387878 -0.043700914829969406 4.001893103122711e-06 2.1452084183692932e-05 0.0 0.0 0.0 0.0
0.033 0.9979255795478821 -0.04453812912106514 7.77561217546463e-06 4.0298327803611755e-06 0.0 0.0 0.0 0.0
0.034 0.9985913038253784 -0.04681321233510971 7.476471364498138e-05 -6.013736128807068e-05 0.0 0.0 0.0 0.0
0.035 0.9985523819923401 -0.04832975193858147 -4.542060196399689e-06 2.1430663764476776e-05 0.0 0.0 0.0 0.0
0.036 0.9976373314857483 -0.04948026314377785 3.907829523086548e-06 1.4786608517169952e-05 0.0 0.0 0.0 0.0
0.037 0.99837726354599 -0.05075126141309738 1.9315630197525024e-06 -1.7415732145309448e-07 0.0 0.0 0.0 0.0
0.038 0.9976726770401001 -0.05235019698739052 -3.875233232975006e-06 2.127513289451599e-05 0.0 0.0 0.0 0.0
0.039 0.9983938336372375 -0.053768955171108246 1.1544674634933472e-05 6.547197699546814e-06 0.0 0.0 0.0 0.0
0.04 0.9977782368659973 -0.05527485907077789 1.1446885764598846e-05 5.887821316719055e-06 0.0 0.0 0.0 0.0
0.041 0.9986193776130676 -0.05663514509797096 2.1224841475486755e-06 3.7960708141326904e-06 0.0 0.0 0.0 0.0
0.042 0.9975526332855225 -0.05749933794140816 -9.471550583839417e-06 1.0201707482337952e-05 0.0 0.0 0.0 0.0
0.043 0.9970555901527405 -0.058754369616508484 -1.4774501323699951e-05 -3.259629011154175e-06 0.0 0.0 0.0 0.0
0.044 0.997715950012207 -0.06072185933589935 4.08664345741272e-06 1.2957490980625153e-05 0.0 0.0 0.0 0.0
0.045 0.997099757194519 -0.062016792595386505 1.3631768524646759e-05 1.999642699956894e-05 0.0 0.0 0.0 0.0
0.046 0.9967820644378662 -0.06296312063932419 -5.172565579414368e-06 2.039968967437744e-05 0.0 0.0 0.0 0.0
0.047 0.9974236488342285 -0.06464748829603195 -2.858974039554596e-05 1.4091841876506805e-05 0.0 0.0 0.0 0.0
0.048 0.997128427028656 -0.06633558869361877 -7.670372724533081e-06 2.4216249585151672e-05 0.0 0.0 0.0 0.0
0.049 0.9964624047279358 -0.06636610627174377 9.424053132534027e-06 -2.446584403514862e-06 0.0 0.0 0.0 0.0
0.05 0.9964993596076965 -0.068883515894413 3.926455974578857e-06 9.405426681041718e-06 0.0 0.0 0.0 0.0
0.051 0.9967890977859497 -0.0693049505352974 1.154094934463501e-05 1.825392246246338e-05 0.0 0.0 0.0 0.0
0.052 0.996913731098175 -0.0708920881152153 2.7962960302829742e-05 -1.3417564332485199e-05 0.0 0.0 0.0 0.0
0.053 0.997189998626709 -0.07210496068000793 1.1906027793884277e-05 9.927898645401001e-06 0.0 0.0 0.0 0.0
0.054 0.9969943165779114 -0.07310902327299118 -9.384937584400177e-06 2.1606683731079102e-07 0.0 0.0 0.0 0.0
0.055 0.9969976544380188 -0.07483129948377609 1.0246410965919495e-05 -4.828907549381256e-06 0.0 0.0 0.0 0.0
0.056 0.9969424605369568 -0.07583298534154892 3.852881491184235e-06 -3.992579877376556e-06 0.0 0.0 0.0 0.0
0.057 0.9968755841255188 -0.07803934067487717 5.706213414669037e-06 4.170462489128113e-06 0.0 0.0 0.0 0.0
0.058 0.9964697957038879 -0.07913676649332047 1.6291625797748566e-05 5.988404154777527e-07 0.0 0.0 0.0 0.0
0.059 0.9950741529464722 -0.08056480437517166 -3.819819539785385e-05 6.802380084991455e-06 0.0 0.0 0.0 0.0
0.06 0.9952453374862671 -0.08153415471315384 -1.0916031897068024e-05 1.3148412108421326e-05 0.0 0.0 0.0 0.0
0.061 0.9961097240447998 -0.08307380229234695 -3.923662006855011e-06 -2.273358404636383e-06 0.0 0.0 0.0 0.0
0.062 0.9959569573402405 -0.08464755862951279 1.2354925274848938e-05 -2.5037676095962524e-05 0.0 0.0 0.0 0.0
0.063 0.9955986738204956 -0.0855524018406868 -5.449168384075165e-06 -4.281848669052124e-05 0.0 0.0 0.0 0.0
0.064 0.9947758913040161 -0.08647284656763077 1.1374242603778839e-05 4.367902874946594e-06 0.0 0.0 0.0 0.0
0.065 0.9951421618461609 -0.08802538365125656 1.7064623534679413e-05 7.264316082000732e-07 0.0 0.0 0.0 0.0
0.066 0.9947185516357422 -0.089559406042099 1.041218638420105e-05 2.7009285986423492e-05 0.0 0.0 0.0 0.0
0.067 0.9947768449783325 -0.09166313707828522 -1.2927688658237457e-05 1.0875985026359558e-05 0.0 0.0 0.0 0.0
0.068 0.9940475225448608 -0.09209996461868286 1.9286759197711945e-05 4.922784864902496e-05 0.0 0.0 0.0 0.0
0.069 0.9944294095039368 -0.09374376386404037 1.6285106539726257e-05 -5.393289029598236e-06 0.0 0.0 0.0 0.0
0.07 0.9940776824951172 -0.09482502937316895 2.5986693799495697e-05 -1.8719583749771118e-07 0.0 0.0 0.0 0.0
0.071 0.9933496713638306 -0.09648419916629791 6.835907697677612e-06 1.0835006833076477e-05 0.0 0.0 0.0 0.0
0.072 0.9937849640846252 -0.09815764427185059 5.835667252540588e-06 9.309500455856323e-06 0.0 0.0 0.0 0.0
0.073 0.9936037659645081 -0.09911826997995377 1.1071562767028809e-05 3.526918590068817e-06 0.0 0.0 0.0 0.0
0.074 0.9937499165534973 -0.10103842616081238 1.0719522833824158e-06 1.0826624929904938e-05 0.0 0.0 0.0 0.0
0.075 0.9936802983283997 -0.10241920500993729 -8.097849786281586e-06 -2.016313374042511e-06 0.0 0.0 0.0 0.0
0.076 0.9930940866470337 -0.10346681624650955 -2.2877007722854614e-05 4.89410012960434e-06 0.0 0.0 0.0 0.0
0.077 0.9939801692962646 -0.10508211702108383 -1.5601515769958496e-05 9.764917194843292e-06 0.0 0.0 0.0 0.0
0.078 0.9936971068382263 -0.10656861960887909 -2.557411789894104e-06 1.7871148884296417e-05 0.0 0.0 0.0 0.0
0.079 0.993584930896759 -0.10683483630418777 3.818422555923462e-07 -9.43802297115326e-06 0.0 0.0 0.0 0.0
0.08 0.9926232695579529 -0.10801378637552261 9.19494777917862e-06 -3.322586417198181e-05 0.0 0.0 0.0 0.0
0.081 0.9929245114326477 -0.10953465104103088 -8.571892976760864e-06 -2.477318048477173e-07 0.0 0.0 0.0 0.0
0.082 0.9929262399673462 -0.11095643043518066 7.569789886474609e-06 -1.6586855053901672e-05 0.0 0.0 0.0 0.0
0.083 0.9918807744979858 -0.1128276064991951 -3.2801181077957153e-06 -1.5869736671447754e-05 0.0 0.0 0.0 0.0
0.084 0.9930284023284912 -0.11387628316879272 2.5570392608642578e-05 5.355104804039001e-07 0.0 0.0 0.0 0.0
0.085 0.9920194149017334 -0.11505994200706482 1.9994564354419708e-05 -3.5150907933712006e-05 0.0 0.0 0.0 0.0
0.086 0.9924914240837097 -0.11631634086370468 -3.3909454941749573e-06 -2.6064924895763397e-05 0.0 0.0 0.0 0.0
0.087 0.991448163986206 -0.11741045117378235 8.285045623779297e-06 -8.286908268928528e-06 0.0 0.0 0.0 0.0
0.088 0.9906907677650452 -0.119101881980896 3.043562173843384e-06 -1.1400319635868073e-05 0.0 0.0 0.0 0.0
0.089 0.9917182922363281 -0.12145174294710159 -1.8300488591194153e-06 1.8564052879810333e-05 0.0 0.0 0.0 0.0
0.09 0.9907122850418091 -0.12190128862857819 2.6579946279525757e-06 6.747432053089142e-06 0.0 0.0 0.0 0.0
0.091 0.9913321137428284 -0.12290076911449432 -1.041404902935028e-05 -5.706213414669037e-06 0.0 0.0 0.0 0.0
0.092 0.9911291599273682 -0.12452230602502823 -6.036832928657532e-06 -1.621246337890625e-05 0.0 0.0 0.0 0.0
0.093 0.9902744293212891 -0.12485220283269882 2.5350600481033325e-06 -1.8030405044555664e-06 0.0 0.0 0.0 0.0
0.094 0.990723729133606 -0.12625016272068024 2.4704262614250183e-05 -5.262903869152069e-06 0.0 0.0 0.0 0.0
0.095 0.9901462197303772 -0.1277686506509781 -1.2869946658611298e-05 -9.271316230297089e-06 0.0 0.0 0.0 0.0
0.096 0.9900721311569214 -0.1296580284833908 -2.5239773094654083e-05 -1.8589198589324951e-06 0.0 0.0 0.0 0.0
0.097 0.9894635677337646 -0.1319430023431778 9.697861969470978e-06 6.070360541343689e-06 0.0 0.0 0.0 0.0
0.098 0.9896823763847351 -0.1329127997159958 -5.688425153493881e-05 2.105720341205597e-06 0.0 0.0 0.0 0.0
0.099 0.9900895357131958 -0.13449057936668396 -1.3013370335102081e-05 -1.3746321201324463e-05 0.0 0.0 0.0 0.0
0.1 0.9891831874847412 -0.1351209282875061 -5.46872615814209e-06 2.5136396288871765e-06 0.0 0.0 0.0 0.0
0.101 0.9877387285232544 -0.1401982605457306 -2.173706889152527e-05 3.821216523647308e-06 0.0 0.0 0.0 0.0
0.102 0.9864803552627563 -0.14221429824829102 4.155561327934265e-06 2.5538727641105652e-05 0.0 0.0 0.0 0.0
0.103 0.986351490020752 -0.14300654828548431 2.236105501651764e-06 -1.7834827303886414e-05 0.0 0.0 0.0 0.0
0.104 0.9861477017402649 -0.14435474574565887 5.223788321018219e-06 8.619390428066254e-06 0.0 0.0 0.0 0.0
0.105 0.9857102036476135 -0.1461402177810669 2.1783635020256042e-06 -1.1171214282512665e-05 0.0 0.0 0.0 0.0
0.106 0.9855337738990784 -0.1477358043193817 3.855675458908081e-06 1.044943928718567e-06 0.0 0.0 0.0 0.0
0.107 0.9854440093040466 -0.1489458978176117 -1.0721385478973389e-05 -4.646368324756622e-06 0.0 0.0 0.0 0.0
0.108 0.9854891300201416 -0.14990423619747162 4.900619387626648e-06 -1.9009225070476532e-05 0.0 0.0 0.0 0.0
0.109 0.9849128723144531 -0.1510881632566452 -1.5487894415855408e-06 -3.6116689443588257e-06 0.0 0.0 0.0 0.0
0.11 0.9845068454742432 -0.1526728868484497 5.403533577919006e-06 1.281779259443283e-05 0.0 0.0 0.0 0.0
0.111 0.9842789173126221 -0.15388338267803192 1.7305836081504822e-05 1.7909333109855652e-06 0.0 0.0 0.0 0.0
0.112 0.9836743474006653 -0.15546607971191406 -6.222166121006012e-06 9.335577487945557e-06 0.0 0.0 0.0 0.0
0.113 0.9836586117744446 -0.15675784647464752 -1.8854625523090363e-05 6.780028343200684e-07 0.0 0.0 0.0 0.0
0.114 0.983729362487793 -0.1580999344587326 7.373280823230743e-06 -6.855465471744537e-06 0.0 0.0 0.0 0.0
0.115 0.9832819104194641 -0.159354567527771 5.17629086971283e-06 2.0607374608516693e-05 0.0 0.0 0.0 0.0
0.116 0.9828969836235046 -0.1605144590139389 -1.044943928718567e-06 -1.343805342912674e-05 0.0 0.0 0.0 0.0
0.117 0.9821150898933411 -0.16194766759872437 5.61494380235672e-06 5.5655837059021e-06 0.0 0.0 0.0 0.0
0.118 0.9819958209991455 -0.1636143922805786 -8.800067007541656e-06 7.869675755500793e-06 0.0 0.0 0.0 0.0
0.119 0.981968104839325 -0.16480278968811035 4.237517714500427e-07 -3.2316893339157104e-06 0.0 0.0 0.0 0.0
0.12 0.9817718267440796 -0.1657111793756485 -1.9573606550693512e-05 -2.484489232301712e-05 0.0 0.0 0.0 0.0
0.121 0.981221616268158 -0.16697880625724792 2.1834857761859894e-05 -2.9159709811210632e-06 0.0 0.0 0.0 0.0
0.122 0.9812884330749512 -0.16861897706985474 -1.3824552297592163e-05 -6.323680281639099e-07 0.0 0.0 0.0 0.0
0.123 0.9807662963867188 -0.17015254497528076 -4.618428647518158e-06 -1.6065314412117004e-06 0.0 0.0 0.0 0.0
0.124 0.9805634021759033 -0.17076550424098969 -1.2854114174842834e-05 -6.275251507759094e-06 0.0 0.0 0.0 0.0
0.125 0.980241596698761 -0.1729034185409546 -6.84056431055069e-06 8.931383490562439e-06 0.0 0.0 0.0 0.0
0.126 0.9800408482551575 -0.17330317199230194 -7.422640919685364e-06 1.1553056538105011e-05 0.0 0.0 0.0 0.0
0.127 0.9796023964881897 -0.1747768670320511 7.341615855693817e-06 2.9103830456733704e-06 0.0 0.0 0.0 0.0
0.128 0.9791964292526245 -0.17535752058029175 1.2556090950965881e-05 7.1711838245391846e-06 0.0 0.0 0.0 0.0
0.129 0.9791812896728516 -0.17734567821025848 -5.759298801422119e-06 -1.3037584722042084e-05 0.0 0.0 0.0 0.0
0.13 0.978969156742096 -0.1790599822998047 -1.7801299691200256e-05 3.444962203502655e-06 0.0 0.0 0.0 0.0
0.131 0.978098452091217 -0.18045376241207123 2.312473952770233e-06 2.7346424758434296e-05 0.0 0.0 0.0 0.0
0.132 0.9778186082839966 -0.18125629425048828 5.736947059631348e-06 5.603767931461334e-06 0.0 0.0 0.0 0.0
0.133 0.9775176644325256 -0.18266956508159637 1.1796131730079651e-05 -8.074566721916199e-06 0.0 0.0 0.0 0.0
0.134 0.9774194359779358 -0.1839880645275116 -1.0123476386070251e-06 -8.683651685714722e-06 0.0 0.0 0.0 0.0
0.135 0.9767917990684509 -0.185103639960289 8.363276720046997e-06 -1.486949622631073e-05 0.0 0.0 0.0 0.0
0.136 0.9770686626434326 -0.186762735247612 9.678304195404053e-06 9.513460099697113e-06 0.0 0.0 0.0 0.0
0.137 0.9763023257255554 -0.18771634995937347 -5.783513188362122e-06 2.2370368242263794e-06 0.0 0.0 0.0 0.0
0.138 0.976134181022644 -0.188896045088768 -4.986301064491272e-06 -1.9511207938194275e-06 0.0 0.0 0.0 0.0
0.139 0.9757404923439026 -0.1907447725534439 6.212852895259857e-06 1.858733594417572e-05 0.0 0.0 0.0 0.0
0.14 0.975521445274353 -0.19167055189609528 -1.1528842151165009e-05 1.068413257598877e-05 0.0 0.0 0.0 0.0
0.141 0.9749568104743958 -0.19321779906749725 -3.3061951398849487e-07 6.3944607973098755e-06 0.0 0.0 0.0 0.0
0.142 0.9745883345603943 -0.19442470371723175 -7.691793143749237e-06 -1.9973143935203552e-05 0.0 0.0 0.0 0.0
0.143 0.9744532704353333 -0.19527187943458557 1.6083940863609314e-06 5.21540641784668e-06 0.0 0.0 0.0 0.0
0.144 0.9739859104156494 -0.19721487164497375 8.70879739522934e-06 8.065253496170044e-07 0.0 0.0 0.0 0.0
0.145 0.9740273356437683 -0.19818924367427826 -7.094815373420715e-06 2.016313374042511e-06 0.0 0.0 0.0 0.0
0.146 0.973149299621582 -0.19924892485141754 2.6552006602287292e-06 6.3944607973098755e-06 0.0 0.0 0.0 0.0
0.147 0.9736283421516418 -0.20067501068115234 -4.3120235204696655e-06 -1.9278377294540405e-07 0.0 0.0 0.0 0.0
0.148 0.9728390574455261 -0.20197416841983795 5.993060767650604e-06 1.2042932212352753e-05 0.0 0.0 0.0 0.0
0.149 0.9725378155708313 -0.20334893465042114 -1.1634081602096558e-05 1.8144026398658752e-05 0.0 0.0 0.0 0.0
0.15 0.9723014831542969 -0.20434622466564178 1.594237983226776e-05 -5.912035703659058e-06 0.0 0.0 0.0 0.0
0.151 0.9715107679367065 -0.20587199926376343 2.60770320892334e-08 8.706934750080109e-06 0.0 0.0 0.0 0.0
0.152 0.9716634750366211 -0.2070579081773758 -8.916482329368591e-06 -1.2665987014770508e-06 0.0 0.0 0.0 0.0
0.153 0.9718373417854309 -0.2079906165599823 -1.2744218111038208e-05 -2.2361986339092255e-05 0.0 0.0 0.0 0.0
0.154 0.9709372520446777 -0.2093004435300827 6.076879799365997e-06 -1.017935574054718e-05 0.0 0.0 0.0 0.0
0.155 0.9706920981407166 -0.21054638922214508 -4.665926098823547e-06 -6.697140634059906e-06 0.0 0.0 0.0 0.0
0.156 0.9703530669212341 -0.21203826367855072 1.5744008123874664e-05 1.3287179172039032e-05 0.0 0.0 0.0 0.0
0.157 0.9699835777282715 -0.2132081836462021 1.4826655387878418e-06 1.4574266970157623e-05 0.0 0.0 0.0 0.0
0.158 0.9698494672775269 -0.21415917575359344 -2.987682819366455e-06 -1.3517215847969055e-05 0.0 0.0 0.0 0.0
0.159 0.9688809514045715 -0.21557900309562683 5.922280251979828e-06 6.337650120258331e-06 0.0 0.0 0.0 0.0
0.16 0.9688282012939453 -0.21698929369449615 -5.365349352359772e-06 1.2544915080070496e-06 0.0 0.0 0.0 0.0
0.161 0.9685176014900208 -0.2184925377368927 -1.5283003449440002e-06 2.6756897568702698e-06 0.0 0.0 0.0 0.0
0.162 0.968155026435852 -0.21914122998714447 -8.502975106239319e-07 -9.453855454921722e-06 0.0 0.0 0.0 0.0
0.163 0.9679440259933472 -0.2209649682044983 -3.538094460964203e-06 -7.388181984424591e-06 0.0 0.0 0.0 0.0
0.164 0.9672887921333313 -0.22184720635414124 2.2854655981063843e-06 5.029141902923584e-07 0.0 0.0 0.0 0.0
0.165 0.9665852785110474 -0.22317585349082947 1.7688609659671783e-05 -1.1611729860305786e-05 0.0 0.0 0.0 0.0
0.166 0.966899037361145 -0.2247583419084549 3.978610038757324e-06 -3.98978590965271e-06 0.0 0.0 0.0 0.0
0.167 0.9664980173110962 -0.2255156934261322 -1.168716698884964e-05 2.5704503059387207e-07 0.0 0.0 0.0 0.0
0.168 0.9662116169929504 -0.22728857398033142 6.0461461544036865e-06 1.6819685697555542e-06 0.0 0.0 0.0 0.0
0.169 0.9658851623535156 -0.22806210815906525 3.119930624961853e-07 2.1716579794883728e-05 0.0 0.0 0.0 0.0
0.17 0.965325653553009 -0.2291775494813919 -1.6355887055397034e-05 -4.256144165992737e-07 0.0 0.0 0.0 0.0
0.171 0.964916467666626 -0.23095011711120605 2.117827534675598e-06 1.4584511518478394e-06 0.0 0.0 0.0 0.0
0.172 0.9646114706993103 -0.23195059597492218 -9.360723197460175e-06 1.6800127923488617e-05 0.0 0.0 0.0 0.0
0.173 0.9646157622337341 -0.2329859435558319 -8.931383490562439e-06 2.0759180188179016e-06 0.0 0.0 0.0 0.0
0.174 0.9634284973144531 -0.23394128680229187 5.7229772210121155e-06 1.0000541806221008e-05 0.0 0.0 0.0 0.0
0.175 0.9635186791419983 -0.23528937995433807 -1.0263174772262573e-06 1.2313015758991241e-05 0.0 0.0 0.0 0.0
0.176 0.9630804657936096 -0.23661962151527405 -7.842667400836945e-06 -2.4097971618175507e-05 0.0 0.0 0.0 0.0
0.177 0.962812066078186 -0.23801632225513458 -2.4046748876571655e-05 1.3288110494613647e-05 0.0 0.0 0.0 0.0
0.178 0.962289035320282 -0.23965467512607574 8.949078619480133e-06 -4.218891263008118e-06 0.0 0.0 0.0 0.0
0.179 0.9620999693870544 -0.24026155471801758 1.8569640815258026e-05 -4.634261131286621e-06 0.0 0.0 0.0 0.0
0.18 0.9611824750900269 -0.24154967069625854 -4.341825842857361e-06 -2.0557083189487457e-05 0.0 0.0 0.0 0.0
0.181 0.9615615010261536 -0.24301593005657196 3.5446137189865112e-06 1.4998018741607666e-05 0.0 0.0 0.0 0.0
0.182 0.9611302614212036 -0.24383218586444855 6.807968020439148e-07 -1.0719522833824158e-05 0.0 0.0 0.0 0.0
0.183 0.9607579708099365 -0.24514172971248627 9.114854037761688e-06 8.800998330116272e-07 0.0 0.0 0.0 0.0
0.184 0.9602501392364502 -0.24710284173488617 1.6968697309494019e-06 -8.596107363700867e-07 0.0 0.0 0.0 0.0
0.185 0.9599894881248474 -0.24767087399959564 8.61380249261856e-06 -1.3506971299648285e-05 0.0 0.0 0.0 0.0
0.186 0.959702730178833 -0.24910393357276917 -7.168389856815338e-06 3.2279640436172485e-06 0.0 0.0 0.0 0.0
0.187 0.9595865607261658 -0.24981191754341125 1.0065734386444092e-05 -1.0306015610694885e-05 0.0 0.0 0.0 0.0
0.188 0.9586370587348938 -0.25152143836021423 -5.725771188735962e-06 -4.889443516731262e-06 0.0 0.0 0.0 0.0
0.189 0.9580755233764648 -0.25261446833610535 -9.867362678050995e-06 2.1863728761672974e-05 0.0 0.0 0.0 0.0
0.19 0.9579422473907471 -0.25431397557258606 1.1459924280643463e-05 1.7039477825164795e-05 0.0 0.0 0.0 0.0
0.191 0.9571895599365234 -0.2545202374458313 -1.6283243894577026e-05 -1.644715666770935e-05 0.0 0.0 0.0 0.0
0.192 0.9564287066459656 -0.25585275888442993 -2.123415470123291e-07 9.146519005298615e-06 0.0 0.0 0.0 0.0
0.193 0.9565044641494751 -0.256672203540802 1.2093223631381989e-05 -9.821727871894836e-06 0.0 0.0 0.0 0.0
0.194 0.9564555287361145 -0.25791656970977783 -2.100132405757904e-06 -1.6910023987293243e-05 0.0 0.0 0.0 0.0
0.195 0.9560447335243225 -0.2591247856616974 -1.1372379958629608e-05 -1.58604234457016e-06 0.0 0.0 0.0 0.0
0.196 0.9553261399269104 -0.2606617510318756 1.8562190234661102e-05 -2.5900080800056458e-06 0.0 0.0 0.0 0.0
0.197 0.955424427986145 -0.26223474740982056 -2.6924535632133484e-06 -6.314367055892944e-06 0.0 0.0 0.0 0.0
0.198 0.9550495743751526 -0.2628125250339508 -3.0125491321086884e-05 2.7241185307502747e-06 0.0 0.0 0.0 0.0
0.199 0.9546973705291748 -0.26388341188430786 4.9443915486335754e-06 -1.1082738637924194e-07 0.0 0.0 0.0 0.0
0.2 0.9544739127159119 -0.26556846499443054 -4.7674402594566345e-06 1.1330470442771912e-05 0.0 0.0 0.0 0.0
0.201 0.9540871977806091 -0.2662334740161896 3.141351044178009e-06 -9.466893970966339e-06 0.0 0.0 0.0 0.0
0.202 0.9535256028175354 -0.2670096158981323 -9.298324584960938e-06 -1.1875294148921967e-05 0.0 0.0 0.0 0.0
0.203 0.952940046787262 -0.2690184414386749 6.90855085849762e-06 3.096647560596466e-06 0.0 0.0 0.0 0.0
0.204 0.9528399705886841 -0.27004164457321167 4.211440682411194e-06 -6.357207894325256e-06 0.0 0.0 0.0 0.0
0.205 0.9523478150367737 -0.2714146077632904 7.725320756435394e-06 2.596527338027954e-06 0.0 0.0 0.0 0.0
0.206 0.9522939920425415 -0.27277740836143494 8.298084139823914e-07 -1.8890947103500366e-05 0.0 0.0 0.0 0.0
0.207 0.9516593217849731 -0.273785799741745 -2.884306013584137e-06 6.465241312980652e-06 0.0 0.0 0.0 0.0
0.208 0.9510029554367065 -0.2752182185649872 -3.2437965273857117e-06 1.5749596059322357e-05 0.0 0.0 0.0 0.0
0.209 0.9510356783866882 -0.27658843994140625 -6.644055247306824e-06 1.8253922462463379e-06 0.0 0.0 0.0 0.0
0.21 0.9502986073493958 -0.2769779860973358 9.24430787563324e-06 -1.380033791065216e-05 0.0 0.0 0.0 0.0
0.211 0.9502683877944946 -0.2784026265144348 2.1377578377723694e-05 1.236889511346817e-05 0.0 0.0 0.0 0.0
0.212 0.9502243995666504 -0.2798704206943512 -1.6473233699798584e-05 -1.1390075087547302e-05 0.0 0.0 0.0 0.0
0.213 0.9495418667793274 -0.2800901234149933 1.0394491255283356e-05 -1.446995884180069e-05 0.0 0.0 0.0 0.0
0.214 0.9493378400802612 -0.2819795608520508 -1.5064142644405365e-05 6.146728992462158e-08 0.0 0.0 0.0 0.0
0.215 0.9486151337623596 -0.2830018699169159 5.717389285564423e-06 1.566670835018158e-05 0.0 0.0 0.0 0.0
0.216 0.948225736618042 -0.2835621237754822 -8.72928649187088e-06 -7.777474820613861e-06 0.0 0.0 0.0 0.0
0.217 0.9481509923934937 -0.28562191128730774 9.828247129917145e-06 -6.265006959438324e-06 0.0 0.0 0.0 0.0
0.218 0.9474201202392578 -0.28667429089546204 1.5311874449253082e-05 -1.8895603716373444e-05 0.0 0.0 0.0 0.0
0.219 0.9471772313117981 -0.28802525997161865 -1.471303403377533e-05 -7.992610335350037e-06 0.0 0.0 0.0 0.0
0.22 0.9471597671508789 -0.2886521816253662 -3.0685216188430786e-05 -2.5173649191856384e-06 0.0 0.0 0.0 0.0
0.221 0.946329653263092 -0.2896003723144531 5.959533154964447e-06 7.49342143535614e-06 0.0 0.0 0.0 0.0
0.222 0.9453368782997131 -0.291721373796463 2.9384158551692963e-05 1.1067837476730347e-05 0.0 0.0 0.0 0.0
0.223 0.9460905194282532 -0.2921512722969055 -1.8860213458538055e-05 5.735084414482117e-06 0.0 0.0 0.0 0.0
0.224 0.944969117641449 -0.293295681476593 -2.0500272512435913e-05 -1.7974525690078735e-06 0.0 0.0 0.0 0.0
0.225 0.9442784190177917 -0.29489898681640625 -1.5333294868469238e-05 1.156982034444809e-05 0.0 0.0 0.0 0.0
0.226 0.9450917840003967 -0.2954500913619995 3.5855919122695923e-06 5.8067962527275085e-06 0.0 0.0 0.0 0.0
0.227 0.9442439675331116 -0.29650741815567017 1.8200837075710297e-05 3.906898200511932e-06 0.0 0.0 0.0 0.0
0.228 0.9435656666755676 -0.29817885160446167 -1.58604234457016e-06 8.226372301578522e-06 0.0 0.0 0.0 0.0
0.229 0.9432899951934814 -0.29931846261024475 -3.9711594581604e-06 2.2416934370994568e-06 0.0 0.0 0.0 0.0
0.23 0.9427928328514099 -0.30023902654647827 -1.5027821063995361e-05 -6.361864507198334e-06 0.0 0.0 0.0 0.0
0.231 0.9423558712005615 -0.30154183506965637 8.267350494861603e-06 -7.720664143562317e-07 0.0 0.0 0.0 0.0
0.232 0.9426694512367249 -0.30241984128952026 4.316680133342743e-06 -4.7404319047927856e-07 0.0 0.0 0.0 0.0
0.233 0.9412820339202881 -0.30357563495635986 5.344860255718231e-06 -1.1759810149669647e-05 0.0 0.0 0.0 0.0
0.234 0.9415874481201172 -0.3049823045730591 -1.8971040844917297e-06 -8.15652310848236e-06 0.0 0.0 0.0 0.0
0.235 0.9406699538230896 -0.305829793214798 -3.186054527759552e-06 8.306466042995453e-06 0.0 0.0 0.0 0.0
0.236 0.9400473237037659 -0.3076981008052826 -2.6951543986797333e-05 -1.8812716007232666e-05 0.0 0.0 0.0 0.0
0.237 0.9400745630264282 -0.30854564905166626 1.2294389307498932e-05 -6.051734089851379e-06 0.0 0.0 0.0 0.0
0.238 0.9395624399185181 -0.30980196595191956 4.91458922624588e-06 -2.3795291781425476e-06 0.0 0.0 0.0 0.0
0.239 0.9386723637580872 -0.3113150894641876 -8.481554687023163e-06 3.1245872378349304e-06 0.0 0.0 0.0 0.0
0.24 0.9389856457710266 -0.31177419424057007 -6.466172635555267e-06 -6.618909537792206e-06 0.0 0.0 0.0 0.0
0.241 0.938309907913208 -0.3128722906112671 -9.09995287656784e-06 -4.081986844539642e-06 0.0 0.0 0.0 0.0
0.242 0.9375498294830322 -0.3143489956855774 9.698793292045593e-06 -6.064772605895996e-06 0.0 0.0 0.0 0.0
0.243 0.9379876852035522 -0.31524667143821716 1.4118850231170654e-06 -6.039626896381378e-06 0.0 0.0 0.0 0.0
0.244 0.9377292394638062 -0.31599754095077515 1.1489726603031158e-05 1.6825273633003235e-05 0.0 0.0 0.0 0.0
0.245 0.9367918372154236 -0.31745025515556335 1.8254853785037994e-05 -1.1761672794818878e-05 0.0 0.0 0.0 0.0
0.246 0.9365069270133972 -0.31867533922195435 7.070600986480713e-06 1.8961727619171143e-06 0.0 0.0 0.0 0.0
0.247 0.9359362125396729 -0.3196008503437042 -3.452412784099579e-06 1.2353993952274323e-05 0.0 0.0 0.0 0.0
0.248 0.9357918500900269 -0.32106199860572815 -1.3778917491436005e-05 -1.9567087292671204e-05 0.0 0.0 0.0 0.0
0.249 0.9351804256439209 -0.3215794265270233 1.559872180223465e-05 -1.7923302948474884e-05 0.0 0.0 0.0 0.0
0.25 0.9349146485328674 -0.3226011097431183 -5.602836608886719e-06 -1.3294629752635956e-05 0.0 0.0 0.0 0.0
0.251 0.9342730641365051 -0.32455411553382874 -1.7231330275535583e-05 1.766253262758255e-05 0.0 0.0 0.0 0.0
0.252 0.9342140555381775 -0.3248198926448822 -1.9128434360027313e-05 1.833215355873108e-05 0.0 0.0 0.0 0.0
0.253 0.9332176446914673 -0.3263476490974426 2.7799978852272034e-06 8.929520845413208e-06 0.0 0.0 0.0 0.0
0.254 0.9336981773376465 -0.3275308907032013 -2.416316419839859e-05 -8.847564458847046e-07 0.0 0.0 0.0 0.0
0.255 0.9328065514564514 -0.32878848910331726 -1.044105738401413e-05 1.5577301383018494e-05 0.0 0.0 0.0 0.0
0.256 0.9320274591445923 -0.32927805185317993 8.516944944858551e-06 1.9078142940998077e-05 0.0 0.0 0.0 0.0
0.257 0.9324604868888855 -0.33083289861679077 -1.373235136270523e-05 -3.2028183341026306e-06 0.0 0.0 0.0 0.0
0.258 0.9318017363548279 -0.3319284915924072 -2.707354724407196e-06 2.263113856315613e-06 0.0 0.0 0.0 0.0
0.259 0.9311890602111816 -0.3334576487541199 -6.1141327023506165e-06 3.5297125577926636e-07 0.0 0.0 0.0 0.0
0.26 0.9311392903327942 -0.33447182178497314 5.533918738365173e-06 -6.346963346004486e-06 0.0 0.0 0.0 0.0
0.261 0.9304157495498657 -0.3351364731788635 -7.4123963713645935e-06 -1.7774291336536407e-05 0.0 0.0 0.0 0.0
0.262 0.9301795959472656 -0.3368035554885864 -2.5210902094841003e-06 3.5390257835388184e-06 0.0 0.0 0.0 0.0
0.263 0.9296420216560364 -0.33720991015434265 8.260831236839294e-07 7.896684110164642e-06 0.0 0.0 0.0 0.0
0.264 0.9283972382545471 -0.3386133015155792 1.9837170839309692e-07 2.934597432613373e-06 0.0 0.0 0.0 0.0
0.265 0.9286216497421265 -0.33965402841567993 -5.356036126613617e-06 -5.08967787027359e-06 0.0 0.0 0.0 0.0
0.266 0.9286902546882629 -0.34039783477783203 2.9001384973526e-06 -1.0808929800987244e-05 0.0 0.0 0.0 0.0
0.267 0.9276995062828064 -0.3424229919910431 -1.491699367761612e-05 1.277867704629898e-05 0.0 0.0 0.0 0.0
0.268 0.9275734424591064 -0.34326329827308655 -9.04034823179245e-06 -6.726942956447601e-06 0.0 0.0 0.0 0.0
0.269 0.927315890789032 -0.3438972532749176 -1.3066455721855164e-06 7.193535566329956e-06 0.0 0.0 0.0 0.0
0.27 0.9262614846229553 -0.34533974528312683 2.252776175737381e-05 3.7085264921188354e-06 0.0 0.0 0.0 0.0
0.271 0.9260128140449524 -0.3466719686985016 -1.0868534445762634e-06 -1.9432976841926575e-05 0.0 0.0 0.0 0.0
0.272 0.9257222414016724 -0.34780028462409973 1.1700205504894257e-05 2.2860243916511536e-05 0.0 0.0 0.0 0.0
0.273 0.9259171485900879 -0.3486272990703583 -5.252659320831299e-06 -4.509463906288147e-06 0.0 0.0 0.0 0.0
0.274 0.9251576066017151 -0.3492555320262909 -3.3097341656684875e-05 7.116235792636871e-06 0.0 0.0 0.0 0.0
0.275 0.9243348836898804 -0.3507838845252991 7.039867341518402e-06 -1.2150034308433533e-05 0.0 0.0 0.0 0.0
0.276 0.9243090748786926 -0.35187020897865295 -1.4550983905792236e-05 3.40072438120842e-05 0.0 0.0 0.0 0.0
0.277 0.9236881136894226 -0.35296472907066345 -1.6391277313232422e-05 4.519708454608917e-06 0.0 0.0 0.0 0.0
0.278 0.9233887791633606 -0.354361355304718 -1.0755844414234161e-05 -2.7585774660110474e-06 0.0 0.0 0.0 0.0
0.279 0.9231711626052856 -0.3554689884185791 -8.306466042995453e-06 -3.684312105178833e-06 0.0 0.0 0.0 0.0
0.28 0.9225497841835022 -0.35629937052726746 7.216818630695343e-06 -3.1953677535057068e-06 0.0 0.0 0.0 0.0
0.281 0.9223363399505615 -0.3572421669960022 2.4335458874702454e-06 1.862645149230957e-07 0.0 0.0 0.0 0.0
0.282 0.9220729470252991 -0.35913389921188354 -1.0698102414608002e-05 -2.134963870048523e-05 0.0 0.0 0.0 0.0
0.283 0.9215197563171387 -0.35965195298194885 -1.1762604117393494e-05 -6.486661732196808e-06 0.0 0.0 0.0 0.0
0.284 0.9206843972206116 -0.36145278811454773 1.7704442143440247e-06 -1.8773600459098816e-05 0.0 0.0 0.0 0.0
0.285 0.9206726551055908 -0.3620443642139435 -9.593553841114044e-06 3.246590495109558e-06 0.0 0.0 0.0 0.0
0.286 0.9199640154838562 -0.36299654841423035 -8.285976946353912e-06 6.226822733879089e-06 0.0 0.0 0.0 0.0
0.287 0.9190893173217773 -0.36480456590652466 1.0808929800987244e-05 1.1778436601161957e-05 0.0 0.0 0.0 0.0
0.288 0.9194067716598511 -0.3649832010269165 -8.12578946352005e-06 -1.0198913514614105e-05 0.0 0.0 0.0 0.0
0.289 0.9187055230140686 -0.36586084961891174 2.7101486921310425e-06 1.8251128494739532e-05 0.0 0.0 0.0 0.0
0.29 0.9182186722755432 -0.3676632046699524 2.380460500717163e-06 2.6295892894268036e-05 0.0 0.0 0.0 0.0
0.291 0.9182605147361755 -0.36843764781951904 6.042420864105225e-06 -2.2212974727153778e-05 0.0 0.0 0.0 0.0
0.292 0.9176818132400513 -0.3692731261253357 2.5797635316848755e-06 -1.3726763427257538e-05 0.0 0.0 0.0 0.0
0.293 0.9173205494880676 -0.3709311783313751 -1.09868124127388e-05 6.408430635929108e-06 0.0 0.0 0.0 0.0
0.294 0.9166832566261292 -0.37208595871925354 -1.0346993803977966e-06 6.8675726652145386e-06 0.0 0.0 0.0 0.0
0.295 0.9160026907920837 -0.37309956550598145 1.1790543794631958e-06 1.62636861205101e-05 0.0 0.0 0.0 0.0
0.296 0.9161005616188049 -0.3739102780818939 -6.94766640663147e-06 -3.1888484954833984e-06 0.0 0.0 0.0 0.0
0.297 0.9157972931861877 -0.37473264336586 1.2600794434547424e-05 -3.139488399028778e-06 0.0 0.0 0.0 0.0
0.298 0.9152911901473999 -0.375658243894577 6.875954568386078e-06 1.4837831258773804e-05 0.0 0.0 0.0 0.0
0.299 0.9150615930557251 -0.37736886739730835 -7.878057658672333e-06 -1.5459954738616943e-05 0.0 0.0 0.0 0.0
0.3 0.9148908853530884 -0.3778707981109619 1.7182901501655579e-06 2.2299587726593018e-05 0.0 0.0 0.0 0.0
0.301 0.9141280651092529 -0.3793972134590149 1.2644566595554352e-05 1.4812685549259186e-05 0.0 0.0 0.0 0.0
0.302 0.913659930229187 -0.3807004690170288 8.754432201385498e-07 9.309500455856323e-06 0.0 0.0 0.0 0.0
0.303 0.9129684567451477 -0.3813530206680298 2.8517097234725952e-06 5.578622221946716e-07 0.0 0.0 0.0 0.0
0.304 0.9125921130180359 -0.38311317563056946 8.639879524707794e-06 1.0447576642036438e-05 0.0 0.0 0.0 0.0
0.305 0.9126099348068237 -0.38367632031440735 -2.0859763026237488e-05 1.8738210201263428e-06 0.0 0.0 0.0 0.0
0.306 0.9117411971092224 -0.38426393270492554 -1.5970319509506226e-05 2.2200867533683777e-05 0.0 0.0 0.0 0.0
0.307 0.9114674925804138 -0.38576987385749817 3.7159770727157593e-06 -9.676441550254822e-06 0.0 0.0 0.0 0.0
0.308 0.9112629294395447 -0.3867111802101135 2.4384818971157074e-05 1.3311393558979034e-05 0.0 0.0 0.0 0.0
0.309 0.9105030298233032 -0.38751351833343506 -1.0902062058448792e-05 -3.518536686897278e-06 0.0 0.0 0.0 0.0
0.31 0.910257875919342 -0.3888963460922241 -1.2838281691074371e-05 -1.8429942429065704e-05 0.0 0.0 0.0 0.0
0.311 0.90998774766922 -0.38979029655456543 1.9371509552001953e-06 7.916241884231567e-06 0.0 0.0 0.0 0.0
0.312 0.9094484448432922 -0.39126837253570557 2.29664146900177e-06 4.308298230171204e-06 0.0 0.0 0.0 0.0
0.313 0.9094854593276978 -0.3921680152416229 9.754672646522522e-06 9.367242455482483e-06 0.0 0.0 0.0 0.0
0.314 0.9084421992301941 -0.39375075697898865 -4.945322871208191e-07 -1.2014061212539673e-07 0.0 0.0 0.0 0.0
0.315 0.907849133014679 -0.39446690678596497 -1.3717450201511383e-05 1.0711140930652618e-05 0.0 0.0 0.0 0.0
0.316 0.9081916213035583 -0.3958222568035126 3.831461071968079e-06 3.4999102354049683e-06 0.0 0.0 0.0 0.0
0.317 0.9070848226547241 -0.3968054950237274 1.1558644473552704e-05 7.002614438533783e-06 0.0 0.0 0.0 0.0
0.318 0.9073336720466614 -0.39728817343711853 -7.012858986854553e-07 -6.621703505516052e-06 0.0 0.0 0.0 0.0
0.319 0.9065143465995789 -0.39879652857780457 3.2046809792518616e-06 8.194707334041595e-06 0.0 0.0 0.0 0.0
0.32 0.9059631824493408 -0.39951208233833313 2.50060111284256e-06 7.733702659606934e-06 0.0 0.0 0.0 0.0
0.321 0.9056196212768555 -0.40086629986763 1.5380792319774628e-05 6.5425410866737366e-06 0.0 0.0 0.0 0.0
0.322 0.9054462909698486 -0.4027605354785919 -7.838010787963867e-06 1.394655555486679e-05 0.0 0.0 0.0 0.0
0.323 0.9050201773643494 -0.4023628532886505 6.220303475856781e-06 -1.4367513358592987e-05 0.0 0.0 0.0 0.0
0.324 0.9043147563934326 -0.4042242765426636 2.9588118195533752e-06 -1.948326826095581e-06 0.0 0.0 0.0 0.0
0.325 0.9042966961860657 -0.4052042067050934 -1.2055039405822754e-05 -3.632158041000366e-07 0.0 0.0 0.0 0.0
0.326 0.903474748134613 -0.4064353406429291 6.612390279769897e-08 5.4817646741867065e-06 0.0 0.0 0.0 0.0
0.327 0.9033130407333374 -0.40794724225997925 2.7101486921310425e-07 5.3765252232551575e-06 0.0 0.0 0.0 0.0
0.328 0.9032726287841797 -0.40746793150901794 -1.6410835087299347e-05 3.246590495109558e-06 0.0 0.0 0.0 0.0
0.329 0.902279257774353 -0.40953949093818665 1.191161572933197e-06 -2.9318034648895264e-05 0.0 0.0 0.0 0.0
0.33 0.9023709297180176 -0.41073378920555115 2.5797635316848755e-07 -3.4617260098457336e-06 0.0 0.0 0.0 0.0
0.331 0.90179443359375 -0.41094860434532166 9.11857932806015e-06 1.9650906324386597e-06 0.0 0.0 0.0 0.0
0.332 0.9009531736373901 -0.4133664071559906 -1.7974525690078735e-07 7.829628884792328e-06 0.0 0.0 0.0 0.0
0.333 0.9010158181190491 -0.41297030448913574 1.9402243196964264e-05 9.511597454547882e-06 0.0 0.0 0.0 0.0
0.334 0.9000275135040283 -0.4143146574497223 -8.342787623405457e-06 2.091098576784134e-05 0.0 0.0 0.0 0.0
0.335 0.8996126055717468 -0.41648930311203003 -5.261972546577454e-07 1.9991770386695862e-05 0.0 0.0 0.0 0.0
0.336 0.9006065130233765 -0.4163069725036621 -2.2289343178272247e-05 -2.251937985420227e-06 0.0 0.0 0.0 0.0
0.337 0.8992928862571716 -0.41760891675949097 -2.0626932382583618e-05 -3.082677721977234e-06 0.0 0.0 0.0 0.0
0.338 0.8986050486564636 -0.41970330476760864 2.555549144744873e-06 3.116205334663391e-06 0.0 0.0 0.0 0.0
0.339 0.8985419273376465 -0.41934993863105774 -5.780719220638275e-06 7.860362529754639e-07 0.0 0.0 0.0 0.0
0.34 0.8976795673370361 -0.42121028900146484 -2.232380211353302e-06 1.387670636177063e-06 0.0 0.0 0.0 0.0
0.341 0.8976896405220032 -0.4223115146160126 4.777684807777405e-07 4.697591066360474e-06 0.0 0.0 0.0 0.0
0.342 0.896769106388092 -0.4234778583049774 -5.558133125305176e-06 8.64081084728241e-06 0.0 0.0 0.0 0.0
0.343 0.8971408605575562 -0.42404231429100037 8.983537554740906e-06 1.6055069863796234e-05 0.0 0.0 0.0 0.0
0.344 0.8958516716957092 -0.4254385530948639 7.893890142440796e-06 1.544225960969925e-05 0.0 0.0 0.0 0.0
0.345 0.896094560623169 -0.42606207728385925 -2.9997900128364563e-05 -6.463378667831421e-06 0.0 0.0 0.0 0.0
0.346 0.8951916098594666 -0.4276311695575714 1.9113533198833466e-05 -7.1711838245391846e-06 0.0 0.0 0.0 0.0
0.347 0.8950324654579163 -0.42831072211265564 -1.3481825590133667e-05 1.2759119272232056e-06 0.0 0.0 0.0 0.0
0.348 0.8945525884628296 -0.4298657178878784 -6.477348506450653e-06 -7.238239049911499e-06 0.0 0.0 0.0 0.0
0.349 0.8941839933395386 -0.4305412173271179 2.4158507585525513e-06 1.2849457561969757e-05 0.0 0.0 0.0 0.0
0.35 0.8942188620567322 -0.43094003200531006 -3.661029040813446e-06 -4.384666681289673e-06 0.0 0.0 0.0 0.0
0.351 0.8934652805328369 -0.43267202377319336 -4.5280903577804565e-06 1.7713755369186401e-06 0.0 0.0 0.0 0.0
0.352 0.8926123380661011 -0.43394559621810913 -6.57886266708374e-06 2.3935921490192413e-05 0.0 0.0 0.0 0.0
0.353 0.8926088809967041 -0.43451395630836487 -5.799345672130585e-06 -6.996095180511475e-06 0.0 0.0 0.0 0.0
0.354 0.8921675086021423 -0.43610429763793945 -1.0458752512931824e-06 -1.2886710464954376e-05 0.0 0.0 0.0 0.0
0.355 0.8914268016815186 -0.43688419461250305 -5.432404577732086e-06 4.393979907035828e-06 0.0 0.0 0.0 0.0
0.356 0.890788733959198 -0.43781864643096924 1.581478863954544e-05 3.308989107608795e-06 0.0 0.0 0.0 0.0
0.357 0.8910777568817139 -0.43848153948783875 1.4853663742542267e-05 1.768302172422409e-05 0.0 0.0 0.0 0.0
0.358 0.890182375907898 -0.43980565667152405 3.7243589758872986e-06 -4.624016582965851e-06 0.0 0.0 0.0 0.0
0.359 0.8897631168365479 -0.44066208600997925 5.997717380523682e-07 -8.04755836725235e-06 0.0 0.0 0.0 0.0
0.36 0.8890706300735474 -0.4421268701553345 -1.1013820767402649e-05 -7.982365787029266e-06 0.0 0.0 0.0 0.0
0.361 0.8891909122467041 -0.4431699514389038 -5.532987415790558e-06 1.1078082025051117e-05 0.0 0.0 0.0 0.0
0.362 0.8881964087486267 -0.44442567229270935 2.779066562652588e-06 1.534540206193924e-05 0.0 0.0 0.0 0.0
0.363 0.8887605667114258 -0.44564157724380493 -6.969086825847626e-06 -3.03611159324646e-06 0.0 0.0 0.0 0.0
0.364 0.8880865573883057 -0.4457704722881317 3.7997961044311523e-06 -1.7476268112659454e-05 0.0 0.0 0.0 0.0
0.365 0.8875482678413391 -0.4475518465042114 -1.3881362974643707e-05 -1.5402212738990784e-05 0.0 0.0 0.0 0.0
0.366 0.8875375390052795 -0.44814324378967285 7.500872015953064e-06 -6.559304893016815e-06 0.0 0.0 0.0 0.0
0.367 0.886878252029419 -0.44958657026290894 9.463168680667877e-06 -1.3695098459720612e-05 0.0 0.0 0.0 0.0
0.368 0.8859691023826599 -0.4508809447288513 2.2113323211669922e-05 3.1385570764541626e-06 0.0 0.0 0.0 0.0
0.369 0.8861850500106812 -0.4511971175670624 -1.1540018022060394e-05 -1.3734214007854462e-05 0.0 0.0 0.0 0.0
0.37 0.885086178779602 -0.45249393582344055 -1.3791024684906006e-05 -1.531001180410385e-05 0.0 0.0 0.0 0.0
0.371 0.8849661350250244 -0.4539908170700073 -1.594703644514084e-05 -1.5016645193099976e-05 0.0 0.0 0.0 0.0
0.372 0.8839754462242126 -0.45458316802978516 -1.9157305359840393e-06 -1.556146889925003e-05 0.0 0.0 0.0 0.0
0.373 0.8834103941917419 -0.4555843770503998 1.4120712876319885e-05 1.2627802789211273e-05 0.0 0.0 0.0 0.0
0.374 0.8834173679351807 -0.45755791664123535 5.173496901988983e-06 -1.1914409697055817e-05 0.0 0.0 0.0 0.0
0.375 0.883273720741272 -0.4572637975215912 -1.3676472008228302e-05 -1.2302771210670471e-05 0.0 0.0 0.0 0.0
0.376 0.8824077248573303 -0.4590708017349243 1.2276694178581238e-05 2.2654421627521515e-05 0.0 0.0 0.0 0.0
0.377 0.8823046684265137 -0.4605402946472168 1.2179836630821228e-05 -2.5425106287002563e-07 0.0 0.0 0.0 0.0
0.378 0.8822354078292847 -0.4610802233219147 -1.0479241609573364e-05 6.454996764659882e-06 0.0 0.0 0.0 0.0
0.379 0.8812981247901917 -0.4621749520301819 2.132449299097061e-05 -1.857895404100418e-05 0.0 0.0 0.0 0.0
0.38 0.8805811405181885 -0.46338725090026855 -6.448477506637573e-06 -2.8815120458602905e-06 0.0 0.0 0.0 0.0
0.381 0.8798136115074158 -0.463901549577713 1.197773963212967e-05 1.547485589981079e-05 0.0 0.0 0.0 0.0
0.382 0.8791693449020386 -0.4648090600967407 -4.000961780548096e-06 9.213574230670929e-06 0.0 0.0 0.0 0.0
0.383 0.8791256546974182 -0.4655994176864624 7.026828825473785e-06 -9.686686098575592e-06 0.0 0.0 0.0 0.0
0.384 0.8794682025909424 -0.4672115445137024 -1.4091841876506805e-05 -3.334134817123413e-06 0.0 0.0 0.0 0.0
0.385 0.8783690929412842 -0.46712878346443176 1.0643154382705688e-05 9.967945516109467e-06 0.0 0.0 0.0 0.0
0.386 0.8786630034446716 -0.4684426188468933 -1.3906508684158325e-05 -2.1476298570632935e-06 0.0 0.0 0.0 0.0
0.387 0.8787382245063782 -0.46924978494644165 -3.4011900424957275e-06 -6.952323019504547e-06 0.0 0.0 0.0 0.0
0.388 0.8774535655975342 -0.47077441215515137 -7.248483598232269e-06 8.65943729877472e-06 0.0 0.0 0.0 0.0
0.389 0.8778112530708313 -0.47184455394744873 4.610978066921234e-06 -1.968350261449814e-05 0.0 0.0 0.0 0.0
0.39 0.8777723908424377 -0.4730474054813385 -5.7425349950790405e-06 -1.2736767530441284e-05 0.0 0.0 0.0 0.0
0.391 0.8768971562385559 -0.47388121485710144 -1.3546086847782135e-05 1.0138377547264099e-05 0.0 0.0 0.0 0.0
0.392 0.8759976625442505 -0.47537022829055786 -1.3977289199829102e-05 -1.3945624232292175e-05 0.0 0.0 0.0 0.0
0.393 0.8757653832435608 -0.4761785566806793 1.2080185115337372e-05 -3.936700522899628e-06 0.0 0.0 0.0 0.0
0.394 0.8752853870391846 -0.4769611954689026 4.974193871021271e-06 -1.6121193766593933e-05 0.0 0.0 0.0 0.0
0.395 0.8752105236053467 -0.47827795147895813 -2.7563422918319702e-05 -5.560927093029022e-06 0.0 0.0 0.0 0.0
0.396 0.8748353719711304 -0.4788556396961212 1.571420580148697e-05 1.8659047782421112e-05 0.0 0.0 0.0 0.0
0.397 0.8741366863250732 -0.4801848530769348 4.197470843791962e-06 7.438473403453827e-06 0.0 0.0 0.0 0.0
0.398 0.8737621903419495 -0.4819025993347168 -2.5841407477855682e-05 1.0163523256778717e-05 0.0 0.0 0.0 0.0
0.399 0.8735116720199585 -0.48257875442504883 1.7210841178894043e-06 -2.3828819394111633e-05 0.0 0.0 0.0 0.0
0.4 0.8732978701591492 -0.4833839535713196 -5.666166543960571e-06 -7.819384336471558e-06 0.0 0.0 0.0 0.0
0.401 0.8724242448806763 -0.4850563704967499 2.3144297301769257e-05 8.255243301391602e-06 0.0 0.0 0.0 0.0
0.402 0.8714343905448914 -0.486164927482605 -6.4782798290252686e-06 1.0497868061065674e-05 0.0 0.0 0.0 0.0
0.403 0.8717971444129944 -0.4867764115333557 -1.1534430086612701e-05 1.146458089351654e-06 0.0 0.0 0.0 0.0
0.404 0.8712260127067566 -0.48841768503189087 -2.775341272354126e-07 7.394701242446899e-06 0.0 0.0 0.0 0.0
0.405 0.8709126114845276 -0.48913127183914185 -1.4261342585086823e-05 8.28225165605545e-06 0.0 0.0 0.0 0.0
0.406 0.8705547451972961 -0.4904009997844696 -1.0279007256031036e-05 6.12158328294754e-06 0.0 0.0 0.0 0.0
0.407 0.8703390955924988 -0.49080753326416016 -8.631497621536255e-06 1.5174970030784607e-05 0.0 0.0 0.0 0.0
0.408 0.8682999014854431 -0.49194973707199097 6.994232535362244e-06 7.147900760173798e-06 0.0 0.0 0.0 0.0
0.409 0.8688908219337463 -0.49415475130081177 8.354894816875458e-06 -1.824554055929184e-05 0.0 0.0 0.0 0.0
0.41 0.8691199421882629 -0.49373844265937805 -1.1894851922988892e-05 5.009584128856659e-06 0.0 0.0 0.0 0.0
0.411 0.8682171702384949 -0.4955126941204071 -5.1371753215789795e-06 1.0201707482337952e-05 0.0 0.0 0.0 0.0
0.412 0.867754340171814 -0.4969016909599304 -1.0292045772075653e-05 4.134140908718109e-06 0.0 0.0 0.0 0.0
0.413 0.8681482076644897 -0.49715036153793335 5.076639354228973e-06 -7.273629307746887e-07 0.0 0.0 0.0 0.0
0.414 0.8671169281005859 -0.4976891279220581 -6.373971700668335e-06 -8.488073945045471e-06 0.0 0.0 0.0 0.0
0.415 0.8662269711494446 -0.5000054240226746 -6.42240047454834e-06 -4.141591489315033e-06 0.0 0.0 0.0 0.0
0.416 0.8660171031951904 -0.5011469125747681 -1.9758939743041992e-05 -7.593072950839996e-06 0.0 0.0 0.0 0.0
0.417 0.8653578758239746 -0.5012392997741699 1.937802881002426e-05 -2.3828819394111633e-05 0.0 0.0 0.0 0.0
0.418 0.8655248880386353 -0.5033532381057739 1.3953074812889099e-05 2.2454187273979187e-06 0.0 0.0 0.0 0.0
0.419 0.8644387125968933 -0.5039182901382446 2.0774081349372864e-05 -8.665956556797028e-06 0.0 0.0 0.0 0.0
0.42 0.8635372519493103 -0.5051860213279724 -6.056390702724457e-06 4.71062958240509e-06 0.0 0.0 0.0 0.0
0.421 0.8636496067047119 -0.5069501996040344 -6.097368896007538e-06 3.7235207855701447e-05 0.0 0.0 0.0 0.0
0.422 0.8632686138153076 -0.5063088536262512 2.1115876734256744e-05 5.877576768398285e-06 0.0 0.0 0.0 0.0
0.423 0.863043487071991 -0.5079106092453003 1.2926757335662842e-06 2.8312206268310547e-07 0.0 0.0 0.0 0.0
0.424 0.8625093102455139 -0.5091603398323059 7.0231035351753235e-06 -2.32551246881485e-06 0.0 0.0 0.0 0.0
0.425 0.8616676926612854 -0.5096228122711182 8.908100426197052e-06 6.0461461544036865e-06 0.0 0.0 0.0 0.0
0.426 0.8616334199905396 -0.5115342140197754 -1.6141682863235474e-05 1.562945544719696e-05 0.0 0.0 0.0 0.0
0.427 0.8613528609275818 -0.5122025012969971 -7.539056241512299e-06 -7.614493370056152e-06 0.0 0.0 0.0 0.0
0.428 0.8605543971061707 -0.5131751298904419 -1.584179699420929e-06 3.27620655298233e-05 0.0 0.0 0.0 0.0
0.429 0.8612657785415649 -0.514589250087738 -1.2332573533058167e-05 -1.1251308023929596e-05 0.0 0.0 0.0 0.0
0.43 0.8600633144378662 -0.5151686668395996 1.0260380804538727e-05 2.626609057188034e-05 0.0 0.0 0.0 0.0
0.431 0.8593636751174927 -0.5158645510673523 2.3758038878440857e-06 1.828651875257492e-05 0.0 0.0 0.0 0.0
0.432 0.8597171902656555 -0.5174275040626526 8.046627044677734e-07 2.5443732738494873e-05 0.0 0.0 0.0 0.0
0.433 0.8593743443489075 -0.5183709263801575 2.798624336719513e-06 -4.770234227180481e-06 0.0 0.0 0.0 0.0
0.434 0.858189582824707 -0.5192955136299133 -9.11857932806015e-06 7.340684533119202e-06 0.0 0.0 0.0 0.0
0.435 0.8573863506317139 -0.5205721855163574 9.462237358093262e-07 6.09084963798523e-07 0.0 0.0 0.0 0.0
0.436 0.8574084043502808 -0.5220402479171753 -6.404705345630646e-06 1.2602657079696655e-05 0.0 0.0 0.0 0.0
0.437 0.8562645316123962 -0.5222997069358826 -6.881542503833771e-06 8.852221071720123e-06 0.0 0.0 0.0 0.0
0.438 0.8571281433105469 -0.5239418745040894 1.0536983609199524e-05 5.245208740234375e-06 0.0 0.0 0.0 0.0
0.439 0.8565433025360107 -0.5241197943687439 1.3933517038822174e-05 4.132278263568878e-06 0.0 0.0 0.0 0.0
0.44 0.8558987975120544 -0.5251746773719788 -1.2325122952461243e-05 3.5660341382026672e-06 0.0 0.0 0.0 0.0
0.441 0.8546891808509827 -0.5268556475639343 2.6132911443710327e-06 2.998858690261841e-06 0.0 0.0 0.0 0.0
0.442 0.8551093935966492 -0.5277490615844727 -8.945353329181671e-06 1.7870217561721802e-05 0.0 0.0 0.0 0.0
0.443 0.8542997241020203 -0.5280672907829285 -9.38214361667633e-06 -4.391185939311981e-06 0.0 0.0 0.0 0.0
0.444 0.8542270064353943 -0.5303873419761658 -1.4236196875572205e-05 1.062825322151184e-05 0.0 0.0 0.0 0.0
0.445 0.8533070683479309 -0.5319499373435974 4.349276423454285e-06 -8.606351912021637e-06 0.0 0.0 0.0 0.0
0.446 0.8538509011268616 -0.5313851237297058 -5.043111741542816e-06 2.4438835680484772e-05 0.0 0.0 0.0 0.0
0.447 0.852238118648529 -0.5326200127601624 2.1812506020069122e-05 2.3412518203258514e-05 0.0 0.0 0.0 0.0
0.448 0.8525426983833313 -0.5334849953651428 -1.7229467630386353e-06 -5.5907294154167175e-06 0.0 0.0 0.0 0.0
0.449 0.8515461087226868 -0.534595251083374 -2.026371657848358e-05 1.2495554983615875e-05 0.0 0.0 0.0 0.0
0.45 0.8501868844032288 -0.5366804599761963 -9.968876838684082e-06 -2.964399755001068e-05 0.0 0.0 0.0 0.0
0.451 0.8519561290740967 -0.5368295907974243 9.300187230110168e-06 -1.9060447812080383e-05 0.0 0.0 0.0 0.0
0.452 0.8506835103034973 -0.5377988219261169 1.2782402336597443e-05 1.3200566172599792e-05 0.0 0.0 0.0 0.0
0.453 0.8498864769935608 -0.5388140082359314 -8.792616426944733e-06 -2.238526940345764e-05 0.0 0.0 0.0 0.0
0.454 0.8493857383728027 -0.5406402945518494 3.039836883544922e-06 8.353032171726227e-06 0.0 0.0 0.0 0.0
0.455 0.8492852449417114 -0.5404152274131775 1.4729797840118408e-05 -1.2947246432304382e-05 0.0 0.0 0.0 0.0
0.456 0.8487831354141235 -0.54146409034729 5.398876965045929e-06 -1.652166247367859e-05 0.0 0.0 0.0 0.0
0.457 0.8484128713607788 -0.5426568984985352 -2.8619542717933655e-06 4.587695002555847e-06 0.0 0.0 0.0 0.0
0.458 0.8478100299835205 -0.5437504053115845 4.759058356285095e-06 -1.0017305612564087e-05 0.0 0.0 0.0 0.0
0.459 0.8483784794807434 -0.5444589853286743 5.340203642845154e-06 -3.978610038757324e-06 0.0 0.0 0.0 0.0
0.46 0.8462824821472168 -0.5465724468231201 4.766508936882019e-06 6.726011633872986e-06 0.0 0.0 0.0 0.0
0.461 0.8462889194488525 -0.5472854971885681 -2.60770320892334e-06 7.878057658672333e-06 0.0 0.0 0.0 0.0
0.462 0.8467150926589966 -0.5478041172027588 1.0551884770393372e-06 2.120155841112137e-05 0.0 0.0 0.0 0.0
0.463 0.8454605937004089 -0.5489873290061951 1.0796822607517242e-05 1.0241754353046417e-05 0.0 0.0 0.0 0.0
0.464 0.8455868363380432 -0.5504360198974609 -4.246830940246582e-07 -3.6330893635749817e-06 0.0 0.0 0.0 0.0
0.465 0.8446664214134216 -0.5514010787010193 1.275818794965744e-05 -2.8187409043312073e-05 0.0 0.0 0.0 0.0
0.466 0.8441573977470398 -0.5531062483787537 -2.682209014892578e-05 7.933937013149261e-06 0.0 0.0 0.0 0.0
0.467 0.8444047570228577 -0.5529035925865173 -1.3600103557109833e-05 1.0035000741481781e-05 0.0 0.0 0.0 0.0
0.468 0.8435386419296265 -0.5539947152137756 -1.374911516904831e-05 5.534850060939789e-06 0.0 0.0 0.0 0.0
0.469 0.8431681990623474 -0.5551137924194336 -1.5291385352611542e-05 -1.0348856449127197e-05 0.0 0.0 0.0 0.0
0.47 0.8425859212875366 -0.5562716722488403 -1.3461336493492126e-05 4.195608198642731e-06 0.0 0.0 0.0 0.0
0.471 0.8424315452575684 -0.5575739741325378 -1.2574717402458191e-05 4.366971552371979e-06 0.0 0.0 0.0 0.0
0.472 0.8412474989891052 -0.5590518712997437 -1.8815509974956512e-05 1.113303005695343e-05 0.0 0.0 0.0 0.0
0.473 0.8422347903251648 -0.5590981841087341 -1.8044374883174896e-05 -9.404495358467102e-06 0.0 0.0 0.0 0.0
0.474 0.8419101238250732 -0.560422956943512 -2.0378269255161285e-05 2.813059836626053e-05 0.0 0.0 0.0 0.0
0.475 0.8408979177474976 -0.5615645051002502 9.462237358093262e-07 2.938881516456604e-05 0.0 0.0 0.0 0.0
0.476 0.8399807214736938 -0.5625782012939453 -1.0290183126926422e-05 5.175359547138214e-06 0.0 0.0 0.0 0.0
0.477 0.8395823836326599 -0.5633895993232727 -3.680586814880371e-06 1.5682540833950043e-05 0.0 0.0 0.0 0.0
0.478 0.8395062685012817 -0.5644275546073914 -6.220303475856781e-06 -8.179806172847748e-06 0.0 0.0 0.0 0.0
0.479 0.8386052846908569 -0.5659167170524597 2.5704503059387207e-06 9.482726454734802e-06 0.0 0.0 0.0 0.0
0.48 0.8381655812263489 -0.5664046406745911 -2.6246532797813416e-05 -3.632158041000366e-06 0.0 0.0 0.0 0.0
0.481 0.8381375074386597 -0.567526638507843 -1.6383826732635498e-05 -7.976777851581573e-06 0.0 0.0 0.0 0.0
0.482 0.8373028635978699 -0.5684739351272583 1.5783123672008514e-05 -2.0585954189300537e-05 0.0 0.0 0.0 0.0
0.483 0.8373636603355408 -0.5703638195991516 4.416331648826599e-06 -6.705522537231445e-06 0.0 0.0 0.0 0.0
0.484 0.8366504907608032 -0.5710002779960632 4.069879651069641e-06 3.091897815465927e-05 0.0 0.0 0.0 0.0
0.485 0.8361411690711975 -0.5714224576950073 1.3678334653377533e-05 1.2893229722976685e-05 0.0 0.0 0.0 0.0
0.486 0.8354499340057373 -0.5729951858520508 2.0003877580165863e-05 -1.977384090423584e-05 0.0 0.0 0.0 0.0
0.487 0.8356677293777466 -0.5728330016136169 1.963134855031967e-05 1.953914761543274e-06 0.0 0.0 0.0 0.0
0.488 0.8347780108451843 -0.5746350288391113 -8.0866739153862e-06 -7.5232237577438354e-06 0.0 0.0 0.0 0.0
0.489 0.8343155980110168 -0.5765355825424194 -4.281848669052124e-05 1.516193151473999e-06 0.0 0.0 0.0 0.0
0.49 0.8341992497444153 -0.5768789052963257 -2.142973244190216e-05 1.8337741494178772e-06 0.0 0.0 0.0 0.0
0.491 0.8331807851791382 -0.577246367931366 1.1926516890525818e-05 9.539537131786346e-06 0.0 0.0 0.0 0.0
0.492 0.8331148028373718 -0.579299807548523 -1.0713934898376465e-05 1.8195249140262604e-05 0.0 0.0 0.0 0.0
0.493 0.8321873545646667 -0.5794888138771057 2.587493509054184e-05 -2.8116628527641296e-06 0.0 0.0 0.0 0.0
0.494 0.8319174647331238 -0.5809624195098877 -1.4824792742729187e-05 -5.268491804599762e-06 0.0 0.0 0.0 0.0
0.495 0.8313557505607605 -0.5823043584823608 2.0922161638736725e-05 -1.1241063475608826e-06 0.0 0.0 0.0 0.0
0.496 0.8308702707290649 -0.5829190015792847 -4.2924657464027405e-06 -1.2310221791267395e-05 0.0 0.0 0.0 0.0
0.497 0.8304353356361389 -0.5843763947486877 -2.7696602046489716e-05 -9.010545909404755e-06 0.0 0.0 0.0 0.0
0.498 0.8304598927497864 -0.5853736996650696 2.3283064365386963e-06 -6.705522537231445e-06 0.0 0.0 0.0 0.0
0.499 0.8300410509109497 -0.5860930681228638 -4.620291292667389e-06 3.254693001508713e-05 0.0 0.0 0.0 0.0
0.5 0.8288866877555847 -0.5874029397964478 -1.0075047612190247e-05 1.6891397535800934e-05 0.0 0.0 0.0 0.0
0.501 0.8290286660194397 -0.588405191898346 -2.9501505196094513e-05 -7.617287337779999e-06 0.0 0.0 0.0 0.0
0.502 0.8282967805862427 -0.5890094637870789 -9.010545909404755e-06 1.3126060366630554e-05 0.0 0.0 0.0 0.0
0.503 0.8278231024742126 -0.5912825465202332 -1.1030584573745728e-05 -1.2945383787155151e-06 0.0 0.0 0.0 0.0
0.504 0.8272351026535034 -0.591151773929596 -7.612630724906921e-06 1.3830140233039856e-05 0.0 0.0 0.0 0.0
0.505 0.8270425796508789 -0.5920146703720093 3.50363552570343e-06 2.0042061805725098e-05 0.0 0.0 0.0 0.0
0.506 0.8262705206871033 -0.5937331914901733 -2.2230669856071472e-06 -8.318573236465454e-06 0.0 0.0 0.0 0.0
0.507 0.8257836699485779 -0.5947648882865906 -6.18956983089447e-06 1.221243292093277e-05 0.0 0.0 0.0 0.0
0.508 0.8260731101036072 -0.5952264666557312 -3.17869707942009e-05 3.450550138950348e-06 0.0 0.0 0.0 0.0
0.509 0.8245753049850464 -0.5975157022476196 1.1129304766654968e-06 -9.971670806407928e-06 0.0 0.0 0.0 0.0
0.51 0.8248823881149292 -0.5970916748046875 3.492087125778198e-05 1.671537756919861e-05 0.0 0.0 0.0 0.0
0.511 0.8241238594055176 -0.5984167456626892 5.320645868778229e-06 3.0705705285072327e-06 0.0 0.0 0.0 0.0
0.512 0.823398232460022 -0.6001715064048767 -1.2211501598358154e-05 -1.9389204680919647e-05 0.0 0.0 0.0 0.0
0.513 0.8231034278869629 -0.6011223793029785 -7.914379239082336e-06 5.476176738739014e-06 0.0 0.0 0.0 0.0
0.514 0.8228444457054138 -0.601710319519043 -2.3173168301582336e-05 1.4915131032466888e-05 0.0 0.0 0.0 0.0
0.515 0.8225423097610474 -0.6036081910133362 -1.3690441846847534e-05 1.8989667296409607e-06 0.0 0.0 0.0 0.0
0.516 0.8217573165893555 -0.6039816737174988 -1.6728416085243225e-05 -2.4507753551006317e-05 0.0 0.0 0.0 0.0
0.517 0.8204932808876038 -0.6055351495742798 5.945563316345215e-06 -1.1388212442398071e-05 0.0 0.0 0.0 0.0
0.518 0.8207089900970459 -0.6067459583282471 6.516464054584503e-06 -1.9537284970283508e-05 0.0 0.0 0.0 0.0
0.519 0.8204813599586487 -0.6069400906562805 1.4415010809898376e-05 6.661750376224518e-06 0.0 0.0 0.0 0.0
0.52 0.8196345567703247 -0.608318567276001 -6.166286766529083e-06 2.7846544981002808e-06 0.0 0.0 0.0 0.0
0.521 0.8197150826454163 -0.6092105507850647 -1.678522676229477e-05 -7.922761142253876e-06 0.0 0.0 0.0 0.0
0.522 0.8188889622688293 -0.6103331446647644 1.485925167798996e-05 1.6199424862861633e-05 0.0 0.0 0.0 0.0
0.523 0.8184735178947449 -0.6114048957824707 1.0416842997074127e-05 -1.6417354345321655e-05 0.0 0.0 0.0 0.0
0.524 0.8181711435317993 -0.6127868294715881 1.4774501323699951e-05 1.2852251529693604e-05 0.0 0.0 0.0 0.0
0.525 0.81781405210495 -0.6135960221290588 -1.573283225297928e-05 9.749084711074829e-06 0.0 0.0 0.0 0.0
0.526 0.8170746564865112 -0.615126371383667 1.6093254089355469e-06 -6.232410669326782e-06 0.0 0.0 0.0 0.0
0.527 0.8168235421180725 -0.6157534122467041 -2.7334317564964294e-06 1.912936568260193e-05 0.0 0.0 0.0 0.0
0.528 0.8152857422828674 -0.6166825294494629 3.4319236874580383e-06 2.7564354240894318e-05 0.0 0.0 0.0 0.0
0.529 0.8154500722885132 -0.6182817220687866 -1.337006688117981e-05 -2.416316419839859e-05 0.0 0.0 0.0 0.0
0.53 0.815413236618042 -0.6182854771614075 5.455687642097473e-06 2.255663275718689e-05 0.0 0.0 0.0 0.0
0.531 0.8144024610519409 -0.619698166847229 3.41879203915596e-05 8.570961654186249e-06 0.0 0.0 0.0 0.0
0.532 0.813846230506897 -0.6210726499557495 -1.2471340596675873e-05 1.4812685549259186e-05 0.0 0.0 0.0 0.0
0.533 0.8134025931358337 -0.6223409175872803 1.5447847545146942e-05 -2.421438694000244e-07 0.0 0.0 0.0 0.0
0.534 0.8127189874649048 -0.6228522062301636 -4.431232810020447e-06 3.1152740120887756e-06 0.0 0.0 0.0 0.0
0.535 0.8127398490905762 -0.6248999238014221 9.107403457164764e-06 -5.3960829973220825e-06 0.0 0.0 0.0 0.0
0.536 0.8125975131988525 -0.6250949501991272 -1.3268552720546722e-05 8.529983460903168e-06 0.0 0.0 0.0 0.0
0.537 0.8114883303642273 -0.6254724860191345 2.2154301404953003e-05 6.1960890889167786e-06 0.0 0.0 0.0 0.0
0.538 0.8111429810523987 -0.6272502541542053 8.520670235157013e-06 1.494772732257843e-06 0.0 0.0 0.0 0.0
0.539 0.8098546266555786 -0.6290053129196167 -7.107853889465332e-06 -8.119270205497742e-06 0.0 0.0 0.0 0.0
0.54 0.8088895082473755 -0.6299290060997009 3.8035213947296143e-06 -1.8734484910964966e-05 0.0 0.0 0.0 0.0
0.541 0.8094817996025085 -0.6308598518371582 -1.8130987882614136e-05 4.244968295097351e-06 0.0 0.0 0.0 0.0
0.542 0.8090002536773682 -0.6312631368637085 -5.820766091346741e-07 1.2248754501342773e-05 0.0 0.0 0.0 0.0
0.543 0.8079528212547302 -0.6324846148490906 9.90740954875946e-06 -1.1923722922801971e-05 0.0 0.0 0.0 0.0
0.544 0.8082976341247559 -0.6345637440681458 7.743947207927704e-06 1.0106712579727173e-05 0.0 0.0 0.0 0.0
0.545 0.806980311870575 -0.6356695294380188 2.2474676370620728e-05 2.606865018606186e-05 0.0 0.0 0.0 0.0
0.546 0.8066772818565369 -0.6359476447105408 9.967014193534851e-06 6.025657057762146e-07 0.0 0.0 0.0 0.0
0.547 0.8068388104438782 -0.6367241740226746 1.6741454601287842e-05 -2.06921249628067e-05 0.0 0.0 0.0 0.0
0.548 0.8060229420661926 -0.6373428702354431 5.943700671195984e-06 5.51808625459671e-06 0.0 0.0 0.0 0.0
0.549 0.8043933510780334 -0.6406441330909729 5.252659320831299e-07 3.180466592311859e-06 0.0 0.0 0.0 0.0
0.55 0.8057807683944702 -0.6397474408149719 -1.3062730431556702e-05 -1.8598511815071106e-06 0.0 0.0 0.0 0.0
0.551 0.8036389350891113 -0.641718327999115 -1.4285556972026825e-05 6.775371730327606e-06 0.0 0.0 0.0 0.0
0.552 0.80516517162323 -0.6422098875045776 1.6763806343078613e-08 -1.7512589693069458e-05 0.0 0.0 0.0 0.0
0.553 0.8036184906959534 -0.6427851319313049 1.3192184269428253e-05 -9.821727871894836e-06 0.0 0.0 0.0 0.0
0.554 0.8026604056358337 -0.6438737511634827 -2.558622509241104e-05 -2.283882349729538e-05 0.0 0.0 0.0 0.0
0.555 0.8014889359474182 -0.6467317938804626 -2.2137537598609924e-06 1.4957040548324585e-06 0.0 0.0 0.0 0.0
0.556 0.8020738363265991 -0.6458495259284973 1.0388903319835663e-05 5.9157609939575195e-06 0.0 0.0 0.0 0.0
0.557 0.8012686967849731 -0.6477025747299194 -1.0784715414047241e-05 -1.935567706823349e-05 0.0 0.0 0.0 0.0
0.558 0.8002884984016418 -0.6496333479881287 -4.548579454421997e-06 -1.0771676898002625e-05 0.0 0.0 0.0 0.0
0.559 0.8009083271026611 -0.6489992141723633 -1.7778947949409485e-06 -4.266388714313507e-06 0.0 0.0 0.0 0.0
0.56 0.7994532585144043 -0.6507208347320557 -1.7987564206123352e-05 -9.0794637799263e-06 0.0 0.0 0.0 0.0
0.561 0.7991362810134888 -0.6525413393974304 1.2611038982868195e-05 -2.0582228899002075e-07 0.0 0.0 0.0 0.0
0.562 0.7984853386878967 -0.652972936630249 -2.3650936782360077e-05 2.543441951274872e-06 0.0 0.0 0.0 0.0
0.563 0.7976115345954895 -0.6539488434791565 -3.5701319575309753e-05 -3.116205334663391e-06 0.0 0.0 0.0 0.0
0.564 0.7968712449073792 -0.6556093096733093 -9.410083293914795e-06 6.45127147436142e-06 0.0 0.0 0.0 0.0
0.565 0.7969374060630798 -0.6545292139053345 -1.066364347934723e-06 -1.8965452909469604e-05 0.0 0.0 0.0 0.0
0.566 0.7963665723800659 -0.657492995262146 -6.707385182380676e-06 1.600664108991623e-05 0.0 0.0 0.0 0.0
0.567 0.7954269051551819 -0.6586071848869324 5.593523383140564e-06 -2.0843930542469025e-05 0.0 0.0 0.0 0.0
0.568 0.7951446771621704 -0.6593897938728333 -5.712732672691345e-06 -4.1620805859565735e-06 0.0 0.0 0.0 0.0
0.569 0.7932901382446289 -0.6612480878829956 2.5614164769649506e-05 -1.5537254512310028e-05 0.0 0.0 0.0 0.0
0.57 0.793274998664856 -0.6609659194946289 7.970258593559265e-06 1.218169927597046e-06 0.0 0.0 0.0 0.0
0.571 0.7922614216804504 -0.6627823710441589 -1.2666918337345123e-05 -1.4201737940311432e-05 0.0 0.0 0.0 0.0
0.572 0.7919526696205139 -0.6643058657646179 -3.427453339099884e-05 -2.5838613510131836e-05 0.0 0.0 0.0 0.0
0.573 0.7915923595428467 -0.6642435789108276 -2.7004629373550415e-05 8.697621524333954e-06 0.0 0.0 0.0 0.0
0.574 0.790542483329773 -0.6654626131057739 1.541338860988617e-06 -2.431962639093399e-05 0.0 0.0 0.0 0.0
0.575 0.7914590239524841 -0.6655395030975342 -3.4742988646030426e-05 5.392357707023621e-07 0.0 0.0 0.0 0.0
0.576 0.7903473973274231 -0.6661035418510437 -6.101094186306e-06 1.0825693607330322e-05 0.0 0.0 0.0 0.0
0.577 0.7899531722068787 -0.6668512225151062 4.50480729341507e-06 -3.430340439081192e-05 0.0 0.0 0.0 0.0
0.578 0.7900950312614441 -0.6678776144981384 -7.4123963713645935e-06 1.0047107934951782e-05 0.0 0.0 0.0 0.0
0.579 0.7894067168235779 -0.6690027117729187 9.862706065177917e-07 -5.4817646741867065e-06 0.0 0.0 0.0 0.0
0.58 0.7890883684158325 -0.6703762412071228 -4.99282032251358e-06 2.031587064266205e-05 0.0 0.0 0.0 0.0
0.581 0.7889974117279053 -0.6717034578323364 1.423712819814682e-05 3.037974238395691e-06 0.0 0.0 0.0 0.0
0.582 0.7885661125183105 -0.672002911567688 -9.892508387565613e-06 3.86405736207962e-06 0.0 0.0 0.0 0.0
0.583 0.7879552841186523 -0.6740992665290833 -6.7818909883499146e-06 2.438761293888092e-05 0.0 0.0 0.0 0.0
0.584 0.7876765131950378 -0.6746622920036316 2.0341016352176666e-05 -1.1573545634746552e-05 0.0 0.0 0.0 0.0
0.585 0.7868415713310242 -0.6761136054992676 1.3457611203193665e-06 2.1391548216342926e-05 0.0 0.0 0.0 0.0
0.586 0.7863100171089172 -0.6779841780662537 9.50600951910019e-06 4.906207323074341e-06 0.0 0.0 0.0 0.0
0.587 0.7858121991157532 -0.6788914799690247 5.781650543212891e-06 1.4281831681728363e-05 0.0 0.0 0.0 0.0
0.588 0.7852539420127869 -0.6790493130683899 1.0611489415168762e-05 -1.6664154827594757e-05 0.0 0.0 0.0 0.0
0.589 0.7847952842712402 -0.6807154417037964 4.088506102561951e-06 -1.0903924703598022e-05 0.0 0.0 0.0 0.0
0.59 0.7840247750282288 -0.6818798780441284 1.6347505152225494e-05 4.6100467443466187e-07 0.0 0.0 0.0 0.0
0.591 0.7839812636375427 -0.682632565498352 -2.473406493663788e-05 7.3034316301345825e-06 0.0 0.0 0.0 0.0
0.592 0.783652126789093 -0.6844013929367065 4.159286618232727e-06 1.732911914587021e-05 0.0 0.0 0.0 0.0
0.593 0.7826367616653442 -0.6857895255088806 8.001923561096191e-06 2.3113563656806946e-05 0.0 0.0 0.0 0.0
0.594 0.7816197872161865 -0.6867872476577759 -2.148933708667755e-05 8.108094334602356e-06 0.0 0.0 0.0 0.0
0.595 0.7813464999198914 -0.6875078082084656 -7.375143468379974e-06 1.3877637684345245e-05 0.0 0.0 0.0 0.0
0.596 0.7814475893974304 -0.687775731086731 8.171424269676208e-06 -2.5783665478229523e-05 0.0 0.0 0.0 0.0
0.597 0.7801110148429871 -0.690095067024231 -1.5202909708023071e-05 -9.50787216424942e-06 0.0 0.0 0.0 0.0
0.598 0.7805473804473877 -0.6899544596672058 -7.423572242259979e-06 1.958012580871582e-05 0.0 0.0 0.0 0.0
0.599 0.7792198061943054 -0.6913235187530518 5.647540092468262e-06 2.2017396986484528e-05 0.0 0.0 0.0 0.0
0.6 0.7790989875793457 -0.6953819394111633 4.63239848613739e-06 1.6137957572937012e-05 0.0 0.0 0.0 0.0
0.601 0.778175950050354 -0.6941279768943787 2.5303103029727936e-05 8.158385753631592e-07 0.0 0.0 0.0 0.0
0.602 0.7774794101715088 -0.6952700614929199 3.0463561415672302e-06 -1.5223398804664612e-05 0.0 0.0 0.0 0.0
0.603 0.7780765891075134 -0.6964786648750305 -4.641711711883545e-06 -1.3114884495735168e-05 0.0 0.0 0.0 0.0
0.604 0.7758184671401978 -0.6974583268165588 4.2030587792396545e-06 -4.323199391365051e-06 0.0 0.0 0.0 0.0
0.605 0.7755421996116638 -0.6986019015312195 7.38631933927536e-06 4.2747706174850464e-07 0.0 0.0 0.0 0.0
0.606 0.7758283615112305 -0.7000947594642639 -3.470294177532196e-05 1.0328367352485657e-06 0.0 0.0 0.0 0.0
0.607 0.7748742699623108 -0.7008020281791687 6.474554538726807e-06 -2.2782012820243835e-05 0.0 0.0 0.0 0.0
0.608 0.774236798286438 -0.7015460729598999 3.0329450964927673e-05 -3.216136246919632e-05 0.0 0.0 0.0 0.0
0.609 0.7738993763923645 -0.7030892968177795 1.1976808309555054e-05 6.864778697490692e-06 0.0 0.0 0.0 0.0
0.61 0.7727638483047485 -0.7043173313140869 -1.0240823030471802e-05 -6.472691893577576e-06 0.0 0.0 0.0 0.0
0.611 0.7725511193275452 -0.7048221230506897 -2.809148281812668e-05 -7.541850209236145e-06 0.0 0.0 0.0 0.0
0.612 0.7721080780029297 -0.7057420611381531 9.0012326836586e-06 1.27376988530159e-05 0.0 0.0 0.0 0.0
0.613 0.7712028622627258 -0.7063543796539307 -5.184672772884369e-06 1.0274350643157959e-05 0.0 0.0 0.0 0.0
0.614 0.7700039148330688 -0.7082908153533936 9.795650839805603e-06 -1.036468893289566e-05 0.0 0.0 0.0 0.0
0.615 0.7699699997901917 -0.7089970707893372 -1.1696480214595795e-05 7.038936018943787e-06 0.0 0.0 0.0 0.0
0.616 0.7694610953330994 -0.7107049822807312 -1.1513009667396545e-05 6.707385182380676e-06 0.0 0.0 0.0 0.0
0.617 0.7689406871795654 -0.7122902870178223 -9.676441550254822e-07 -1.855846494436264e-05 0.0 0.0 0.0 0.0
0.618 0.7680415511131287 -0.7129859924316406 -5.821697413921356e-06 8.249655365943909e-06 0.0 0.0 0.0 0.0
0.619 0.7673190236091614 -0.7131360769271851 1.2433156371116638e-06 -3.5120174288749695e-05 0.0 0.0 0.0 0.0
0.62 0.7668861150741577 -0.7163562178611755 -2.85319983959198e-05 1.9282102584838867e-05 0.0 0.0 0.0 0.0
0.621 0.7669146060943604 -0.7148019671440125 5.512498319149017e-06 2.5467947125434875e-05 0.0 0.0 0.0 0.0
0.622 0.766075611114502 -0.7175514101982117 -1.807231456041336e-05 -9.406358003616333e-07 0.0 0.0 0.0 0.0
0.623 0.7660239934921265 -0.718078076839447 -3.3257529139518738e-06 -2.3103319108486176e-05 0.0 0.0 0.0 0.0
0.624 0.762220561504364 -0.7166504263877869 1.3066455721855164e-05 3.193039447069168e-05 0.0 0.0 0.0 0.0
0.625 0.7653830051422119 -0.7191072106361389 -2.508983016014099e-06 -2.423301339149475e-06 0.0 0.0 0.0 0.0
0.626 0.7633652091026306 -0.7219222187995911 1.7153099179267883e-05 -8.149072527885437e-07 0.0 0.0 0.0 0.0
0.627 0.7637510895729065 -0.7214215993881226 3.9058737456798553e-05 -7.71787017583847e-06 0.0 0.0 0.0 0.0
0.628 0.7620930671691895 -0.7230689525604248 1.4038756489753723e-05 1.5378929674625397e-05 0.0 0.0 0.0 0.0
0.629 0.7620829343795776 -0.7247904539108276 -1.4491379261016846e-05 1.0838732123374939e-05 0.0 0.0 0.0 0.0
0.63 0.7614428997039795 -0.7254471182823181 3.511086106300354e-07 -2.6537105441093445e-05 0.0 0.0 0.0 0.0
0.631 0.7605050802230835 -0.7270050644874573 3.304518759250641e-05 -1.3532117009162903e-06 0.0 0.0 0.0 0.0
0.632 0.7606135010719299 -0.7274923920631409 3.9013102650642395e-06 2.463255077600479e-05 0.0 0.0 0.0 0.0
0.633 0.7595330476760864 -0.7290361523628235 -6.729736924171448e-06 -1.8835067749023438e-05 0.0 0.0 0.0 0.0
0.634 0.7581236362457275 -0.7300761342048645 -6.656162440776825e-06 1.1787749826908112e-05 0.0 0.0 0.0 0.0
0.635 0.7582321166992188 -0.7310473322868347 3.1171366572380066e-06 1.696869730949402e-05 0.0 0.0 0.0 0.0
0.636 0.7590853571891785 -0.732008159160614 -2.191588282585144e-05 -1.9002705812454224e-05 0.0 0.0 0.0 0.0
0.637 0.7572765350341797 -0.7337815761566162 -2.620648592710495e-05 -7.525086402893066e-07 0.0 0.0 0.0 0.0
0.638 0.7574827671051025 -0.7337701916694641 -3.55839729309082e-05 1.1787749826908112e-05 0.0 0.0 0.0 0.0
0.639 0.7567439675331116 -0.7350028157234192 -5.373731255531311e-07 -1.2654811143875122e-05 0.0 0.0 0.0 0.0
0.64 0.7556284070014954 -0.7364779114723206 2.8312206268310547e-06 -1.107528805732727e-05 0.0 0.0 0.0 0.0
0.641 0.7564239501953125 -0.7369134426116943 -1.4340505003929138e-05 -1.7686747014522552e-05 0.0 0.0 0.0 0.0
0.642 0.7541531920433044 -0.7381259202957153 1.504458487033844e-05 4.9406662583351135e-06 0.0 0.0 0.0 0.0
0.643 0.7541777491569519 -0.7394269704818726 -2.5022774934768677e-05 8.528120815753937e-06 0.0 0.0 0.0 0.0
0.644 0.7529315948486328 -0.7401180863380432 1.1268071830272675e-05 1.877453178167343e-05 0.0 0.0 0.0 0.0
0.645 0.7522637248039246 -0.7415170669555664 -3.6498531699180603e-06 -1.090019941329956e-05 0.0 0.0 0.0 0.0
0.646 0.7511520981788635 -0.7435175776481628 -5.451031029224396e-06 -2.8405338525772095e-06 0.0 0.0 0.0 0.0
0.647 0.7521876692771912 -0.7431851625442505 9.592622518539429e-07 -7.274560630321503e-06 0.0 0.0 0.0 0.0
0.648 0.7536041140556335 -0.7452282905578613 -5.902722477912903e-06 -4.4889748096466064e-06 0.0 0.0 0.0 0.0
0.649 0.7503852248191833 -0.7459911704063416 -5.018897354602814e-06 -9.58424061536789e-06 0.0 0.0 0.0 0.0
0.65 0.7501040101051331 -0.7470030188560486 -9.558163583278656e-06 1.680757850408554e-05 0.0 0.0 0.0 0.0
0.651 0.7495726943016052 -0.7481683492660522 4.94346022605896e-06 -2.217106521129608e-05 0.0 0.0 0.0 0.0
0.652 0.7479248642921448 -0.7496575117111206 7.954426109790802e-06 -2.0409002900123596e-05 0.0 0.0 0.0 0.0
0.653 0.7483195662498474 -0.7492756247520447 -8.414499461650848e-06 1.5886500477790833e-05 0.0 0.0 0.0 0.0
0.654 0.7466990947723389 -0.7509155869483948 2.8342939913272858e-05 -1.6646459698677063e-05 0.0 0.0 0.0 0.0
0.655 0.7462543845176697 -0.7531359195709229 -1.4631077647209167e-06 2.2817403078079224e-06 0.0 0.0 0.0 0.0
0.656 0.7463604211807251 -0.752897322177887 1.558847725391388e-05 1.3286247849464417e-05 0.0 0.0 0.0 0.0
0.657 0.7457285523414612 -0.7545903921127319 -8.884817361831665e-07 7.109716534614563e-06 0.0 0.0 0.0 0.0
0.658 0.7442411184310913 -0.756229817867279 -2.0827166736125946e-05 -2.384185791015625e-07 0.0 0.0 0.0 0.0
0.659 0.7446533441543579 -0.756439745426178 -2.231542021036148e-05 -4.694797098636627e-06 0.0 0.0 0.0 0.0
0.66 0.7431036233901978 -0.7584670186042786 6.34416937828064e-06 -3.847293555736542e-06 0.0 0.0 0.0 0.0
0.661 0.7425176501274109 -0.759003221988678 2.5167129933834076e-05 1.3112090528011322e-05 0.0 0.0 0.0 0.0
0.662 0.742177426815033 -0.7595811486244202 1.0114163160324097e-06 -1.2887641787528992e-05 0.0 0.0 0.0 0.0
0.663 0.7413430213928223 -0.7613489031791687 -5.9604644775390625e-06 4.591420292854309e-06 0.0 0.0 0.0 0.0
0.664 0.7401878237724304 -0.7627756595611572 2.376176416873932e-05 -9.059906005859375e-06 0.0 0.0 0.0 0.0
0.665 0.7403960227966309 -0.7627267241477966 2.342183142900467e-05 1.0672956705093384e-05 0.0 0.0 0.0 0.0
0.666 0.7399366497993469 -0.763505220413208 -1.4110468327999115e-05 -2.0110048353672028e-05 0.0 0.0 0.0 0.0
0.667 0.7401614785194397 -0.7645124197006226 7.226131856441498e-06 8.01030546426773e-06 0.0 0.0 0.0 0.0
0.668 0.739065945148468 -0.7654685378074646 -4.996545612812042e-06 -2.057477831840515e-05 0.0 0.0 0.0 0.0
0.669 0.7374882102012634 -0.7677186131477356 1.251325011253357e-05 -1.7206184566020966e-05 0.0 0.0 0.0 0.0
0.67 0.7370433211326599 -0.7695575952529907 1.7974525690078735e-06 -1.416727900505066e-05 0.0 0.0 0.0 0.0
0.671 0.7364275455474854 -0.7698431015014648 -4.568137228488922e-06 1.295376569032669e-05 0.0 0.0 0.0 0.0
0.672 0.735594630241394 -0.7684748768806458 1.2186355888843536e-05 2.443324774503708e-05 0.0 0.0 0.0 0.0
0.673 0.7365877628326416 -0.7707762122154236 -9.432435035705566e-06 -6.404705345630646e-06 0.0 0.0 0.0 0.0
0.674 0.7346358895301819 -0.7724700570106506 -6.4568594098091125e-06 1.4902092516422272e-05 0.0 0.0 0.0 0.0
0.675 0.7337301969528198 -0.7743042707443237 -1.3276003301143646e-05 -8.63056629896164e-06 0.0 0.0 0.0 0.0
0.676 0.7327849268913269 -0.776101291179657 1.662410795688629e-05 2.5160610675811768e-05 0.0 0.0 0.0 0.0
0.677 0.7324790358543396 -0.7755284905433655 -1.383945345878601e-06 1.1719763278961182e-05 0.0 0.0 0.0 0.0
0.678 0.7313920259475708 -0.777624785900116 1.8952414393424988e-05 5.494803190231323e-06 0.0 0.0 0.0 0.0
0.679 0.7306739687919617 -0.77874356508255 -6.6999346017837524e-06 3.4481287002563477e-05 0.0 0.0 0.0 0.0
0.68 0.7314084768295288 -0.7783491015434265 -3.453996032476425e-05 5.423091351985931e-06 0.0 0.0 0.0 0.0
0.681 0.7300189137458801 -0.7802519202232361 1.912936568260193e-05 -8.070841431617737e-06 0.0 0.0 0.0 0.0
0.682 0.7299603223800659 -0.7822157740592957 1.7834827303886414e-06 9.729526937007904e-06 0.0 0.0 0.0 0.0
0.683 0.7290493845939636 -0.7818975448608398 5.180947482585907e-06 6.2873587012290955e-06 0.0 0.0 0.0 0.0
0.684 0.7281485199928284 -0.7850332856178284 2.2724270820617676e-06 1.0928139090538025e-05 0.0 0.0 0.0 0.0
0.685 0.7280023694038391 -0.7841119766235352 1.0124407708644867e-05 -1.6139820218086243e-06 0.0 0.0 0.0 0.0
0.686 0.7260441184043884 -0.7861400842666626 -8.67992639541626e-06 4.090368747711182e-06 0.0 0.0 0.0 0.0
0.687 0.7259935736656189 -0.7865417003631592 -7.145106792449951e-06 1.7943792045116425e-05 0.0 0.0 0.0 0.0
0.688 0.7258548736572266 -0.7880987524986267 9.55536961555481e-06 3.071501851081848e-06 0.0 0.0 0.0 0.0
0.689 0.7238706350326538 -0.7894462943077087 -5.79003244638443e-06 4.216097295284271e-06 0.0 0.0 0.0 0.0
0.69 0.7233874201774597 -0.7906866669654846 2.287793904542923e-05 1.787859946489334e-05 0.0 0.0 0.0 0.0
0.691 0.723429262638092 -0.7907805442810059 5.648471415042877e-06 -9.624287486076355e-06 0.0 0.0 0.0 0.0
0.692 0.7234827876091003 -0.7911325693130493 1.0827556252479553e-05 1.2160278856754303e-05 0.0 0.0 0.0 0.0
0.693 0.7219275236129761 -0.793648898601532 -1.7819926142692566e-05 1.303013414144516e-05 0.0 0.0 0.0 0.0
0.694 0.7216393351554871 -0.7938505411148071 2.1227635443210602e-05 -1.708976924419403e-06 0.0 0.0 0.0 0.0
0.695 0.7200561165809631 -0.796217679977417 -6.776303052902222e-06 1.065526157617569e-05 0.0 0.0 0.0 0.0
0.696 0.7184362411499023 -0.7950612902641296 3.2261013984680176e-06 4.869885742664337e-06 0.0 0.0 0.0 0.0
0.697 0.7183310389518738 -0.7975250482559204 1.2686476111412048e-05 1.3851560652256012e-05 0.0 0.0 0.0 0.0
0.698 0.7178827524185181 -0.7997377514839172 1.301988959312439e-06 -1.6470439732074738e-05 0.0 0.0 0.0 0.0
0.699 0.7185651659965515 -0.7997740507125854 -1.3376586139202118e-05 -6.137415766716003e-06 0.0 0.0 0.0 0.0
0.7 0.7169891595840454 -0.8005528450012207 2.1521002054214478e-05 4.153698682785034e-07 0.0 0.0 0.0 0.0
0.701 0.716175377368927 -0.8023502230644226 -1.0542571544647217e-05 -3.140978515148163e-05 0.0 0.0 0.0 0.0
0.702 0.7161927819252014 -0.803208589553833 1.918058842420578e-05 -5.034729838371277e-06 0.0 0.0 0.0 0.0
0.703 0.7149708867073059 -0.8039019703865051 1.815706491470337e-05 1.2656673789024353e-06 0.0 0.0 0.0 0.0
0.704 0.7131962180137634 -0.806804358959198 -2.975575625896454e-05 1.2505799531936646e-05 0.0 0.0 0.0 0.0
0.705 0.7128364443778992 -0.806439220905304 -1.729000359773636e-05 2.086721360683441e-05 0.0 0.0 0.0 0.0
0.706 0.7126860022544861 -0.8075255155563354 2.6129186153411865e-05 8.55233520269394e-06 0.0 0.0 0.0 0.0
0.707 0.7137776613235474 -0.807475209236145 -7.607974112033844e-06 5.627982318401337e-06 0.0 0.0 0.0 0.0
0.708 0.711062490940094 -0.808904230594635 -4.139170050621033e-05 1.3279728591442108e-05 0.0 0.0 0.0 0.0
0.709 0.7103511095046997 -0.8111843466758728 -1.3982877135276794e-05 1.463480293750763e-05 0.0 0.0 0.0 0.0
0.71 0.7104769349098206 -0.811891496181488 5.443580448627472e-06 -2.4419277906417847e-06 0.0 0.0 0.0 0.0
0.711 0.709450900554657 -0.8127569556236267 -7.946975529193878e-06 6.644986569881439e-06 0.0 0.0 0.0 0.0
0.712 0.7092505097389221 -0.8143050074577332 -1.093745231628418e-05 1.2898817658424377e-06 0.0 0.0 0.0 0.0
0.713 0.7089364528656006 -0.8143718838691711 -2.843327820301056e-06 1.4891847968101501e-06 0.0 0.0 0.0 0.0
0.714 0.7055926322937012 -0.8175410032272339 -1.3504177331924438e-05 -2.7455389499664307e-06 0.0 0.0 0.0 0.0
0.715 0.7069612741470337 -0.8166618347167969 1.1228956282138824e-05 3.3229589462280273e-06 0.0 0.0 0.0 0.0
0.716 0.7060364484786987 -0.8177039623260498 -3.1655654311180115e-06 9.971670806407928e-06 0.0 0.0 0.0 0.0
0.717 0.7045537233352661 -0.8199446201324463 1.066550612449646e-05 1.8149614334106445e-05 0.0 0.0 0.0 0.0
0.718 0.7053002119064331 -0.8197500705718994 3.393273800611496e-05 -8.159317076206207e-06 0.0 0.0 0.0 0.0
0.719 0.7039698362350464 -0.8207289576530457 -9.384006261825562e-06 1.1185184121131897e-06 0.0 0.0 0.0 0.0
0.72 0.7022675275802612 -0.8214575052261353 -5.363486707210541e-06 7.208436727523804e-06 0.0 0.0 0.0 0.0
0.721 0.701996386051178 -0.8242925405502319 2.705492079257965e-06 1.2314878404140472e-05 0.0 0.0 0.0 0.0
0.722 0.7010244131088257 -0.8248806595802307 -3.038346767425537e-05 5.655921995639801e-06 0.0 0.0 0.0 0.0
0.723 0.7004709243774414 -0.8264535665512085 -2.3332424461841583e-05 4.278495907783508e-06 0.0 0.0 0.0 0.0
0.724 0.6999319195747375 -0.8267676830291748 1.9673258066177368e-05 1.9798986613750458e-05 0.0 0.0 0.0 0.0
0.725 0.6992642879486084 -0.827603280544281 9.554438292980194e-06 1.658964902162552e-05 0.0 0.0 0.0 0.0
0.726 0.6979084014892578 -0.8300167322158813 8.633360266685486e-06 -2.927146852016449e-06 0.0 0.0 0.0 0.0
0.727 0.6982650756835938 -0.829753577709198 -2.4084001779556274e-06 2.2392719984054565e-05 0.0 0.0 0.0 0.0
0.728 0.6963695883750916 -0.8316579461097717 2.9578804969787598e-06 1.3831071555614471e-05 0.0 0.0 0.0 0.0
0.729 0.6949709057807922 -0.8332704305648804 -1.9278377294540405e-06 3.715045750141144e-06 0.0 0.0 0.0 0.0
0.73 0.6961212754249573 -0.833112359046936 1.96751207113266e-05 -7.681548595428467e-06 0.0 0.0 0.0 0.0
0.731 0.6955656409263611 -0.8335031270980835 -1.4512799680233002e-05 -6.5248459577560425e-06 0.0 0.0 0.0 0.0
0.732 0.6946027278900146 -0.8348399996757507 1.2856908142566681e-05 -9.512528777122498e-06 0.0 0.0 0.0 0.0
0.733 0.6934282183647156 -0.8363109230995178 -1.532025635242462e-05 3.6545097827911377e-06 0.0 0.0 0.0 0.0
0.734 0.6914738416671753 -0.8378297090530396 1.642480492591858e-05 -4.2183324694633484e-05 0.0 0.0 0.0 0.0
0.735 0.6919854283332825 -0.8391638994216919 -5.603767931461334e-06 -8.391216397285461e-07 0.0 0.0 0.0 0.0
0.736 0.6912935376167297 -0.8395982384681702 -1.6096048057079315e-05 -1.0710209608078003e-06 0.0 0.0 0.0 0.0
0.737 0.6887478828430176 -0.841485321521759 -1.0911375284194946e-05 2.210959792137146e-06 0.0 0.0 0.0 0.0
0.738 0.6899538040161133 -0.8428974151611328 2.5576911866664886e-05 9.266659617424011e-06 0.0 0.0 0.0 0.0
0.739 0.6887812614440918 -0.8427883982658386 3.3834949135780334e-06 -1.9332394003868103e-05 0.0 0.0 0.0 0.0
0.74 0.6873588562011719 -0.8446693420410156 -2.7744099497795105e-05 -7.3444098234176636e-06 0.0 0.0 0.0 0.0
0.741 0.687921941280365 -0.8453290462493896 3.355555236339569e-06 -3.948807716369629e-07 0.0 0.0 0.0 0.0
0.742 0.6861903667449951 -0.8454516530036926 1.1057592928409576e-05 1.7301179468631744e-05 0.0 0.0 0.0 0.0
0.743 0.685055136680603 -0.8481047749519348 1.5934929251670837e-05 3.5958364605903625e-06 0.0 0.0 0.0 0.0
0.744 0.6866468787193298 -0.8492485284805298 -1.5529803931713104e-05 -6.089918315410614e-06 0.0 0.0 0.0 0.0
0.745 0.682913601398468 -0.8495413064956665 -5.183741450309753e-06 -1.0193325579166412e-05 0.0 0.0 0.0 0.0
0.746 0.6832420825958252 -0.8506314158439636 4.0046870708465576e-08 1.4903023838996887e-05 0.0 0.0 0.0 0.0
0.747 0.6825280785560608 -0.8511872887611389 2.1474435925483704e-05 2.312473952770233e-06 0.0 0.0 0.0 0.0
0.748 0.6803523302078247 -0.8533080220222473 2.504698932170868e-05 6.105750799179077e-06 0.0 0.0 0.0 0.0
0.749 0.6803919672966003 -0.8536739349365234 1.7396174371242523e-05 -1.7420388758182526e-05 0.0 0.0 0.0 0.0
0.75 0.6806171536445618 -0.8547611832618713 6.454065442085266e-07 2.2001564502716064e-05 0.0 0.0 0.0 0.0
0.751 0.6782888770103455 -0.8563969135284424 -1.7941929399967194e-05 3.592204302549362e-05 0.0 0.0 0.0 0.0
0.752 0.6783733367919922 -0.8571305274963379 2.3599714040756226e-06 2.6104971766471863e-06 0.0 0.0 0.0 0.0
0.753 0.6759408116340637 -0.859147846698761 -1.0826624929904938e-05 6.51925802230835e-06 0.0 0.0 0.0 0.0
0.754 0.6770743131637573 -0.8587560057640076 4.636496305465698e-05 -2.088397741317749e-05 0.0 0.0 0.0 0.0
0.755 0.6750704050064087 -0.8609848618507385 -8.019618690013885e-06 2.507120370864868e-06 0.0 0.0 0.0 0.0
0.756 0.6737207174301147 -0.8621707558631897 1.876242458820343e-05 -1.993030309677124e-06 0.0 0.0 0.0 0.0
0.757 0.6741300821304321 -0.8628301024436951 -6.206333637237549e-06 -8.310191333293915e-06 0.0 0.0 0.0 0.0
0.758 0.672286868095398 -0.8631075620651245 8.89413058757782e-07 -1.1604279279708862e-06 0.0 0.0 0.0 0.0
0.759 0.6706159114837646 -0.8641777634620667 -2.6241876184940338e-05 -2.2891908884048462e-05 0.0 0.0 0.0 0.0
0.76 0.6700266003608704 -0.8649402260780334 4.016794264316559e-06 -1.6958452761173248e-05 0.0 0.0 0.0 0.0
0.761 0.6694782972335815 -0.8660976886749268 -5.641952157020569e-06 -1.1455267667770386e-07 0.0 0.0 0.0 0.0
0.762 0.6696017384529114 -0.8681435585021973 -1.035444438457489e-05 1.3747252523899078e-05 0.0 0.0 0.0 0.0
0.763 0.667214572429657 -0.8677847981452942 -1.8700957298278809e-06 -3.43983992934227e-05 0.0 0.0 0.0 0.0
0.764 0.6665640473365784 -0.8677082061767578 -5.570240318775177e-06 -1.8583610653877258e-05 0.0 0.0 0.0 0.0
0.765 0.6648758053779602 -0.8685634732246399 8.617527782917023e-06 1.2020580470561981e-05 0.0 0.0 0.0 0.0
0.766 0.6657758951187134 -0.8690621852874756 5.928799510002136e-06 -1.108553260564804e-05 0.0 0.0 0.0 0.0
0.767 0.6649360060691833 -0.8699215054512024 -1.7494894564151764e-05 -2.030935138463974e-05 0.0 0.0 0.0 0.0
0.768 0.664737343788147 -0.8739174604415894 -1.7690472304821014e-05 6.360933184623718e-06 0.0 0.0 0.0 0.0
0.769 0.664082407951355 -0.8718783855438232 9.739771485328674e-06 2.081785351037979e-05 0.0 0.0 0.0 0.0
0.77 0.6624429821968079 -0.8736485242843628 4.521571099758148e-06 7.579103112220764e-06 0.0 0.0 0.0 0.0
0.771 0.663910448551178 -0.874935507774353 -1.4703720808029175e-05 1.1646188795566559e-05 0.0 0.0 0.0 0.0
0.772 0.6623213291168213 -0.8753188252449036 -3.103446215391159e-05 8.899718523025513e-06 0.0 0.0 0.0 0.0
0.773 0.6619389653205872 -0.8778159618377686 -2.185441553592682e-05 3.583170473575592e-05 0.0 0.0 0.0 0.0
0.774 0.6618022918701172 -0.8784443140029907 1.875218003988266e-05 -2.800486981868744e-06 0.0 0.0 0.0 0.0
0.775 0.6613970398902893 -0.8794450163841248 1.6883015632629395e-05 1.2355856597423553e-05 0.0 0.0 0.0 0.0
0.776 0.6598816514015198 -0.8812729716300964 -2.383347600698471e-05 -7.424503564834595e-06 0.0 0.0 0.0 0.0
0.777 0.6580373644828796 -0.8815250992774963 -1.1759810149669647e-05 2.5657005608081818e-05 0.0 0.0 0.0 0.0
0.778 0.6588132381439209 -0.8819935321807861 1.4277175068855286e-05 -1.6635283827781677e-05 0.0 0.0 0.0 0.0
0.779 0.6570837497711182 -0.8843649625778198 2.0606443285942078e-05 2.5709159672260284e-05 0.0 0.0 0.0 0.0
0.78 0.6575747132301331 -0.8872982859611511 9.131617844104767e-06 -1.1567026376724243e-06 0.0 0.0 0.0 0.0
0.781 0.6549452543258667 -0.886784553527832 1.6450881958007812e-05 -6.3516199588775635e-06 0.0 0.0 0.0 0.0
0.782 0.6549888253211975 -0.8875604867935181 2.7175992727279663e-06 2.5888904929161072e-05 0.0 0.0 0.0 0.0
0.783 0.6540737152099609 -0.8892005681991577 -6.530433893203735e-06 -6.780028343200684e-06 0.0 0.0 0.0 0.0
0.784 0.6530265808105469 -0.8903810381889343 3.093574196100235e-05 -1.7061829566955566e-06 0.0 0.0 0.0 0.0
0.785 0.652733564376831 -0.891198992729187 -9.641051292419434e-06 5.4389238357543945e-06 0.0 0.0 0.0 0.0
0.786 0.6508287191390991 -0.890956461429596 2.6677735149860382e-05 -5.057081580162048e-06 0.0 0.0 0.0 0.0
0.787 0.6502904295921326 -0.8939228653907776 2.138223499059677e-05 2.6778317987918854e-05 0.0 0.0 0.0 0.0
0.788 0.6494378447532654 -0.8938325047492981 -1.408252865076065e-05 1.2511387467384338e-05 0.0 0.0 0.0 0.0
0.789 0.6493238806724548 -0.896103024482727 1.909211277961731e-07 5.29363751411438e-06 0.0 0.0 0.0 0.0
0.79 0.6483569145202637 -0.8964507579803467 -1.3741664588451385e-05 1.8615275621414185e-05 0.0 0.0 0.0 0.0
0.791 0.6474236249923706 -0.8973783850669861 -2.7185305953025818e-06 1.2404285371303558e-05 0.0 0.0 0.0 0.0
0.792 0.6483465433120728 -0.8985666036605835 -1.4660879969596863e-05 7.403083145618439e-06 0.0 0.0 0.0 0.0
0.793 0.6451300978660583 -0.8998774290084839 9.822659194469452e-06 1.5720725059509277e-05 0.0 0.0 0.0 0.0
0.794 0.6448332071304321 -0.9001593589782715 -1.1916272342205048e-05 6.847083568572998e-06 0.0 0.0 0.0 0.0
0.795 0.6426919102668762 -0.9019445776939392 9.269453585147858e-06 7.450580596923828e-07 0.0 0.0 0.0 0.0
0.796 0.6411135196685791 -0.9037827849388123 4.2673200368881226e-06 1.3461336493492126e-05 0.0 0.0 0.0 0.0
0.797 0.6409903764724731 -0.9040365219116211 -1.548975706100464e-05 1.9268132746219635e-05 0.0 0.0 0.0 0.0
0.798 0.640513002872467 -0.905024528503418 3.929249942302704e-06 1.635681837797165e-05 0.0 0.0 0.0 0.0
0.799 0.6402516961097717 -0.9058612585067749 -1.3159587979316711e-06 -2.3764558136463165e-05 0.0 0.0 0.0 0.0
0.8 0.6383262872695923 -0.9067138433456421 -1.3908371329307556e-05 2.8748996555805206e-05 0.0 0.0 0.0 0.0
0.801 0.6373351216316223 -0.9089796543121338 9.052455425262451e-06 2.6697292923927307e-05 0.0 0.0 0.0 0.0
0.802 0.637349009513855 -0.9084515571594238 1.1574476957321167e-05 -2.7484260499477386e-05 0.0 0.0 0.0 0.0
0.803 0.6357148289680481 -0.9102373719215393 7.63963907957077e-06 -9.193085134029388e-06 0.0 0.0 0.0 0.0
0.804 0.6353679895401001 -0.9109756350517273 -1.6948208212852478e-05 -4.464760422706604e-06 0.0 0.0 0.0 0.0
0.805 0.6345144510269165 -0.9119300246238708 -9.676441550254822e-07 -7.214955985546112e-06 0.0 0.0 0.0 0.0
0.806 0.633979856967926 -0.9130606651306152 -8.641742169857025e-06 -9.078532457351685e-06 0.0 0.0 0.0 0.0
0.807 0.6330084204673767 -0.9139629602432251 -1.0209158062934875e-05 -6.525777280330658e-06 0.0 0.0 0.0 0.0
0.808 0.6300696134567261 -0.9165511727333069 -1.1650845408439636e-05 2.7334317564964294e-06 0.0 0.0 0.0 0.0
0.809 0.6297900080680847 -0.917079508304596 -1.4885328710079193e-05 9.204261004924774e-06 0.0 0.0 0.0 0.0
0.81 0.6292270421981812 -0.9166557192802429 6.414949893951416e-06 -2.4177134037017822e-06 0.0 0.0 0.0 0.0
0.811 0.6277521848678589 -0.9191653728485107 9.188428521156311e-06 6.640329957008362e-06 0.0 0.0 0.0 0.0
0.812 0.6271522045135498 -0.9196301698684692 2.0956620573997498e-05 4.12575900554657e-07 0.0 0.0 0.0 0.0
0.813 0.6250657439231873 -0.9205033779144287 1.474190503358841e-05 -8.67992639541626e-06 0.0 0.0 0.0 0.0
0.814 0.6261835098266602 -0.9213520884513855 8.512288331985474e-06 6.993301212787628e-06 0.0 0.0 0.0 0.0
0.815 0.6246469020843506 -0.9221628904342651 1.5397556126117706e-05 1.0440126061439514e-05 0.0 0.0 0.0 0.0
0.816 0.6224178671836853 -0.92244553565979 -1.8933787941932678e-06 1.2706033885478973e-05 0.0 0.0 0.0 0.0
0.817 0.6235263347625732 -0.9233431816101074 -4.201196134090424e-06 1.5690922737121582e-05 0.0 0.0 0.0 0.0
0.818 0.6203831434249878 -0.9261875748634338 -2.1348707377910614e-05 5.2675604820251465e-06 0.0 0.0 0.0 0.0
0.819 0.6211366653442383 -0.9268220067024231 -1.8151476979255676e-06 1.661013811826706e-05 0.0 0.0 0.0 0.0
0.82 0.6198577284812927 -0.9281179904937744 -5.826354026794434e-06 3.191642463207245e-05 0.0 0.0 0.0 0.0
0.821 0.6179507374763489 -0.9299607276916504 4.237517714500427e-07 1.2561678886413574e-05 0.0 0.0 0.0 0.0
0.822 0.618040919303894 -0.9294590950012207 -1.4659017324447632e-06 3.157183527946472e-06 0.0 0.0 0.0 0.0
0.823 0.6172732710838318 -0.9309473037719727 -7.470138370990753e-06 -1.644715666770935e-05 0.0 0.0 0.0 0.0
0.824 0.6158100366592407 -0.9319225549697876 -2.485699951648712e-05 2.555549144744873e-06 0.0 0.0 0.0 0.0
0.825 0.6148824691772461 -0.9330136775970459 5.788169801235199e-06 -1.7657876014709473e-06 0.0 0.0 0.0 0.0
0.826 0.6140344142913818 -0.9343458414077759 1.2164004147052765e-05 -1.0960735380649567e-05 0.0 0.0 0.0 0.0
0.827 0.6134023666381836 -0.9344920516014099 -8.19377601146698e-06 2.7623958885669708e-05 0.0 0.0 0.0 0.0
0.828 0.6090183258056641 -0.9357578754425049 2.695620059967041e-05 1.1626631021499634e-05 0.0 0.0 0.0 0.0
0.829 0.6114054322242737 -0.9365655779838562 2.576969563961029e-05 5.98561018705368e-06 0.0 0.0 0.0 0.0
0.83 0.6099339127540588 -0.9381624460220337 -3.095995634794235e-05 -4.163011908531189e-06 0.0 0.0 0.0 0.0
0.831 0.6092836856842041 -0.9398261904716492 1.7853453755378723e-06 1.9142404198646545e-05 0.0 0.0 0.0 0.0
0.832 0.6075295209884644 -0.9406245350837708 1.6195699572563171e-06 8.509494364261627e-06 0.0 0.0 0.0 0.0
0.833 0.6062209606170654 -0.9416212439537048 -1.513306051492691e-05 6.600283086299896e-06 0.0 0.0 0.0 0.0
0.834 0.6058456301689148 -0.9407393932342529 -1.5033408999443054e-05 3.4570693969726562e-06 0.0 0.0 0.0 0.0
0.835 0.604051411151886 -0.9445263147354126 1.628883183002472e-06 -1.5201978385448456e-05 0.0 0.0 0.0 0.0
0.836 0.6036823391914368 -0.9445356130599976 2.0361505448818207e-05 3.526918590068817e-06 0.0 0.0 0.0 0.0
0.837 0.602387011051178 -0.9461156129837036 1.9029714167118073e-05 1.0260380804538727e-05 0.0 0.0 0.0 0.0
0.838 0.6004641056060791 -0.946833074092865 2.3441389203071594e-06 -7.673166692256927e-06 0.0 0.0 0.0 0.0
0.839 0.6017194390296936 -0.9466407299041748 -1.1467374861240387e-05 -1.0631047189235687e-05 0.0 0.0 0.0 0.0
0.84 0.5977494716644287 -0.9480406045913696 1.0060146450996399e-05 1.2108124792575836e-05 0.0 0.0 0.0 0.0
0.841 0.5983927845954895 -0.9495391249656677 8.157454431056976e-06 6.3925981521606445e-06 0.0 0.0 0.0 0.0
0.842 0.5983052849769592 -0.9498277306556702 -2.339109778404236e-05 1.5138648450374603e-05 0.0 0.0 0.0 0.0
0.843 0.5955268740653992 -0.9527426362037659 1.1796131730079651e-05 2.160109579563141e-05 0.0 0.0 0.0 0.0
0.844 0.5956350564956665 -0.9520306587219238 1.2182630598545074e-05 7.102265954017639e-06 0.0 0.0 0.0 0.0
0.845 0.5941978096961975 -0.9536016583442688 -8.197501301765442e-06 8.10530036687851e-06 0.0 0.0 0.0 0.0
0.846 0.5950855016708374 -0.9555063843727112 1.88387930393219e-05 -7.664784789085388e-07 0.0 0.0 0.0 0.0
0.847 0.5935118794441223 -0.9557692408561707 -1.4131888747215271e-05 2.3720785975456238e-06 0.0 0.0 0.0 0.0
0.848 0.5910435318946838 -0.9566603899002075 -1.3471581041812897e-05 6.4782798290252686e-06 0.0 0.0 0.0 0.0
0.849 0.5903651714324951 -0.958278477191925 1.1684373021125793e-05 7.684342563152313e-06 0.0 0.0 0.0 0.0
0.85 0.5895689129829407 -0.9581907987594604 -7.035210728645325e-06 -3.2195821404457092e-06 0.0 0.0 0.0 0.0
0.851 0.5880423188209534 -0.9593014717102051 1.5554949641227722e-05 5.424022674560547e-06 0.0 0.0 0.0 0.0
0.852 0.5853060483932495 -0.9609934687614441 -2.3385509848594666e-06 4.265457391738892e-06 0.0 0.0 0.0 0.0
0.853 0.5863323211669922 -0.9608016014099121 -4.670582711696625e-06 -2.3730099201202393e-06 0.0 0.0 0.0 0.0
0.854 0.585069477558136 -0.9629467725753784 -1.7033889889717102e-06 -1.1632218956947327e-06 0.0 0.0 0.0 0.0
0.855 0.583752453327179 -0.9637013673782349 5.951151251792908e-06 1.4062970876693726e-05 0.0 0.0 0.0 0.0
0.856 0.5833696126937866 -0.9648424386978149 3.809109330177307e-06 -1.4536082744598389e-05 0.0 0.0 0.0 0.0
0.857 0.5825324654579163 -0.9648129940032959 -1.1995434761047363e-06 8.820556104183197e-06 0.0 0.0 0.0 0.0
0.858 0.5807598829269409 -0.9659813642501831 1.6788020730018616e-05 -8.738599717617035e-06 0.0 0.0 0.0 0.0
0.859 0.5800259709358215 -0.9671725034713745 7.286667823791504e-06 -2.3049302399158478e-05 0.0 0.0 0.0 0.0
0.86 0.5791042447090149 -0.9676779508590698 6.8247318267822266e-06 -1.5235505998134613e-05 0.0 0.0 0.0 0.0
0.861 0.577140212059021 -0.968771755695343 6.595626473426819e-06 1.0982155799865723e-05 0.0 0.0 0.0 0.0
0.862 0.5759971141815186 -0.9703055620193481 7.058493793010712e-06 -8.79727303981781e-06 0.0 0.0 0.0 0.0
0.863 0.5750637054443359 -0.9711548686027527 2.266746014356613e-05 1.18231400847435e-05 0.0 0.0 0.0 0.0
0.864 0.573771595954895 -0.9731135368347168 1.551862806081772e-05 7.790513336658478e-06 0.0 0.0 0.0 0.0
0.865 0.5739844441413879 -0.9732430577278137 3.2689422369003296e-07 -1.1859461665153503e-05 0.0 0.0 0.0 0.0
0.866 0.5729110240936279 -0.9734570384025574 -1.3303011655807495e-05 2.377573400735855e-05 0.0 0.0 0.0 0.0
0.867 0.570477306842804 -0.9746984839439392 2.0887702703475952e-05 1.7248094081878662e-05 0.0 0.0 0.0 0.0
0.868 0.5703085660934448 -0.9755430817604065 1.0575167834758759e-05 1.2870877981185913e-05 0.0 0.0 0.0 0.0
0.869 0.5683510899543762 -0.9774718284606934 2.9746443033218384e-06 3.6032870411872864e-06 0.0 0.0 0.0 0.0
0.87 0.568128228187561 -0.9780846238136292 -6.7427754402160645e-06 3.184191882610321e-06 0.0 0.0 0.0 0.0
0.871 0.5643912553787231 -0.9790742993354797 -4.1443854570388794e-07 1.4730729162693024e-05 0.0 0.0 0.0 0.0
0.872 0.5650956034660339 -0.9807397723197937 7.450580596923828e-09 -1.2680888175964355e-05 0.0 0.0 0.0 0.0
0.873 0.5658860206604004 -0.9808964133262634 6.0480087995529175e-06 1.7187558114528656e-05 0.0 0.0 0.0 0.0
0.874 0.5626505017280579 -0.9817422032356262 2.8848648071289062e-05 -7.623806595802307e-06 0.0 0.0 0.0 0.0
0.875 0.5617491006851196 -0.983418345451355 8.84663313627243e-06 -1.8295831978321075e-05 0.0 0.0 0.0 0.0
0.876 0.5613746047019958 -0.9840068221092224 6.468035280704498e-06 1.4939345419406891e-05 0.0 0.0 0.0 0.0
0.877 0.5594231486320496 -0.9843745231628418 1.1281110346317291e-05 -9.043142199516296e-06 0.0 0.0 0.0 0.0
0.878 0.5584806799888611 -0.9862459301948547 5.469657480716705e-06 -6.27618283033371e-06 0.0 0.0 0.0 0.0
0.879 0.5596024394035339 -0.9849935173988342 1.8065795302391052e-05 2.1457672119140625e-06 0.0 0.0 0.0 0.0
0.88 0.5565609931945801 -0.9881088733673096 2.7529895305633545e-06 -8.509494364261627e-06 0.0 0.0 0.0 0.0
0.881 0.5554180145263672 -0.9890224933624268 -2.3778527975082397e-05 -7.596798241138458e-06 0.0 0.0 0.0 0.0
0.882 0.5550560355186462 -0.9896642565727234 -1.1640600860118866e-05 -2.055428922176361e-06 0.0 0.0 0.0 0.0
0.883 0.5526048541069031 -0.9900834560394287 -6.205402314662933e-06 -2.4859793484210968e-05 0.0 0.0 0.0 0.0
0.884 0.5521563291549683 -0.990548849105835 2.090074121952057e-05 3.894791007041931e-06 0.0 0.0 0.0 0.0
0.885 0.5500459671020508 -0.9909146428108215 3.717653453350067e-05 9.154900908470154e-07 0.0 0.0 0.0 0.0
0.886 0.550155758857727 -0.9919912219047546 9.998679161071777e-06 5.766749382019043e-06 0.0 0.0 0.0 0.0
0.887 0.548048734664917 -0.9935569167137146 2.7026981115341187e-05 6.118789315223694e-07 0.0 0.0 0.0 0.0
0.888 0.5467170476913452 -0.9941620230674744 1.256447285413742e-05 1.0943971574306488e-05 0.0 0.0 0.0 0.0
0.889 0.546565592288971 -0.99543297290802 3.4868717193603516e-06 -1.8960796296596527e-05 0.0 0.0 0.0 0.0
0.89 0.5435103178024292 -0.996394157409668 -2.6815570890903473e-05 2.454034984111786e-05 0.0 0.0 0.0 0.0
0.891 0.5427048206329346 -0.9983320236206055 6.454065442085266e-06 -2.543628215789795e-05 0.0 0.0 0.0 0.0
0.892 0.5437723398208618 -0.9981158375740051 -8.492730557918549e-06 -1.5809200704097748e-05 0.0 0.0 0.0 0.0
0.893 0.5405206680297852 -0.9991582036018372 8.36886465549469e-06 -6.0265883803367615e-06 0.0 0.0 0.0 0.0
0.894 0.5400153398513794 -0.999579668045044 -5.606561899185181e-07 2.043507993221283e-05 0.0 0.0 0.0 0.0
0.895 0.5377503037452698 -1.0006277561187744 1.1195428669452667e-05 -2.707540988922119e-05 0.0 0.0 0.0 0.0
0.896 0.5374884009361267 -1.0027331113815308 -6.5583735704422e-06 -6.0675665736198425e-06 0.0 0.0 0.0 0.0
0.897 0.5379958748817444 -1.0028773546218872 -1.6652047634124756e-06 -1.566484570503235e-05 0.0 0.0 0.0 0.0
0.898 0.5349761247634888 -1.005073070526123 -3.368128091096878e-05 -9.064562618732452e-06 0.0 0.0 0.0 0.0
0.899 0.5331149101257324 -1.0052056312561035 -8.922070264816284e-07 4.309229552745819e-06 0.0 0.0 0.0 0.0
0.9 0.5298433303833008 -1.0044498443603516 3.2940879464149475e-05 1.6790814697742462e-05 0.0 0.0 0.0 0.0
0.901 0.5304666757583618 -1.0070627927780151 -9.723939001560211e-06 -2.3366883397102356e-06 0.0 0.0 0.0 0.0
0.902 0.53188157081604 -1.0074114799499512 -7.784925401210785e-06 1.2228265404701233e-06 0.0 0.0 0.0 0.0
0.903 0.5289263725280762 -1.0084607601165771 -1.7305836081504822e-05 -1.0306015610694885e-05 0.0 0.0 0.0 0.0
0.904 0.5274052619934082 -1.009440541267395 -1.1582858860492706e-05 1.4543533325195312e-05 0.0 0.0 0.0 0.0
0.905 0.5270676612854004 -1.0093376636505127 -2.2757798433303833e-05 -1.777615398168564e-05 0.0 0.0 0.0 0.0
0.906 0.5246477723121643 -1.0118447542190552 1.0457821190357208e-05 4.275422543287277e-05 0.0 0.0 0.0 0.0
0.907 0.5231648683547974 -1.012550950050354 -1.1339783668518066e-05 3.137439489364624e-05 0.0 0.0 0.0 0.0
0.908 0.5229673981666565 -1.012100100517273 -6.357207894325256e-06 -7.4123963713645935e-06 0.0 0.0 0.0 0.0
0.909 0.5218489766120911 -1.0143685340881348 -5.863606929779053e-06 -3.07522714138031e-06 0.0 0.0 0.0 0.0
0.91 0.519812285900116 -1.014690637588501 -4.01865690946579e-06 3.4803524613380432e-06 0.0 0.0 0.0 0.0
0.911 0.5178179144859314 -1.0155786275863647 -7.505528628826141e-06 3.098323941230774e-05 0.0 0.0 0.0 0.0
0.912 0.5159175992012024 -1.0167003870010376 -2.469681203365326e-05 1.6810372471809387e-05 0.0 0.0 0.0 0.0
0.913 0.5165542364120483 -1.016906499862671 -3.781169652938843e-07 4.81773167848587e-06 0.0 0.0 0.0 0.0
0.914 0.5150923132896423 -1.0177648067474365 8.130446076393127e-06 3.1087547540664673e-06 0.0 0.0 0.0 0.0
0.915 0.5140160322189331 -1.0187325477600098 -2.6757828891277313e-05 3.3471733331680298e-06 0.0 0.0 0.0 0.0
0.916 0.5111183524131775 -1.0200742483139038 -1.568719744682312e-05 -3.816559910774231e-06 0.0 0.0 0.0 0.0
0.917 0.5113123059272766 -1.0212410688400269 -3.4567900002002716e-05 -1.3052485883235931e-05 0.0 0.0 0.0 0.0
0.918 0.5101485848426819 -1.022118091583252 -1.7201527953147888e-06 -9.921379387378693e-06 0.0 0.0 0.0 0.0
0.919 0.5071421265602112 -1.0222960710525513 -2.3564323782920837e-05 1.1440366506576538e-05 0.0 0.0 0.0 0.0
0.92 0.5071966648101807 -1.0232605934143066 -5.8300793170928955e-06 -1.0399147868156433e-05 0.0 0.0 0.0 0.0
0.921 0.5067963004112244 -1.0239996910095215 1.023896038532257e-05 -1.97654590010643e-05 0.0 0.0 0.0 0.0
0.922 0.5038116574287415 -1.024659276008606 -6.51925802230835e-07 1.5200115740299225e-05 0.0 0.0 0.0 0.0
0.923 0.5028696060180664 -1.0262184143066406 -1.66427344083786e-05 1.8784776329994202e-06 0.0 0.0 0.0 0.0
0.924 0.501305878162384 -1.0268912315368652 -2.7514062821865082e-05 1.5210360288619995e-05 0.0 0.0 0.0 0.0
0.925 0.5010928511619568 -1.0277513265609741 8.505769073963165e-06 3.791414201259613e-06 0.0 0.0 0.0 0.0
0.926 0.4998728334903717 -1.0278668403625488 -2.149585634469986e-05 1.282617449760437e-05 0.0 0.0 0.0 0.0
0.927 0.49742743372917175 -1.0307259559631348 -6.064772605895996e-06 -1.3614073395729065e-05 0.0 0.0 0.0 0.0
0.928 0.49553993344306946 -1.031208872795105 9.647570550441742e-06 -3.6070123314857483e-06 0.0 0.0 0.0 0.0
0.929 0.4946720600128174 -1.0308161973953247 -7.3015689849853516e-06 -2.767890691757202e-05 0.0 0.0 0.0 0.0
0.93 0.49399256706237793 -1.0327824354171753 2.7474015951156616e-07 4.079192876815796e-07 0.0 0.0 0.0 0.0
0.931 0.4918297827243805 -1.033650517463684 4.561617970466614e-06 1.5377067029476166e-05 0.0 0.0 0.0 0.0
0.932 0.49219444394111633 -1.0330965518951416 -1.598987728357315e-05 8.822418749332428e-06 0.0 0.0 0.0 0.0
0.933 0.48744961619377136 -1.034379243850708 -1.4579854905605316e-05 8.550472557544708e-06 0.0 0.0 0.0 0.0
0.934 0.48853906989097595 -1.0345234870910645 2.4752691388130188e-05 2.1777115762233734e-05 0.0 0.0 0.0 0.0
0.935 0.4857507646083832 -1.03549063205719 1.9350089132785797e-05 1.942366361618042e-05 0.0 0.0 0.0 0.0
0.936 0.4859323501586914 -1.0379632711410522 -2.4547800421714783e-05 1.6422010958194733e-05 0.0 0.0 0.0 0.0
0.937 0.4844241440296173 -1.0368989706039429 -1.4804303646087646e-05 -9.08970832824707e-06 0.0 0.0 0.0 0.0
0.938 0.48221030831336975 -1.0385165214538574 -1.619383692741394e-05 1.8452294170856476e-05 0.0 0.0 0.0 0.0
0.939 0.4809532165527344 -1.039284586906433 -1.3318844139575958e-05 4.270952194929123e-05 0.0 0.0 0.0 0.0
0.94 0.48010364174842834 -1.0405720472335815 -1.6272999346256256e-05 2.4327076971530914e-05 0.0 0.0 0.0 0.0
0.941 0.4793103337287903 -1.0398825407028198 -6.280839443206787e-06 -1.4756806194782257e-05 0.0 0.0 0.0 0.0
0.942 0.47767624258995056 -1.041616678237915 -3.4086406230926514e-06 -8.736737072467804e-06 0.0 0.0 0.0 0.0
0.943 0.47522589564323425 -1.041184425354004 -1.2822449207305908e-05 3.5900622606277466e-05 0.0 0.0 0.0 0.0
0.944 0.4735768139362335 -1.0423258543014526 -9.78820025920868e-07 1.4787539839744568e-05 0.0 0.0 0.0 0.0
0.945 0.4719204902648926 -1.0434421300888062 2.165045589208603e-05 2.2903084754943848e-05 0.0 0.0 0.0 0.0
0.946 0.46983054280281067 -1.0447931289672852 -2.1976418793201447e-05 1.3431534171104431e-05 0.0 0.0 0.0 0.0
0.947 0.46725332736968994 -1.045166015625 -1.15884467959404e-05 -1.177377998828888e-05 0.0 0.0 0.0 0.0
0.948 0.46867311000823975 -1.045921802520752 3.2847747206687927e-06 2.7080997824668884e-05 0.0 0.0 0.0 0.0
0.949 0.467180073261261 -1.04566490650177 -2.8252601623535156e-05 4.674214869737625e-05 0.0 0.0 0.0 0.0
0.95 0.4637724459171295 -1.0467209815979004 3.971438854932785e-05 2.3577362298965454e-05 0.0 0.0 0.0 0.0
0.951 0.46262046694755554 -1.0456019639968872 4.5280903577804565e-06 2.8157606720924377e-05 0.0 0.0 0.0 0.0
0.952 0.4610854685306549 -1.0465502738952637 2.5816261768341064e-05 1.418963074684143e-05 0.0 0.0 0.0 0.0
0.953 0.4609127640724182 -1.0464922189712524 2.9365532100200653e-05 -1.1541880667209625e-05 0.0 0.0 0.0 0.0
0.954 0.4590187072753906 -1.0472257137298584 2.496875822544098e-05 1.4428049325942993e-05 0.0 0.0 0.0 0.0
0.955 0.45840463042259216 -1.047139286994934 2.1298415958881378e-05 1.9558705389499664e-05 0.0 0.0 0.0 0.0
0.956 0.4559219181537628 -1.0485426187515259 2.793874591588974e-05 1.1390075087547302e-05 0.0 0.0 0.0 0.0
0.957 0.45882004499435425 -1.0482382774353027 2.3816712200641632e-05 1.834053546190262e-05 0.0 0.0 0.0 0.0
0.958 0.4538141191005707 -1.0493803024291992 6.404705345630646e-05 -2.088211476802826e-05 0.0 0.0 0.0 0.0
0.959 0.455812007188797 -1.0492395162582397 6.902962923049927e-06 4.959292709827423e-06 0.0 0.0 0.0 0.0
0.96 0.4550882577896118 -1.0512498617172241 4.432816058397293e-05 1.1030584573745728e-05 0.0 0.0 0.0 0.0
0.961 0.45225989818573 -1.0525254011154175 4.844367504119873e-05 5.308538675308228e-07 0.0 0.0 0.0 0.0
0.962 0.4515039324760437 -1.0529274940490723 -5.65405935049057e-06 -3.224331885576248e-05 0.0 0.0 0.0 0.0
0.963 0.45101651549339294 -1.0535619258880615 8.746981620788574e-06 -1.1706724762916565e-05 0.0 0.0 0.0 0.0
0.964 0.4498821496963501 -1.0547246932983398 -4.851259291172028e-06 -3.5587698221206665e-05 0.0 0.0 0.0 0.0
0.965 0.44675931334495544 -1.05540132522583 -8.501112461090088e-06 1.0702759027481079e-05 0.0 0.0 0.0 0.0
0.966 0.4464733600616455 -1.057021975517273 2.5482848286628723e-05 -1.0572373867034912e-05 0.0 0.0 0.0 0.0
0.967 0.44475090503692627 -1.0571619272232056 -6.7213550209999084e-06 -3.588292747735977e-05 0.0 0.0 0.0 0.0
0.968 0.4435219168663025 -1.0575898885726929 2.013612538576126e-05 -6.292946636676788e-06 0.0 0.0 0.0 0.0
0.969 0.44025281071662903 -1.060846209526062 -3.995373845100403e-06 -6.536021828651428e-06 0.0 0.0 0.0 0.0
0.97 0.4399477243423462 -1.0602917671203613 -1.7629936337471008e-05 -1.3318844139575958e-05 0.0 0.0 0.0 0.0
0.971 0.4405805468559265 -1.0595190525054932 3.1692907214164734e-06 -2.5521032512187958e-05 0.0 0.0 0.0 0.0
0.972 0.43766164779663086 -1.0609626770019531 -9.793788194656372e-06 3.0603259801864624e-05 0.0 0.0 0.0 0.0
0.973 0.43848660588264465 -1.0616861581802368 9.488314390182495e-06 -1.7420388758182526e-05 0.0 0.0 0.0 0.0
0.974 0.4365033209323883 -1.0623607635498047 -1.675449311733246e-05 -1.2899748980998993e-05 0.0 0.0 0.0 0.0
0.975 0.4311007261276245 -1.0638296604156494 6.292946636676788e-06 -1.3384968042373657e-05 0.0 0.0 0.0 0.0
0.976 0.43322932720184326 -1.0637710094451904 -9.514391422271729e-06 -2.795737236738205e-05 0.0 0.0 0.0 0.0
0.977 0.4299895465373993 -1.0650392770767212 -2.5301240384578705e-05 1.4333054423332214e-05 0.0 0.0 0.0 0.0
0.978 0.42764291167259216 -1.0659812688827515 -5.504116415977478e-07 6.2575563788414e-06 0.0 0.0 0.0 0.0
0.979 0.42771273851394653 -1.0657060146331787 -2.6007182896137238e-05 -3.534834831953049e-05 0.0 0.0 0.0 0.0
0.98 0.42519599199295044 -1.0669866800308228 2.267584204673767e-05 -1.4738179743289948e-05 0.0 0.0 0.0 0.0
0.981 0.4241805076599121 -1.0673627853393555 5.278736352920532e-06 -1.1725351214408875e-05 0.0 0.0 0.0 0.0
0.982 0.424271821975708 -1.0680960416793823 2.3252330720424652e-05 -2.299714833498001e-05 0.0 0.0 0.0 0.0
0.983 0.42038747668266296 -1.0695273876190186 2.9709190130233765e-07 -2.9704533517360687e-05 0.0 0.0 0.0 0.0
0.984 0.41990047693252563 -1.0703840255737305 -9.451992809772491e-06 1.4713965356349945e-05 0.0 0.0 0.0 0.0
0.985 0.41959264874458313 -1.0691900253295898 -7.974915206432343e-06 -2.3552216589450836e-05 0.0 0.0 0.0 0.0
0.986 0.41625627875328064 -1.0717988014221191 8.3213672041893e-06 -1.1138617992401123e-06 0.0 0.0 0.0 0.0
0.987 0.41537678241729736 -1.0718097686767578 -1.8882565200328827e-05 1.2907199561595917e-05 0.0 0.0 0.0 0.0
0.988 0.41417908668518066 -1.071199893951416 2.7351081371307373e-05 -3.0724331736564636e-06 0.0 0.0 0.0 0.0
0.989 0.412607342004776 -1.0732898712158203 -4.802830517292023e-06 -9.510666131973267e-06 0.0 0.0 0.0 0.0
0.99 0.41015735268592834 -1.072739839553833 -1.4925375580787659e-05 -2.4995766580104828e-05 0.0 0.0 0.0 0.0
0.991 0.40801286697387695 -1.0740033388137817 1.7179176211357117e-05 1.097843050956726e-05 0.0 0.0 0.0 0.0
0.992 0.4084088206291199 -1.0742952823638916 -1.4998018741607666e-05 5.3513795137405396e-06 0.0 0.0 0.0 0.0
0.993 0.4075927436351776 -1.0742191076278687 -3.097858279943466e-05 -2.255011349916458e-05 0.0 0.0 0.0 0.0
0.994 0.4041808545589447 -1.075665831565857 -9.43988561630249e-06 -8.586794137954712e-07 0.0 0.0 0.0 0.0
0.995 0.40314605832099915 -1.075623869895935 3.061816096305847e-05 -8.024275302886963e-06 0.0 0.0 0.0 0.0
0.996 0.400167316198349 -1.076479196548462 1.6391277313232422e-07 -5.010515451431274e-06 0.0 0.0 0.0 0.0
0.997 0.40093809366226196 -1.077354073524475 -1.4181248843669891e-05 -2.868473529815674e-07 0.0 0.0 0.0 0.0
0.998 0.3984595835208893 -1.077853798866272 -3.7185847759246826e-05 -1.3875775039196014e-05 0.0 0.0 0.0 0.0
0.999 0.3976952135562897 -1.0787678956985474 3.875233232975006e-06 -3.09627503156662e-05 0.0 0.0 0.0 0.0
1.0 0.3963916301727295 -1.0789169073104858 6.8070366978645325e-06 -1.5387311577796936e-05 0.0 0.0 0.0 0.0
1.001 0.39474982023239136 -1.079491376876831 -2.6049092411994934e-06 5.644746124744415e-06 0.0 0.0 0.0 0.0
1.002 0.3926559388637543 -1.0800249576568604 -2.4938024580478668e-05 5.857087671756744e-06 0.0 0.0 0.0 0.0
1.003 0.3921320140361786 -1.0810351371765137 2.3915432393550873e-05 6.015412509441376e-06 0.0 0.0 0.0 0.0
1.004 0.3901742696762085 -1.0810275077819824 -9.84780490398407e-06 1.655425876379013e-05 0.0 0.0 0.0 0.0
1.005 0.38845884799957275 -1.0817580223083496 -1.529604196548462e-05 -1.0086223483085632e-05 0.0 0.0 0.0 0.0
1.006 0.386539101600647 -1.0816861391067505 1.7249025404453278e-05 -3.094784915447235e-05 0.0 0.0 0.0 0.0
1.007 0.38540714979171753 -1.0831853151321411 1.5247613191604614e-05 4.4694170355796814e-05 0.0 0.0 0.0 0.0
1.008 0.38378748297691345 -1.0844080448150635 7.943250238895416e-06 -1.643691211938858e-05 0.0 0.0 0.0 0.0
1.009 0.383020281791687 -1.083916187286377 -1.866370439529419e-06 -1.8254853785037994e-05 0.0 0.0 0.0 0.0
1.01 0.3798108994960785 -1.083935260772705 5.3299590945243835e-06 -6.106682121753693e-06 0.0 0.0 0.0 0.0
1.011 0.37884455919265747 -1.085629940032959 -2.9142014682292938e-05 -1.689419150352478e-05 0.0 0.0 0.0 0.0
1.012 0.37857794761657715 -1.0846186876296997 -5.691312253475189e-06 -2.1615996956825256e-06 0.0 0.0 0.0 0.0
1.013 0.37652111053466797 -1.0859397649765015 3.3981166779994965e-05 -9.758397936820984e-06 0.0 0.0 0.0 0.0
1.014 0.3736034333705902 -1.087220311164856 6.26780092716217e-07 -1.6699545085430145e-05 0.0 0.0 0.0 0.0
1.015 0.3748893737792969 -1.0857725143432617 -2.4518929421901703e-05 2.0060688257217407e-06 0.0 0.0 0.0 0.0
1.016 0.37000373005867004 -1.087222695350647 3.048218786716461e-06 -1.161079853773117e-05 0.0 0.0 0.0 0.0
1.017 0.3698267340660095 -1.0877127647399902 -2.308376133441925e-05 1.39651820063591e-05 0.0 0.0 0.0 0.0
1.018 0.369419127702713 -1.0879921913146973 2.733711153268814e-05 3.711320459842682e-06 0.0 0.0 0.0 0.0
1.019 0.3654806911945343 -1.08910071849823 4.623085260391235e-06 -1.0096468031406403e-05 0.0 0.0 0.0 0.0
1.02 0.3647848963737488 -1.0887045860290527 1.1860392987728119e-05 1.1146999895572662e-05 0.0 0.0 0.0 0.0
1.021 0.36301401257514954 -1.0891268253326416 5.342997610569e-06 -1.2386590242385864e-07 0.0 0.0 0.0 0.0
1.022 0.3601449728012085 -1.0905969142913818 -1.4924444258213043e-05 -5.294568836688995e-06 0.0 0.0 0.0 0.0
1.023 0.3602045774459839 -1.08933424949646 -2.0728446543216705e-05 1.1936761438846588e-05 0.0 0.0 0.0 0.0
1.024 0.3589920997619629 -1.0900176763534546 1.4470890164375305e-05 2.975761890411377e-05 0.0 0.0 0.0 0.0
1.025 0.3584977686405182 -1.0902296304702759 2.6186928153038025e-05 -8.577480912208557e-07 0.0 0.0 0.0 0.0
1.026 0.35560449957847595 -1.091949462890625 -9.873881936073303e-06 -8.450821042060852e-06 0.0 0.0 0.0 0.0
1.027 0.35544097423553467 -1.0914638042449951 -2.123229205608368e-05 2.097431570291519e-05 0.0 0.0 0.0 0.0
1.028 0.3519691824913025 -1.0930930376052856 -9.017996490001678e-06 9.8496675491333e-06 0.0 0.0 0.0 0.0
1.029 0.3515703082084656 -1.0934287309646606 5.262903869152069e-06 2.5884248316287994e-05 0.0 0.0 0.0 0.0
1.03 0.34940192103385925 -1.0929625034332275 7.187947630882263e-06 -1.1632218956947327e-05 0.0 0.0 0.0 0.0
1.031 0.3462964594364166 -1.0943803787231445 -1.7867423593997955e-05 1.1556781828403473e-05 0.0 0.0 0.0 0.0
1.032 0.34459537267684937 -1.0949363708496094 3.718677908182144e-05 -2.480391412973404e-05 0.0 0.0 0.0 0.0
1.033 0.34517279267311096 -1.0944422483444214 -3.308989107608795e-06 3.1543895602226257e-06 0.0 0.0 0.0 0.0
1.034 0.3420320153236389 -1.0953693389892578 1.556146889925003e-05 -9.797513484954834e-07 0.0 0.0 0.0 0.0
1.035 0.341153621673584 -1.0953859090805054 1.6182661056518555e-05 -8.18353146314621e-06 0.0 0.0 0.0 0.0
1.036 0.33957982063293457 -1.0953376293182373 -2.3193657398223877e-05 -2.678483724594116e-06 0.0 0.0 0.0 0.0
1.037 0.33756232261657715 -1.096409559249878 -1.65645033121109e-05 1.859944313764572e-05 0.0 0.0 0.0 0.0
1.038 0.33548906445503235 -1.0970097780227661 1.8039718270301819e-06 -3.4086406230926514e-07 0.0 0.0 0.0 0.0
1.039 0.33477720618247986 -1.0962181091308594 -2.989545464515686e-07 -7.981434464454651e-07 0.0 0.0 0.0 0.0
1.04 0.3331849277019501 -1.0972455739974976 4.09688800573349e-06 -1.4711171388626099e-05 0.0 0.0 0.0 0.0
1.041 0.33241990208625793 -1.0963099002838135 -2.648681402206421e-06 -6.6366046667099e-06 0.0 0.0 0.0 0.0
1.042 0.3301107883453369 -1.097435712814331 -1.3018958270549774e-05 3.417953848838806e-07 0.0 0.0 0.0 0.0
1.043 0.3282914161682129 -1.09735906124115 6.592832505702972e-06 -3.9692968130111694e-06 0.0 0.0 0.0 0.0
1.044 0.32858744263648987 -1.0984562635421753 -1.5055760741233826e-05 1.2468546628952026e-05 0.0 0.0 0.0 0.0
1.045 0.32426485419273376 -1.0978245735168457 4.798173904418945e-06 1.2958422303199768e-05 0.0 0.0 0.0 0.0
1.046 0.322699636220932 -1.0992263555526733 -1.360476016998291e-05 1.6362406313419342e-05 0.0 0.0 0.0 0.0
1.047 0.3224068880081177 -1.0988165140151978 -3.973022103309631e-06 -8.677132427692413e-06 0.0 0.0 0.0 0.0
1.048 0.320502907037735 -1.0991106033325195 -2.1480955183506012e-05 -1.521967351436615e-05 0.0 0.0 0.0 0.0
1.049 0.3175055682659149 -1.0995594263076782 3.871507942676544e-06 -6.298534572124481e-06 0.0 0.0 0.0 0.0
1.05 0.3179577887058258 -1.0996084213256836 1.4136545360088348e-05 1.4468096196651459e-05 0.0 0.0 0.0 0.0
1.051 0.31442421674728394 -1.100298523902893 4.048924893140793e-05 1.1917203664779663e-05 0.0 0.0 0.0 0.0
1.052 0.3137948215007782 -1.1000300645828247 1.185201108455658e-05 -1.6349367797374725e-05 0.0 0.0 0.0 0.0
1.053 0.31317001581192017 -1.0993165969848633 5.328096449375153e-06 -5.261041224002838e-06 0.0 0.0 0.0 0.0
1.054 0.3096700608730316 -1.1017147302627563 -1.8671154975891113e-05 1.4487653970718384e-05 0.0 0.0 0.0 0.0
1.055 0.30931586027145386 -1.1010743379592896 -2.337433397769928e-05 4.87547367811203e-06 0.0 0.0 0.0 0.0
1.056 0.30824077129364014 -1.100766897201538 -1.2318603694438934e-05 2.187676727771759e-05 0.0 0.0 0.0 0.0
1.057 0.3046855330467224 -1.1024360656738281 1.5047378838062286e-05 -2.468004822731018e-07 0.0 0.0 0.0 0.0
1.058 0.3045465350151062 -1.1022436618804932 2.292916178703308e-06 -6.411224603652954e-06 0.0 0.0 0.0 0.0
1.059 0.30524295568466187 -1.1013638973236084 9.910203516483307e-06 2.2795051336288452e-05 0.0 0.0 0.0 0.0
1.06 0.29904603958129883 -1.102131962776184 -6.928108632564545e-06 2.0395033061504364e-05 0.0 0.0 0.0 0.0
1.061 0.29968154430389404 -1.1031064987182617 -2.0874664187431335e-05 2.3544766008853912e-05 0.0 0.0 0.0 0.0
1.062 0.29893696308135986 -1.1030160188674927 2.0509585738182068e-05 -7.620081305503845e-06 0.0 0.0 0.0 0.0
1.063 0.29635089635849 -1.102717399597168 -1.318659633398056e-05 5.7406723499298096e-06 0.0 0.0 0.0 0.0
1.064 0.293591171503067 -1.1025036573410034 7.1516260504722595e-06 1.2369826436042786e-05 0.0 0.0 0.0 0.0
1.065 0.2925799489021301 -1.1019446849822998 2.0986422896385193e-05 6.998889148235321e-06 0.0 0.0 0.0 0.0
1.066 0.29249656200408936 -1.1030633449554443 1.866184175014496e-05 2.482440322637558e-05 0.0 0.0 0.0 0.0
1.067 0.2893741726875305 -1.1036982536315918 -8.326023817062378e-07 6.319954991340637e-06 0.0 0.0 0.0 0.0
1.068 0.28662776947021484 -1.103261947631836 -7.795169949531555e-07 -9.74256545305252e-06 0.0 0.0 0.0 0.0
1.069 0.2867944836616516 -1.103227138519287 1.4738179743289948e-05 1.1728145182132721e-05 0.0 0.0 0.0 0.0
1.07 0.28520870208740234 -1.1033105850219727 1.796521246433258e-05 -1.6401521861553192e-05 0.0 0.0 0.0 0.0
1.071 0.2835373282432556 -1.105141282081604 6.356276571750641e-06 -9.826384484767914e-06 0.0 0.0 0.0 0.0
1.072 0.2824026644229889 -1.1038774251937866 1.738686114549637e-05 -5.81890344619751e-06 0.0 0.0 0.0 0.0
1.073 0.2800203561782837 -1.104216456413269 -1.71782448887825e-05 -1.765415072441101e-05 0.0 0.0 0.0 0.0
1.074 0.277393102645874 -1.1046048402786255 8.903443813323975e-07 -1.210719347000122e-08 0.0 0.0 0.0 0.0
1.075 0.2771455645561218 -1.1046477556228638 5.076639354228973e-06 1.4472752809524536e-06 0.0 0.0 0.0 0.0
1.076 0.2758711874485016 -1.1046068668365479 -1.5213154256343842e-05 -2.0201317965984344e-05 0.0 0.0 0.0 0.0
1.077 0.27566835284233093 -1.10323965549469 1.9434839487075806e-05 -5.086883902549744e-06 0.0 0.0 0.0 0.0
1.078 0.270687997341156 -1.104562759399414 1.963786780834198e-05 -8.257105946540833e-06 0.0 0.0 0.0 0.0
1.079 0.26907914876937866 -1.104946255683899 -1.1337921023368835e-05 1.8748454749584198e-05 0.0 0.0 0.0 0.0
1.08 0.26676326990127563 -1.1043601036071777 5.713663995265961e-06 1.8635764718055725e-06 0.0 0.0 0.0 0.0
1.081 0.26789024472236633 -1.1042566299438477 -9.968876838684082e-06 -4.461035132408142e-07 0.0 0.0 0.0 0.0
1.082 0.26368623971939087 -1.1058100461959839 3.3481046557426453e-06 6.70459121465683e-06 0.0 0.0 0.0 0.0
1.083 0.2655586898326874 -1.1062301397323608 2.504698932170868e-05 1.0487623512744904e-05 0.0 0.0 0.0 0.0
1.084 0.26144927740097046 -1.1055656671524048 -2.1052546799182892e-05 2.098921686410904e-05 0.0 0.0 0.0 0.0
1.085 0.25874149799346924 -1.1065833568572998 8.149072527885437e-06 -1.439172774553299e-05 0.0 0.0 0.0 0.0
1.086 0.25953182578086853 -1.1062772274017334 -1.8687918782234192e-05 8.985400199890137e-06 0.0 0.0 0.0 0.0
1.087 0.25728705525398254 -1.1061877012252808 6.250105798244476e-06 -1.1336058378219604e-05 0.0 0.0 0.0 0.0
1.088 0.2550651729106903 -1.1065760850906372 -2.3120082914829254e-05 6.875954568386078e-06 0.0 0.0 0.0 0.0
1.089 0.25371459126472473 -1.1036949157714844 1.5269964933395386e-05 -1.0100193321704865e-05 0.0 0.0 0.0 0.0
1.09 0.2522282302379608 -1.1047675609588623 -4.1853636503219604e-06 -4.0337443351745605e-05 0.0 0.0 0.0 0.0
1.091 0.25012362003326416 -1.106303095817566 3.557652235031128e-06 1.9181519746780396e-05 0.0 0.0 0.0 0.0
1.092 0.25151124596595764 -1.1044434309005737 3.238208591938019e-06 -7.395632565021515e-06 0.0 0.0 0.0 0.0
1.093 0.24474355578422546 -1.105628490447998 8.89413058757782e-06 -1.712050288915634e-05 0.0 0.0 0.0 0.0
1.094 0.2463134378194809 -1.1060208082199097 1.8440186977386475e-06 -9.09995287656784e-06 0.0 0.0 0.0 0.0
1.095 0.24550895392894745 -1.1051626205444336 -1.699291169643402e-05 -1.685693860054016e-07 0.0 0.0 0.0 0.0
1.096 0.2428763210773468 -1.1054794788360596 -2.6831403374671936e-06 1.4379620552062988e-05 0.0 0.0 0.0 0.0
1.097 0.2398800402879715 -1.1060051918029785 -2.0089559257030487e-05 -2.5180168449878693e-05 0.0 0.0 0.0 0.0
1.098 0.24019479751586914 -1.1056782007217407 6.681308150291443e-06 -1.1392869055271149e-05 0.0 0.0 0.0 0.0
1.099 0.23597386479377747 -1.1060919761657715 3.3054500818252563e-05 1.2872740626335144e-05 0.0 0.0 0.0 0.0
1.1 0.2369435429573059 -1.106196641921997 -1.2660399079322815e-05 -2.7497299015522003e-05 0.0 0.0 0.0 0.0
1.101 0.23354677855968475 -1.104421854019165 3.4356489777565002e-06 -3.63960862159729e-06 0.0 0.0 0.0 0.0
1.102 0.23489472270011902 -1.1060516834259033 2.5229528546333313e-06 -1.5972182154655457e-05 0.0 0.0 0.0 0.0
1.103 0.2311827391386032 -1.1052842140197754 -2.0957551896572113e-05 -2.8149224817752838e-05 0.0 0.0 0.0 0.0
1.104 0.22933778166770935 -1.1051160097122192 4.06801700592041e-06 1.7955899238586426e-05 0.0 0.0 0.0 0.0
1.105 0.22832517325878143 -1.1059261560440063 8.816830813884735e-06 -6.638467311859131e-06 0.0 0.0 0.0 0.0
1.106 0.22767706215381622 -1.1048694849014282 -1.8407590687274933e-05 1.242663711309433e-05 0.0 0.0 0.0 0.0
1.107 0.22439418733119965 -1.1060609817504883 4.3120235204696655e-06 -1.039169728755951e-05 0.0 0.0 0.0 0.0
1.108 0.2237963229417801 -1.1045671701431274 -7.874332368373871e-06 3.238208591938019e-06 0.0 0.0 0.0 0.0
1.109 0.2216074913740158 -1.104749083518982 -8.694827556610107e-06 -2.8663314878940582e-05 0.0 0.0 0.0 0.0
1.11 0.219796285033226 -1.106091856956482 -1.6959384083747864e-05 -2.50842422246933e-05 0.0 0.0 0.0 0.0
1.111 0.21894077956676483 -1.1050395965576172 -6.516464054584503e-06 -2.6846304535865784e-05 0.0 0.0 0.0 0.0
1.112 0.21824544668197632 -1.1038918495178223 -1.032557338476181e-05 -2.9659830033779144e-05 0.0 0.0 0.0 0.0
1.113 0.21332140266895294 -1.105645775794983 2.2957101464271545e-06 -1.7911195755004883e-05 0.0 0.0 0.0 0.0
1.114 0.21318387985229492 -1.1050312519073486 -1.4951452612876892e-05 -2.5984831154346466e-05 0.0 0.0 0.0 0.0
1.115 0.2144463062286377 -1.1045371294021606 -1.5366822481155396e-05 -8.143484592437744e-06 0.0 0.0 0.0 0.0
1.116 0.21064278483390808 -1.1039007902145386 -2.0301900804042816e-05 -1.9781291484832764e-06 0.0 0.0 0.0 0.0
1.117 0.2087479829788208 -1.1037132740020752 -3.1385570764541626e-06 -2.3978762328624725e-05 0.0 0.0 0.0 0.0
1.118 0.20715481042861938 -1.104622721672058 -9.307637810707092e-06 -2.6283785700798035e-05 0.0 0.0 0.0 0.0
1.119 0.20675675570964813 -1.1044682264328003 -2.0621344447135925e-05 -2.1327286958694458e-07 0.0 0.0 0.0 0.0
1.12 0.20416468381881714 -1.1037849187850952 1.8384307622909546e-06 -4.674308001995087e-06 0.0 0.0 0.0 0.0
1.121 0.2045273631811142 -1.1035404205322266 -2.7437694370746613e-05 -5.107186734676361e-05 0.0 0.0 0.0 0.0
1.122 0.20112000405788422 -1.1042519807815552 -1.5420839190483093e-05 2.8936192393302917e-06 0.0 0.0 0.0 0.0
1.123 0.19897103309631348 -1.103792428970337 -2.767331898212433e-05 -2.794060856103897e-05 0.0 0.0 0.0 0.0
1.124 0.19718709588050842 -1.103050708770752 -1.4831312000751495e-05 1.977197825908661e-06 0.0 0.0 0.0 0.0
1.125 0.19422660768032074 -1.1036720275878906 -3.8363970816135406e-05 3.984197974205017e-06 0.0 0.0 0.0 0.0
1.126 0.19574272632598877 -1.1033124923706055 -6.599351763725281e-06 -2.167467027902603e-05 0.0 0.0 0.0 0.0
1.127 0.19183264672756195 -1.1029163599014282 -1.4342367649078369e-05 -2.459343522787094e-05 0.0 0.0 0.0 0.0
1.128 0.1921919882297516 -1.1016201972961426 -2.0341947674751282e-05 5.022622644901276e-06 0.0 0.0 0.0 0.0
1.129 0.1898082196712494 -1.1017999649047852 -2.9243528842926025e-05 2.886168658733368e-06 0.0 0.0 0.0 0.0
1.13 0.18956147134304047 -1.1016911268234253 -3.583356738090515e-05 -9.336508810520172e-06 0.0 0.0 0.0 0.0
1.131 0.18640275299549103 -1.101192831993103 -4.310533404350281e-05 1.1614523828029633e-05 0.0 0.0 0.0 0.0
1.132 0.18577998876571655 -1.1012768745422363 -4.761107265949249e-05 -2.0135194063186646e-05 0.0 0.0 0.0 0.0
1.133 0.1837313324213028 -1.1005563735961914 -2.3776665329933167e-05 -2.7041882276535034e-05 0.0 0.0 0.0 0.0
1.134 0.18101973831653595 -1.1004388332366943 -5.083903670310974e-05 -6.278045475482941e-06 0.0 0.0 0.0 0.0
1.135 0.18171657621860504 -1.0997475385665894 -4.471000283956528e-05 2.005789428949356e-05 0.0 0.0 0.0 0.0
1.136 0.1785043179988861 -1.0986218452453613 -4.061032086610794e-05 1.9293278455734253e-05 0.0 0.0 0.0 0.0
1.137 0.1750241219997406 -1.1001839637756348 -5.755852907896042e-05 -2.1941959857940674e-06 0.0 0.0 0.0 0.0
1.138 0.17608462274074554 -1.0978538990020752 -4.221964627504349e-05 2.8761103749275208e-05 0.0 0.0 0.0 0.0
1.139 0.17563749849796295 -1.0966511964797974 -4.498567432165146e-05 7.475726306438446e-06 0.0 0.0 0.0 0.0
1.14 0.1709042191505432 -1.0983461141586304 -6.944593042135239e-05 2.8643757104873657e-05 0.0 0.0 0.0 0.0
1.141 0.1709369719028473 -1.0958187580108643 -3.537070006132126e-05 2.8053298592567444e-05 0.0 0.0 0.0 0.0
1.142 0.17090994119644165 -1.095015287399292 -2.3961998522281647e-05 5.777925252914429e-05 0.0 0.0 0.0 0.0
1.143 0.16994714736938477 -1.0957967042922974 -3.681611269712448e-05 3.639981150627136e-05 0.0 0.0 0.0 0.0
1.144 0.1682702898979187 -1.0949019193649292 -5.109328776597977e-05 5.6099146604537964e-05 0.0 0.0 0.0 0.0
1.145 0.1667155921459198 -1.0946587324142456 -3.978051245212555e-05 7.183663547039032e-05 0.0 0.0 0.0 0.0
1.146 0.166679248213768 -1.09295654296875 -1.225993037223816e-05 6.468035280704498e-05 0.0 0.0 0.0 0.0
1.147 0.1656743884086609 -1.092857003211975 -1.8533319234848022e-06 7.53793865442276e-05 0.0 0.0 0.0 0.0
1.148 0.16337892413139343 -1.0940868854522705 -1.586414873600006e-05 4.9824826419353485e-05 0.0 0.0 0.0 0.0
1.149 0.1623990535736084 -1.0933152437210083 1.2618489563465118e-05 8.057057857513428e-05 0.0 0.0 0.0 0.0
1.15 0.1631113439798355 -1.0937458276748657 4.0774233639240265e-05 7.119216024875641e-05 0.0 0.0 0.0 0.0
1.151 0.16196882724761963 -1.09353506565094 2.9916875064373016e-05 4.822481423616409e-05 0.0 0.0 0.0 0.0
1.152 0.15828095376491547 -1.0924501419067383 5.4922886192798615e-05 7.310044020414352e-05 0.0 0.0 0.0 0.0
1.153 0.15563945472240448 -1.0943251848220825 2.9199756681919098e-05 6.435811519622803e-05 0.0 0.0 0.0 0.0
1.154 0.15636096894741058 -1.093888282775879 2.492126077413559e-05 4.782155156135559e-05 0.0 0.0 0.0 0.0
1.155 0.15409190952777863 -1.0942414999008179 4.986021667718887e-05 4.124268889427185e-05 0.0 0.0 0.0 0.0
1.156 0.1499975323677063 -1.0937891006469727 5.6004151701927185e-05 2.462044358253479e-05 0.0 0.0 0.0 0.0
1.157 0.15363869071006775 -1.0931191444396973 3.288872539997101e-05 1.8736347556114197e-05 0.0 0.0 0.0 0.0
1.158 0.14936299622058868 -1.0932211875915527 5.095265805721283e-05 1.4581717550754547e-05 0.0 0.0 0.0 0.0
1.159 0.14856639504432678 -1.0933393239974976 5.342997610569e-05 4.784204065799713e-06 0.0 0.0 0.0 0.0
1.16 0.1479773074388504 -1.0930776596069336 3.588385879993439e-05 -2.1401792764663696e-06 0.0 0.0 0.0 0.0
1.161 0.1450546830892563 -1.0920555591583252 5.1252543926239014e-05 -2.9746443033218384e-06 0.0 0.0 0.0 0.0
1.162 0.14350800216197968 -1.0931875705718994 1.4658086001873016e-05 -3.746151924133301e-05 0.0 0.0 0.0 0.0
1.163 0.14079563319683075 -1.0926258563995361 1.950189471244812e-05 -3.3061951398849487e-06 0.0 0.0 0.0 0.0
1.164 0.14045459032058716 -1.0913453102111816 3.543682396411896e-05 -2.146698534488678e-05 0.0 0.0 0.0 0.0
1.165 0.1405382752418518 -1.0912686586380005 4.435330629348755e-05 -4.025176167488098e-06 0.0 0.0 0.0 0.0
1.166 0.1368085891008377 -1.0918446779251099 2.6238150894641876e-05 -2.4416483938694e-05 0.0 0.0 0.0 0.0
1.167 0.138517826795578 -1.0902727842330933 2.3204833269119263e-05 -1.2828968465328217e-05 0.0 0.0 0.0 0.0
1.168 0.13547417521476746 -1.091049313545227 1.9080936908721924e-05 -3.7923455238342285e-06 0.0 0.0 0.0 0.0
1.169 0.13388927280902863 -1.0907095670700073 2.919323742389679e-05 -2.986472100019455e-05 0.0 0.0 0.0 0.0
1.17 0.13095419108867645 -1.091083288192749 3.0314549803733826e-05 -9.929761290550232e-06 0.0 0.0 0.0 0.0
1.171 0.13125406205654144 -1.0904041528701782 5.4370611906051636e-06 -2.8718262910842896e-05 0.0 0.0 0.0 0.0
1.172 0.1275920271873474 -1.0894417762756348 4.1744671761989594e-05 -3.17869707942009e-05 0.0 0.0 0.0 0.0
1.173 0.12779425084590912 -1.089903712272644 4.2224302887916565e-05 -2.3769214749336243e-05 0.0 0.0 0.0 0.0
1.174 0.12662602961063385 -1.0883374214172363 1.1257827281951904e-05 -1.5851110219955444e-05 0.0 0.0 0.0 0.0
1.175 0.12431573867797852 -1.0882148742675781 2.8713606297969818e-05 -3.1978823244571686e-05 0.0 0.0 0.0 0.0
1.176 0.12275060266256332 -1.088961124420166 4.3014995753765106e-05 -1.750607043504715e-05 0.0 0.0 0.0 0.0
1.177 0.12142425775527954 -1.087564468383789 5.5497512221336365e-06 -1.8186867237091064e-05 0.0 0.0 0.0 0.0
1.178 0.11902084946632385 -1.0872316360473633 5.151145160198212e-06 -1.0149553418159485e-05 0.0 0.0 0.0 0.0
1.179 0.119021475315094 -1.087273359298706 1.3211742043495178e-05 -2.0635314285755157e-05 0.0 0.0 0.0 0.0
1.18 0.11690869182348251 -1.0860753059387207 3.673601895570755e-05 -4.5688822865486145e-05 0.0 0.0 0.0 0.0
1.181 0.11676006019115448 -1.0861855745315552 1.4951452612876892e-05 -1.3883225619792938e-05 0.0 0.0 0.0 0.0
1.182 0.11374124139547348 -1.085195541381836 1.89831480383873e-05 -5.087815225124359e-05 0.0 0.0 0.0 0.0
1.183 0.11412563920021057 -1.0843799114227295 2.039596438407898e-06 -2.202112227678299e-05 0.0 0.0 0.0 0.0
1.184 0.11030057817697525 -1.0851024389266968 4.1350722312927246e-07 5.49759715795517e-06 0.0 0.0 0.0 0.0
1.185 0.11073041707277298 -1.084599494934082 -5.240552127361298e-06 -1.0565854609012604e-05 0.0 0.0 0.0 0.0
1.186 0.11044666916131973 -1.0833911895751953 -1.9902363419532776e-06 -4.5950524508953094e-05 0.0 0.0 0.0 0.0
1.187 0.10702607035636902 -1.082520842552185 -6.690621376037598e-06 -3.415066748857498e-05 0.0 0.0 0.0 0.0
1.188 0.10435942560434341 -1.0829827785491943 -1.8162652850151062e-05 -3.0034221708774567e-05 0.0 0.0 0.0 0.0
1.189 0.10410188138484955 -1.0817545652389526 2.464931458234787e-05 -1.9554980099201202e-05 0.0 0.0 0.0 0.0
1.19 0.10352695733308792 -1.0816818475723267 -1.1837109923362732e-06 -3.920216113328934e-05 0.0 0.0 0.0 0.0
1.191 0.10321786999702454 -1.0816137790679932 -1.3592652976512909e-05 -8.367933332920074e-06 0.0 0.0 0.0 0.0
1.192 0.10059754550457001 -1.0806827545166016 -2.009514719247818e-05 -1.923833042383194e-05 0.0 0.0 0.0 0.0
1.193 0.09836595505475998 -1.0811171531677246 -2.5452114641666412e-05 -1.964159309864044e-06 0.0 0.0 0.0 0.0
1.194 0.09816934913396835 -1.0791712999343872 -3.496650606393814e-05 -3.928598016500473e-05 0.0 0.0 0.0 0.0
1.195 0.0945933610200882 -1.0797821283340454 -4.229787737131119e-05 3.904104232788086e-06 0.0 0.0 0.0 0.0
1.196 0.09595561772584915 -1.078940510749817 -2.2153370082378387e-05 -3.4295953810214996e-05 0.0 0.0 0.0 0.0
1.197 0.0932362899184227 -1.0791714191436768 -2.8388574719429016e-05 -3.789179027080536e-05 0.0 0.0 0.0 0.0
1.198 0.09069628268480301 -1.078452467918396 -2.419017255306244e-05 2.7185305953025818e-06 0.0 0.0 0.0 0.0
1.199 0.08928807824850082 -1.0776259899139404 -1.4199875295162201e-05 -5.745328962802887e-06 0.0 0.0 0.0 0.0
1.2 0.08812582492828369 -1.0772150754928589 4.3371692299842834e-06 -2.5294721126556396e-05 0.0 0.0 0.0 0.0
1.201 0.08835401386022568 -1.0767667293548584 -5.3551048040390015e-06 -2.9352493584156036e-05 0.0 0.0 0.0 0.0
1.202 0.08581278473138809 -1.0759105682373047 -3.9608217775821686e-05 -1.1597760021686554e-05 0.0 0.0 0.0 0.0
1.203 0.08464199304580688 -1.0755822658538818 -2.975575625896454e-05 2.780929207801819e-06 0.0 0.0 0.0 0.0
1.204 0.08392240852117538 -1.0757834911346436 -7.485039532184601e-06 -6.787478923797607e-06 0.0 0.0 0.0 0.0
1.205 0.08135999739170074 -1.0744938850402832 -3.616325557231903e-05 -2.3359432816505432e-05 0.0 0.0 0.0 0.0
1.206 0.08421752601861954 -1.0745148658752441 -3.1393952667713165e-05 -1.1115334928035736e-05 0.0 0.0 0.0 0.0
1.207 0.07800301164388657 -1.0731796026229858 -1.852121204137802e-05 -1.3955868780612946e-05 0.0 0.0 0.0 0.0
1.208 0.07890072464942932 -1.0729917287826538 -2.3293308913707733e-05 -3.056693822145462e-05 0.0 0.0 0.0 0.0
1.209 0.07702329754829407 -1.0730773210525513 -8.094124495983124e-06 -5.067326128482819e-06 0.0 0.0 0.0 0.0
1.21 0.07732994109392166 -1.0712164640426636 -3.432389348745346e-05 -3.867782652378082e-06 0.0 0.0 0.0 0.0
1.211 0.07392485439777374 -1.0704751014709473 -3.522448241710663e-05 -1.776963472366333e-05 0.0 0.0 0.0 0.0
1.212 0.07270170003175735 -1.071361780166626 -5.844049155712128e-06 4.811212420463562e-06 0.0 0.0 0.0 0.0
1.213 0.07193648815155029 -1.0700756311416626 -8.451752364635468e-06 -5.939975380897522e-06 0.0 0.0 0.0 0.0
1.214 0.06913474947214127 -1.0701799392700195 -3.348942846059799e-05 8.510425686836243e-06 0.0 0.0 0.0 0.0
1.215 0.0670899897813797 -1.0685397386550903 -5.2908435463905334e-06 -6.128102540969849e-06 0.0 0.0 0.0 0.0
1.216 0.06704294681549072 -1.0688399076461792 -2.6454217731952667e-05 2.7837231755256653e-05 0.0 0.0 0.0 0.0
1.217 0.06658313423395157 -1.0685025453567505 -1.4572404325008392e-05 9.843148291110992e-06 0.0 0.0 0.0 0.0
1.218 0.06597734987735748 -1.0670630931854248 -3.786478191614151e-05 2.5122426450252533e-05 0.0 0.0 0.0 0.0
1.219 0.06247537583112717 -1.066727876663208 -2.100784331560135e-05 -1.1443160474300385e-05 0.0 0.0 0.0 0.0
1.22 0.062462810426950455 -1.0663944482803345 -1.9317492842674255e-05 5.7248398661613464e-06 0.0 0.0 0.0 0.0
1.221 0.05930405855178833 -1.064976692199707 -2.0922161638736725e-05 5.6568533182144165e-06 0.0 0.0 0.0 0.0
1.222 0.05998547002673149 -1.0650358200073242 -1.1929310858249664e-05 -2.3748725652694702e-06 0.0 0.0 0.0 0.0
1.223 0.05888340249657631 -1.0649409294128418 -2.1357089281082153e-05 3.6135315895080566e-07 0.0 0.0 0.0 0.0
1.224 0.05901327729225159 -1.0634381771087646 -2.512335777282715e-05 -1.6706064343452454e-05 0.0 0.0 0.0 0.0
1.225 0.0562734417617321 -1.0627353191375732 5.4389238357543945e-06 -1.3122335076332092e-06 0.0 0.0 0.0 0.0
1.226 0.05721719563007355 -1.0633130073547363 -2.9413960874080658e-05 -1.7447397112846375e-05 0.0 0.0 0.0 0.0
1.227 0.052658725529909134 -1.0615466833114624 -2.1920539438724518e-05 1.1310912668704987e-05 0.0 0.0 0.0 0.0
1.228 0.05169640854001045 -1.062057375907898 -2.0841136574745178e-05 -6.576068699359894e-06 0.0 0.0 0.0 0.0
1.229 0.05136752128601074 -1.0611571073532104 -3.7997961044311523e-06 1.352652907371521e-05 0.0 0.0 0.0 0.0
1.23 0.049099963158369064 -1.060828447341919 -3.836676478385925e-05 1.6304664313793182e-05 0.0 0.0 0.0 0.0
1.231 0.04798990115523338 -1.0593628883361816 -2.57100909948349e-05 -5.168840289115906e-07 0.0 0.0 0.0 0.0
1.232 0.04696515202522278 -1.0589616298675537 -1.0836869478225708e-05 3.1115487217903137e-06 0.0 0.0 0.0 0.0
1.233 0.04785986244678497 -1.05947744846344 -9.821727871894836e-06 -6.975606083869934e-07 0.0 0.0 0.0 0.0
1.234 0.04474477097392082 -1.05764639377594 -4.215165972709656e-06 2.830289304256439e-06 0.0 0.0 0.0 0.0
1.235 0.043731581419706345 -1.0573294162750244 -1.0377727448940277e-05 4.49521467089653e-05 0.0 0.0 0.0 0.0
1.236 0.04386543482542038 -1.0570647716522217 -4.599429666996002e-05 1.8372200429439545e-05 0.0 0.0 0.0 0.0
1.237 0.03995928168296814 -1.0559022426605225 -2.39349901676178e-07 -1.0709278285503387e-05 0.0 0.0 0.0 0.0
1.238 0.04218333214521408 -1.0555977821350098 -2.3785047233104706e-05 1.4398247003555298e-05 0.0 0.0 0.0 0.0
1.239 0.03837253153324127 -1.0551995038986206 -6.691552698612213e-06 6.261281669139862e-06 0.0 0.0 0.0 0.0
1.24 0.03797627612948418 -1.0543687343597412 -1.3972632586956024e-05 4.22261655330658e-06 0.0 0.0 0.0 0.0
1.241 0.03598502650856972 -1.0536623001098633 -1.5196390450000763e-05 -8.645467460155487e-06 0.0 0.0 0.0 0.0
1.242 0.03727668523788452 -1.0532349348068237 -2.6347115635871887e-06 1.4188699424266815e-05 0.0 0.0 0.0 0.0
1.243 0.03261813148856163 -1.0520883798599243 5.613081157207489e-06 2.1832063794136047e-05 0.0 0.0 0.0 0.0
1.244 0.03326398879289627 -1.0519212484359741 -1.8962658941745758e-05 -2.5743618607521057e-05 0.0 0.0 0.0 0.0
1.245 0.032687682658433914 -1.0509179830551147 -1.3902783393859863e-05 1.9079074263572693e-05 0.0 0.0 0.0 0.0
1.246 0.02948036603629589 -1.0501707792282104 1.8444843590259552e-05 -1.4726072549819946e-05 0.0 0.0 0.0 0.0
1.247 0.027744123712182045 -1.050091028213501 -3.1482428312301636e-05 -3.5446137189865112e-06 0.0 0.0 0.0 0.0
1.248 0.025166669860482216 -1.0490126609802246 5.457550287246704e-07 5.662534385919571e-05 0.0 0.0 0.0 0.0
1.249 0.02547718584537506 -1.0484631061553955 -2.9942020773887634e-06 -5.598179996013641e-06 0.0 0.0 0.0 0.0
1.25 0.02768062613904476 -1.04844331741333 -2.5480985641479492e-06 -5.103647708892822e-07 0.0 0.0 0.0 0.0
1.251 0.023214127868413925 -1.045993447303772 -8.34837555885315e-06 4.93321567773819e-06 0.0 0.0 0.0 0.0
1.252 0.02300405688583851 -1.046486496925354 9.601004421710968e-06 2.4539418518543243e-05 0.0 0.0 0.0 0.0
1.253 0.02335773967206478 -1.0457779169082642 -2.5910325348377228e-05 1.0924413800239563e-05 0.0 0.0 0.0 0.0
1.254 0.019548878073692322 -1.0452525615692139 -5.978159606456757e-06 4.637986421585083e-06 0.0 0.0 0.0 0.0
1.255 0.020707987248897552 -1.0444165468215942 1.1789612472057343e-05 -6.855465471744537e-06 0.0 0.0 0.0 0.0
1.256 0.019313128665089607 -1.0431045293807983 7.277354598045349e-06 -1.4640390872955322e-06 0.0 0.0 0.0 0.0
1.257 0.018192075192928314 -1.043644905090332 2.116244286298752e-05 1.4424324035644531e-05 0.0 0.0 0.0 0.0
1.258 0.01918083243072033 -1.0424106121063232 8.101575076580048e-06 1.020822674036026e-05 0.0 0.0 0.0 0.0
1.259 0.014293527230620384 -1.0417982339859009 -5.62518835067749e-07 2.635642886161804e-06 0.0 0.0 0.0 0.0
1.26 0.01610894873738289 -1.0416570901870728 -1.1038035154342651e-05 5.630776286125183e-06 0.0 0.0 0.0 0.0
1.261 0.013355118222534657 -1.041103720664978 -1.0321848094463348e-05 2.0500272512435913e-05 0.0 0.0 0.0 0.0
1.262 0.011100733652710915 -1.0405311584472656 6.22868537902832e-06 3.236345946788788e-06 0.0 0.0 0.0 0.0
1.263 0.01229338999837637 -1.039109230041504 -1.9441358745098114e-05 -1.089833676815033e-05 0.0 0.0 0.0 0.0
1.264 0.008442668244242668 -1.038253664970398 1.722201704978943e-05 1.984182745218277e-05 0.0 0.0 0.0 0.0
1.265 0.009593596681952477 -1.0382286310195923 -1.4016404747962952e-06 2.9612332582473755e-05 0.0 0.0 0.0 0.0
1.266 0.00786588340997696 -1.0374592542648315 -3.6228448152542114e-07 -4.569068551063538e-06 0.0 0.0 0.0 0.0
1.267 0.00577681977301836 -1.036465048789978 1.540686935186386e-05 2.1389685571193695e-05 0.0 0.0 0.0 0.0
1.268 0.0054396940395236015 -1.0360267162322998 1.9846484065055847e-06 2.686772495508194e-05 0.0 0.0 0.0 0.0
1.269 0.006151649169623852 -1.0350043773651123 2.1443702280521393e-05 1.47232785820961e-05 0.0 0.0 0.0 0.0
1.27 0.003964616917073727 -1.0349884033203125 2.2184103727340698e-05 1.3894401490688324e-05 0.0 0.0 0.0 0.0
1.271 0.00020965095609426498 -1.0336424112319946 2.231728285551071e-05 2.584978938102722e-05 0.0 0.0 0.0 0.0
1.272 -0.0005362005904316902 -1.033035397529602 -4.999339580535889e-06 1.9934028387069702e-05 0.0 0.0 0.0 0.0
1.273 0.00029042642563581467 -1.0322456359863281 -1.2531876564025879e-05 3.33935022354126e-05 0.0 0.0 0.0 0.0
1.274 -0.0029276208952069283 -1.0315704345703125 -1.928955316543579e-05 6.115064024925232e-06 0.0 0.0 0.0 0.0
1.275 -0.002499345690011978 -1.0308971405029297 9.601935744285583e-07 3.207474946975708e-06 0.0 0.0 0.0 0.0
1.276 -0.002914722077548504 -1.0302538871765137 1.832377165555954e-05 -1.851096749305725e-05 0.0 0.0 0.0 0.0
1.277 -0.005404742434620857 -1.028694748878479 2.779066562652588e-06 8.549541234970093e-07 0.0 0.0 0.0 0.0
1.278 -0.0075263697654008865 -1.028620958328247 2.20518559217453e-05 2.447608858346939e-05 0.0 0.0 0.0 0.0
1.279 -0.006058115512132645 -1.0280392169952393 1.5511177480220795e-05 7.288530468940735e-06 0.0 0.0 0.0 0.0
1.28 -0.009480017237365246 -1.0283573865890503 -1.4699064195156097e-05 -9.257346391677856e-06 0.0 0.0 0.0 0.0
1.281 -0.007268158718943596 -1.0274043083190918 1.6691163182258606e-05 -1.5177763998508453e-05 0.0 0.0 0.0 0.0
1.282 -0.009495391510426998 -1.0260517597198486 -1.1300668120384216e-05 2.0145438611507416e-05 0.0 0.0 0.0 0.0
1.283 -0.012969803996384144 -1.0254037380218506 -1.1241994798183441e-05 -2.003367990255356e-05 0.0 0.0 0.0 0.0
1.284 -0.011183077469468117 -1.0255604982376099 1.4165416359901428e-05 1.090019941329956e-05 0.0 0.0 0.0 0.0
1.285 -0.011139588430523872 -1.023673415184021 1.06077641248703e-06 -9.920448064804077e-06 0.0 0.0 0.0 0.0
1.286 -0.017469769343733788 -1.02308189868927 2.2036954760551453e-05 1.6639940440654755e-05 0.0 0.0 0.0 0.0
1.287 -0.013306538574397564 -1.0223255157470703 1.59386545419693e-05 -2.2565945982933044e-06 0.0 0.0 0.0 0.0
1.288 -0.017847953364253044 -1.0213464498519897 1.110415905714035e-05 4.8354268074035645e-06 0.0 0.0 0.0 0.0
1.289 -0.018290771171450615 -1.0207059383392334 3.905966877937317e-06 -5.833804607391357e-06 0.0 0.0 0.0 0.0
1.29 -0.018489470705389977 -1.0196079015731812 -1.03069469332695e-05 2.7752481400966644e-05 0.0 0.0 0.0 0.0
1.291 -0.018751779571175575 -1.0195964574813843 1.7287209630012512e-05 5.284324288368225e-06 0.0 0.0 0.0 0.0
1.292 -0.01887802965939045 -1.019232988357544 2.5418587028980255e-05 -2.5501474738121033e-05 0.0 0.0 0.0 0.0
1.293 -0.02112407609820366 -1.0181684494018555 2.775341272354126e-07 -1.9677914679050446e-05 0.0 0.0 0.0 0.0
1.294 -0.022881725803017616 -1.017236590385437 4.9279071390628815e-05 -1.440383493900299e-05 0.0 0.0 0.0 0.0
1.295 -0.02227512001991272 -1.0172536373138428 7.45430588722229e-06 -1.0579824447631836e-05 0.0 0.0 0.0 0.0
1.296 -0.025235852226614952 -1.0161906480789185 -7.636845111846924e-07 6.562098860740662e-06 0.0 0.0 0.0 0.0
1.297 -0.025867735967040062 -1.0149041414260864 -1.8812716007232666e-07 -2.230703830718994e-05 0.0 0.0 0.0 0.0
1.298 -0.025854669511318207 -1.0142408609390259 1.9472092390060425e-05 2.886541187763214e-05 0.0 0.0 0.0 0.0
1.299 -0.027570148929953575 -1.0138083696365356 1.221243292093277e-05 2.4884939193725586e-06 0.0 0.0 0.0 0.0
1.3 -0.02988598681986332 -1.0125001668930054 3.641471266746521e-06 -3.647059202194214e-06 0.0 0.0 0.0 0.0
1.301 -0.028895925730466843 -1.0124785900115967 -2.7939677238464355e-06 6.545335054397583e-06 0.0 0.0 0.0 0.0
1.302 -0.030850008130073547 -1.0117367506027222 -7.096678018569946e-07 -8.842907845973969e-06 0.0 0.0 0.0 0.0
1.303 -0.03149159625172615 -1.0106797218322754 8.974224328994751e-06 2.207234501838684e-06 0.0 0.0 0.0 0.0
1.304 -0.03234190493822098 -1.0090832710266113 4.669651389122009e-06 -3.069266676902771e-05 0.0 0.0 0.0 0.0
1.305 -0.03499230742454529 -1.0084811449050903 9.665265679359436e-06 -1.5878118574619293e-05 0.0 0.0 0.0 0.0
1.306 -0.03854740783572197 -1.0086889266967773 9.24617052078247e-06 -3.515370190143585e-05 0.0 0.0 0.0 0.0
1.307 -0.03528940677642822 -1.0070074796676636 -2.2901222109794617e-06 -2.3659318685531616e-05 0.0 0.0 0.0 0.0
1.308 -0.03606916218996048 -1.006426215171814 2.4596229195594788e-06 -4.1855499148368835e-05 0.0 0.0 0.0 0.0
1.309 -0.03754066675901413 -1.0059003829956055 2.564862370491028e-06 -4.4685788452625275e-05 0.0 0.0 0.0 0.0
1.31 -0.039237380027770996 -1.0040054321289062 1.703202724456787e-05 -3.469083458185196e-05 0.0 0.0 0.0 0.0
1.311 -0.04020191729068756 -1.0042459964752197 -2.328585833311081e-05 -3.4926459193229675e-05 0.0 0.0 0.0 0.0
1.312 -0.03989127278327942 -1.0031335353851318 -7.271766662597656e-06 -3.4011900424957275e-06 0.0 0.0 0.0 0.0
1.313 -0.04272327572107315 -1.0025787353515625 -1.4688819646835327e-05 -3.674905747175217e-05 0.0 0.0 0.0 0.0
1.314 -0.041271138936281204 -1.0025447607040405 8.579343557357788e-06 -3.434624522924423e-05 0.0 0.0 0.0 0.0
1.315 -0.042194023728370667 -1.0011248588562012 2.0351260900497437e-05 -2.843327820301056e-05 0.0 0.0 0.0 0.0
1.316 -0.044278647750616074 -0.9998859167098999 -7.650814950466156e-06 -1.2570060789585114e-05 0.0 0.0 0.0 0.0
1.317 -0.04243931174278259 -0.9996808171272278 3.4989789128303528e-06 -9.00961458683014e-06 0.0 0.0 0.0 0.0
1.318 -0.0466407835483551 -0.9981770515441895 -2.79843807220459e-05 -2.2877007722854614e-05 0.0 0.0 0.0 0.0
1.319 -0.04708535969257355 -0.998205840587616 -2.1150335669517517e-05 -1.8440186977386475e-05 0.0 0.0 0.0 0.0
1.32 -0.048203181475400925 -0.9969473481178284 -1.2104399502277374e-05 -1.8376857042312622e-05 0.0 0.0 0.0 0.0
1.321 -0.04841762036085129 -0.9954216480255127 -3.117509186267853e-05 -1.9649043679237366e-05 0.0 0.0 0.0 0.0
1.322 -0.052632320672273636 -0.993589460849762 -6.480980664491653e-05 -1.081172376871109e-05 0.0 0.0 0.0 0.0
1.323 -0.04888421669602394 -0.9937143921852112 -5.168374627828598e-05 -2.075452357530594e-05 0.0 0.0 0.0 0.0
1.324 -0.05158122628927231 -0.9933837056159973 -3.128405660390854e-05 -1.7952173948287964e-05 0.0 0.0 0.0 0.0
1.325 -0.05224243551492691 -0.9921093583106995 -6.185006350278854e-05 -4.317052662372589e-05 0.0 0.0 0.0 0.0
1.326 -0.052223142236471176 -0.9908926486968994 -3.5078264772892e-05 5.178153514862061e-07 0.0 0.0 0.0 0.0
1.327 -0.05404859408736229 -0.9889480471611023 -3.965198993682861e-05 -8.158385753631592e-07 0.0 0.0 0.0 0.0
1.328 -0.0562284030020237 -0.9888224005699158 -4.649721086025238e-05 1.4839693903923035e-05 0.0 0.0 0.0 0.0
1.329 -0.05448148772120476 -0.9869534373283386 -4.804041236639023e-05 -5.085021257400513e-07 0.0 0.0 0.0 0.0
1.33 -0.05713853985071182 -0.9871789216995239 -1.0839663445949554e-05 1.2814998626708984e-06 0.0 0.0 0.0 0.0
1.331 -0.05538486689329147 -0.9859707355499268 -5.344673991203308e-05 -1.157168298959732e-05 0.0 0.0 0.0 0.0
1.332 -0.051765136420726776 -0.9858768582344055 -4.433467984199524e-05 4.373956471681595e-05 0.0 0.0 0.0 0.0
1.333 -0.05672473460435867 -0.9842662215232849 -5.560833960771561e-05 1.537427306175232e-05 0.0 0.0 0.0 0.0
1.334 -0.05764026939868927 -0.9840456247329712 -3.436487168073654e-05 1.848675310611725e-05 0.0 0.0 0.0 0.0
1.335 -0.057820796966552734 -0.983056366443634 -3.35201621055603e-05 3.78880649805069e-05 0.0 0.0 0.0 0.0
1.336 -0.05771525576710701 -0.983330488204956 -2.819392830133438e-05 2.70036980509758e-05 0.0 0.0 0.0 0.0
1.337 -0.0604206882417202 -0.9825263023376465 -2.8069131076335907e-05 2.374313771724701e-05 0.0 0.0 0.0 0.0
1.338 -0.06017354875802994 -0.9821636080741882 -1.5176832675933838e-05 2.292729914188385e-05 0.0 0.0 0.0 0.0
1.339 -0.06095476076006889 -0.9822474122047424 -2.2348016500473022e-05 1.1455267667770386e-07 0.0 0.0 0.0 0.0
1.34 -0.05906972661614418 -0.981532096862793 3.2819807529449463e-06 3.0405819416046143e-05 0.0 0.0 0.0 0.0
1.341 -0.06489688903093338 -0.9816703796386719 -3.2195821404457092e-06 6.705150008201599e-05 0.0 0.0 0.0 0.0
1.342 -0.06291739642620087 -0.9807388186454773 -1.6162171959877014e-05 4.915706813335419e-05 0.0 0.0 0.0 0.0
1.343 -0.06022549793124199 -0.9801623225212097 -2.147722989320755e-05 2.9802322387695312e-05 0.0 0.0 0.0 0.0
1.344 -0.06652937084436417 -0.9797179102897644 -7.829628884792328e-06 4.408508539199829e-05 0.0 0.0 0.0 0.0
1.345 -0.0671827495098114 -0.9793576598167419 1.2628734111785889e-05 3.039371222257614e-05 0.0 0.0 0.0 0.0
1.346 -0.06517234444618225 -0.9790223240852356 -8.571892976760864e-06 5.6801363825798035e-05 0.0 0.0 0.0 0.0
1.347 -0.06853034347295761 -0.9784232378005981 2.618413418531418e-05 3.3435411751270294e-05 0.0 0.0 0.0 0.0
1.348 -0.06891709566116333 -0.9774184823036194 8.05594027042389e-06 2.1371990442276e-05 0.0 0.0 0.0 0.0
1.349 -0.06992298364639282 -0.9761407971382141 -6.682239472866058e-06 1.4745630323886871e-05 0.0 0.0 0.0 0.0
1.35 -0.07104343175888062 -0.9761665463447571 3.7048012018203735e-06 2.9929913580417633e-05 0.0 0.0 0.0 0.0
1.351 -0.07058440148830414 -0.9749662280082703 -4.2906031012535095e-06 1.6042962670326233e-05 0.0 0.0 0.0 0.0
1.352 -0.07284916192293167 -0.9739413261413574 1.271069049835205e-05 3.1259842216968536e-05 0.0 0.0 0.0 0.0
1.353 -0.07494640350341797 -0.9734266996383667 4.0286220610141754e-05 8.609145879745483e-06 0.0 0.0 0.0 0.0
1.354 -0.07494432479143143 -0.9730000495910645 2.7597881853580475e-05 1.626182347536087e-05 0.0 0.0 0.0 0.0
1.355 -0.0752222090959549 -0.9732542037963867 1.7141923308372498e-05 -2.707354724407196e-06 0.0 0.0 0.0 0.0
1.356 -0.07189902663230896 -0.9730710387229919 2.9439106583595276e-06 6.723217666149139e-06 0.0 0.0 0.0 0.0
1.357 -0.07650583982467651 -0.9709910750389099 4.8121437430381775e-06 5.930662155151367e-06 0.0 0.0 0.0 0.0
1.358 -0.07630454748868942 -0.9711973667144775 -6.350688636302948e-06 1.308787614107132e-05 0.0 0.0 0.0 0.0
1.359 -0.07768384367227554 -0.970054030418396 1.061800867319107e-05 3.4100376069545746e-05 0.0 0.0 0.0 0.0
1.36 -0.07894180715084076 -0.9695413708686829 2.803560346364975e-05 -1.5786848962306976e-05 0.0 0.0 0.0 0.0
1.361 -0.07937434315681458 -0.9682725071907043 8.59145075082779e-06 -1.065526157617569e-05 0.0 0.0 0.0 0.0
1.362 -0.07932693511247635 -0.9675005078315735 1.9679777324199677e-05 -7.315538823604584e-06 0.0 0.0 0.0 0.0
1.363 -0.0809955969452858 -0.9667694568634033 1.971609890460968e-05 4.24310564994812e-06 0.0 0.0 0.0 0.0
1.364 -0.08203206211328506 -0.9663203358650208 1.7964281141757965e-05 1.3583339750766754e-05 0.0 0.0 0.0 0.0
1.365 -0.08642883598804474 -0.9648634791374207 1.0409392416477203e-05 9.871087968349457e-06 0.0 0.0 0.0 0.0
1.366 -0.08415764570236206 -0.965077817440033 2.3283064365386963e-07 -1.4295801520347595e-05 0.0 0.0 0.0 0.0
1.367 -0.08576975017786026 -0.9643528461456299 9.981915354728699e-06 3.302469849586487e-06 0.0 0.0 0.0 0.0
1.368 -0.08442088216543198 -0.9633380770683289 9.78820025920868e-06 -3.304053097963333e-05 0.0 0.0 0.0 0.0
1.369 -0.08851484954357147 -0.9632862210273743 -1.6233883798122406e-05 3.0463561415672302e-06 0.0 0.0 0.0 0.0
1.37 -0.08597218990325928 -0.9619126319885254 -2.146698534488678e-06 1.2827105820178986e-05 0.0 0.0 0.0 0.0
1.371 -0.08710747212171555 -0.9612532258033752 -1.4106743037700653e-05 9.592622518539429e-08 0.0 0.0 0.0 0.0
1.372 -0.09047416597604752 -0.961050271987915 -9.806826710700989e-07 -1.2628734111785889e-06 0.0 0.0 0.0 0.0
1.373 -0.08671605587005615 -0.959948718547821 2.351216971874237e-05 3.961846232414246e-06 0.0 0.0 0.0 0.0
1.374 -0.09143396466970444 -0.9594722986221313 -1.0570511221885681e-05 -8.22264701128006e-06 0.0 0.0 0.0 0.0
1.375 -0.09040983021259308 -0.9586164951324463 2.0172446966171265e-06 -6.70459121465683e-06 0.0 0.0 0.0 0.0
1.376 -0.09149875491857529 -0.9584921002388 -2.0489096641540527e-06 -3.150664269924164e-06 0.0 0.0 0.0 0.0
1.377 -0.09308743476867676 -0.9569076895713806 -2.0386651158332825e-06 1.7651356756687164e-05 0.0 0.0 0.0 0.0
1.378 -0.09351275861263275 -0.957024872303009 -1.0726042091846466e-05 -3.0687078833580017e-06 0.0 0.0 0.0 0.0
1.379 -0.09563376009464264 -0.9554789662361145 -8.857809007167816e-06 -2.6308000087738037e-05 0.0 0.0 0.0 0.0
1.38 -0.09352576732635498 -0.9546718597412109 1.4058314263820648e-05 -6.525777280330658e-06 0.0 0.0 0.0 0.0
1.381 -0.0978052094578743 -0.9541641473770142 -2.003554254770279e-05 -1.5173107385635376e-05 0.0 0.0 0.0 0.0
1.382 -0.09709004312753677 -0.9538167119026184 -6.906688213348389e-06 -1.9603408873081207e-05 0.0 0.0 0.0 0.0
1.383 -0.09747486561536789 -0.9530714750289917 2.2491440176963806e-06 1.251325011253357e-05 0.0 0.0 0.0 0.0
1.384 -0.09716755151748657 -0.952237069606781 -1.6186386346817017e-06 -1.6709789633750916e-05 0.0 0.0 0.0 0.0
1.385 -0.09932251274585724 -0.9524531364440918 1.0960735380649567e-05 9.699724614620209e-06 0.0 0.0 0.0 0.0
1.386 -0.09953127801418304 -0.9502187967300415 6.018206477165222e-06 -9.751878678798676e-06 0.0 0.0 0.0 0.0
1.387 -0.10186446458101273 -0.9508165121078491 -9.379349648952484e-06 -9.182840585708618e-06 0.0 0.0 0.0 0.0
1.388 -0.10132202506065369 -0.9497433304786682 -3.52226197719574e-05 5.466863512992859e-07 0.0 0.0 0.0 0.0
1.389 -0.10302070528268814 -0.9483122825622559 2.6086345314979553e-06 -5.398876965045929e-06 0.0 0.0 0.0 0.0
1.39 -0.10316607356071472 -0.9488584995269775 -2.2306106984615326e-05 -1.5789642930030823e-05 0.0 0.0 0.0 0.0
1.391 -0.10363434255123138 -0.9481275677680969 -3.0308961868286133e-05 -1.2164004147052765e-05 0.0 0.0 0.0 0.0
1.392 -0.10277476161718369 -0.947847843170166 -1.0592862963676453e-05 7.686205208301544e-06 0.0 0.0 0.0 0.0
1.393 -0.1045605018734932 -0.9464908242225647 4.6174973249435425e-06 -4.449859261512756e-06 0.0 0.0 0.0 0.0
1.394 -0.10486767441034317 -0.9454672336578369 1.8272548913955688e-06 9.977258741855621e-06 0.0 0.0 0.0 0.0
1.395 -0.11044754832983017 -0.9448475241661072 -2.6839785277843475e-05 6.370246410369873e-07 0.0 0.0 0.0 0.0
1.396 -0.10776707530021667 -0.9438719749450684 1.4424324035644531e-05 -2.130866050720215e-06 0.0 0.0 0.0 0.0
1.397 -0.10888127237558365 -0.9426763653755188 -2.1342188119888306e-05 -3.06377187371254e-05 0.0 0.0 0.0 0.0
1.398 -0.10903375595808029 -0.9432697296142578 -9.3802809715271e-06 -2.0917505025863647e-06 0.0 0.0 0.0 0.0
1.399 -0.10853311419487 -0.9424876570701599 -3.016553819179535e-05 5.7872384786605835e-06 0.0 0.0 0.0 0.0
1.4 -0.11002973467111588 -0.9411934614181519 -8.899718523025513e-06 1.247413456439972e-05 0.0 0.0 0.0 0.0
1.401 -0.11143215000629425 -0.9402660727500916 -5.241483449935913e-06 1.5056692063808441e-05 0.0 0.0 0.0 0.0
1.402 -0.11129360646009445 -0.9399487376213074 -9.465031325817108e-06 4.213303327560425e-06 0.0 0.0 0.0 0.0
1.403 -0.11267793923616409 -0.9393489956855774 -1.336168497800827e-05 1.154281198978424e-05 0.0 0.0 0.0 0.0
1.404 -0.11355257779359818 -0.938376784324646 -1.8285587430000305e-05 1.4207325875759125e-05 0.0 0.0 0.0 0.0
1.405 -0.1145188957452774 -0.9378612041473389 1.0108575224876404e-05 -5.802139639854431e-06 0.0 0.0 0.0 0.0
1.406 -0.11597063392400742 -0.9370660781860352 -1.0421499609947205e-06 2.9189512133598328e-05 0.0 0.0 0.0 0.0
1.407 -0.11749961972236633 -0.9364696145057678 -8.162111043930054e-06 2.461206167936325e-05 0.0 0.0 0.0 0.0
1.408 -0.11522886157035828 -0.9355707764625549 2.7408823370933533e-06 3.1311064958572388e-06 0.0 0.0 0.0 0.0
1.409 -0.11750858277082443 -0.935608446598053 1.1715106666088104e-05 1.2133270502090454e-05 0.0 0.0 0.0 0.0
1.41 -0.11979273706674576 -0.9344525337219238 -3.6926940083503723e-06 -1.4780089259147644e-06 0.0 0.0 0.0 0.0
1.411 -0.1163761094212532 -0.9336509704589844 -3.285706043243408e-06 -1.4662742614746094e-05 0.0 0.0 0.0 0.0
1.412 -0.12186121940612793 -0.9323773980140686 -1.3783574104309082e-06 1.024734228849411e-05 0.0 0.0 0.0 0.0
1.413 -0.1193852573633194 -0.9323820471763611 -4.990957677364349e-06 1.807417720556259e-05 0.0 0.0 0.0 0.0
1.414 -0.12051188945770264 -0.9319589734077454 -1.7809681594371796e-05 5.184672772884369e-06 0.0 0.0 0.0 0.0
1.415 -0.12120836973190308 -0.931359589099884 -1.7249025404453278e-05 1.668836921453476e-05 0.0 0.0 0.0 0.0
1.416 -0.12148860841989517 -0.9307031035423279 5.827285349369049e-06 3.321748226881027e-05 0.0 0.0 0.0 0.0
1.417 -0.12294100224971771 -0.9291150569915771 -1.77798792719841e-05 7.008202373981476e-06 0.0 0.0 0.0 0.0
1.418 -0.12473739683628082 -0.9284615516662598 -2.995133399963379e-05 8.013099431991577e-06 0.0 0.0 0.0 0.0
1.419 -0.12307184934616089 -0.92864990234375 1.8123537302017212e-06 2.1486543118953705e-05 0.0 0.0 0.0 0.0
1.42 -0.12546035647392273 -0.9272408485412598 -1.0656192898750305e-05 1.5340745449066162e-05 0.0 0.0 0.0 0.0
1.421 -0.125597283244133 -0.9282728433609009 -2.4790875613689423e-05 1.8435530364513397e-05 0.0 0.0 0.0 0.0
1.422 -0.12465067207813263 -0.9276441335678101 -2.1647661924362183e-05 9.573996067047119e-06 0.0 0.0 0.0 0.0
1.423 -0.1273421198129654 -0.9255303144454956 -3.3639371395111084e-06 2.0829029381275177e-05 0.0 0.0 0.0 0.0
1.424 -0.12807083129882812 -0.926408052444458 -1.953914761543274e-05 4.318542778491974e-06 0.0 0.0 0.0 0.0
1.425 -0.12519536912441254 -0.9234827756881714 5.1390379667282104e-06 1.7396174371242523e-05 0.0 0.0 0.0 0.0
1.426 -0.13370440900325775 -0.9235321879386902 -5.2638351917266846e-06 4.7655776143074036e-06 0.0 0.0 0.0 0.0
1.427 -0.12732113897800446 -0.9240214824676514 -1.1212192475795746e-05 2.1570362150669098e-05 0.0 0.0 0.0 0.0
1.428 -0.13016849756240845 -0.9220455288887024 1.368112862110138e-05 2.2455118596553802e-05 0.0 0.0 0.0 0.0
1.429 -0.13016387820243835 -0.9225226044654846 1.389533281326294e-06 9.601935744285583e-06 0.0 0.0 0.0 0.0
1.43 -0.131983682513237 -0.9210058450698853 -1.3678334653377533e-05 1.679547131061554e-05 0.0 0.0 0.0 0.0
1.431 -0.13249093294143677 -0.9195019602775574 -3.525055944919586e-06 4.652794450521469e-05 0.0 0.0 0.0 0.0
1.432 -0.1348322480916977 -0.9199057221412659 1.921132206916809e-05 5.3085386753082275e-06 0.0 0.0 0.0 0.0
1.433 -0.13458018004894257 -0.9196053743362427 -2.3748725652694702e-06 1.9017606973648071e-06 0.0 0.0 0.0 0.0
1.434 -0.13236090540885925 -0.9181346893310547 -1.1196359992027283e-05 1.3381242752075195e-05 0.0 0.0 0.0 0.0
1.435 -0.135461688041687 -0.9174437522888184 -1.692306250333786e-05 1.779850572347641e-05 0.0 0.0 0.0 0.0
1.436 -0.13555708527565002 -0.9177619218826294 -2.1785497665405273e-05 1.2191012501716614e-05 0.0 0.0 0.0 0.0
1.437 -0.13619832694530487 -0.9170321822166443 -2.114754170179367e-05 1.9686296582221985e-05 0.0 0.0 0.0 0.0
1.438 -0.13795433938503265 -0.9157326221466064 6.584450602531433e-06 1.894589513540268e-05 0.0 0.0 0.0 0.0
1.439 -0.13865084946155548 -0.9152963757514954 -1.496821641921997e-05 2.4242326617240906e-06 0.0 0.0 0.0 0.0
1.44 -0.14006008207798004 -0.9154947996139526 9.290874004364014e-06 1.863669604063034e-05 0.0 0.0 0.0 0.0
1.441 -0.14122462272644043 -0.9133919477462769 -1.0822899639606476e-05 2.904701977968216e-05 0.0 0.0 0.0 0.0
1.442 -0.1389138400554657 -0.9136772751808167 -5.360692739486694e-06 9.636394679546356e-06 0.0 0.0 0.0 0.0
1.443 -0.13906683027744293 -0.9132506251335144 1.0440126061439514e-06 1.863669604063034e-05 0.0 0.0 0.0 0.0
1.444 -0.14270861446857452 -0.9117609858512878 -4.515983164310455e-06 3.535393625497818e-05 0.0 0.0 0.0 0.0
1.445 -0.14325138926506042 -0.9113837480545044 1.3029202818870544e-06 2.8665177524089813e-05 0.0 0.0 0.0 0.0
1.446 -0.14336058497428894 -0.9104809761047363 4.702247679233551e-06 3.0909664928913116e-05 0.0 0.0 0.0 0.0
1.447 -0.14527176320552826 -0.9098516702651978 1.3191252946853638e-05 5.302950739860535e-06 0.0 0.0 0.0 0.0
1.448 -0.1455993354320526 -0.908745527267456 -9.163282811641693e-06 2.473406493663788e-05 0.0 0.0 0.0 0.0
1.449 -0.14462658762931824 -0.9088044762611389 -1.2044794857501984e-05 1.766439527273178e-05 0.0 0.0 0.0 0.0
1.45 -0.14576704800128937 -0.9081613421440125 -6.9141387939453125e-06 3.214459866285324e-05 0.0 0.0 0.0 0.0
1.451 -0.14456671476364136 -0.9079307317733765 -9.049661457538605e-06 1.2922100722789764e-05 0.0 0.0 0.0 0.0
1.452 -0.14678554236888885 -0.9067090153694153 9.143725037574768e-06 1.3937242329120636e-05 0.0 0.0 0.0 0.0
1.453 -0.1494469940662384 -0.905585765838623 -1.3304874300956726e-05 1.7989426851272583e-05 0.0 0.0 0.0 0.0
1.454 -0.1484326720237732 -0.905879020690918 -6.136484444141388e-06 3.2310374081134796e-05 0.0 0.0 0.0 0.0
1.455 -0.14944323897361755 -0.9055860638618469 1.2870877981185913e-05 1.9269995391368866e-05 0.0 0.0 0.0 0.0
1.456 -0.1506296545267105 -0.9041315913200378 -5.695968866348267e-06 3.2961368560791016e-05 0.0 0.0 0.0 0.0
1.457 -0.15015126764774323 -0.903988778591156 1.5470199286937714e-05 2.0568259060382843e-05 0.0 0.0 0.0 0.0
1.458 -0.15299656987190247 -0.9027332067489624 4.7497451305389404e-06 1.0318122804164886e-05 0.0 0.0 0.0 0.0
1.459 -0.1527370810508728 -0.9026223421096802 -1.0648742318153381e-05 2.0668841898441315e-05 0.0 0.0 0.0 0.0
1.46 -0.15435859560966492 -0.901573121547699 2.4436041712760925e-05 1.7109327018260956e-05 0.0 0.0 0.0 0.0
1.461 -0.15118864178657532 -0.9008790254592896 6.613321602344513e-06 2.323649823665619e-05 0.0 0.0 0.0 0.0
1.462 -0.15678510069847107 -0.9003246426582336 1.7799437046051025e-05 1.8215738236904144e-05 0.0 0.0 0.0 0.0
1.463 -0.15284433960914612 -0.9006951451301575 2.2220425307750702e-05 1.3716518878936768e-05 0.0 0.0 0.0 0.0
1.464 -0.15574529767036438 -0.8989099264144897 -3.8137659430503845e-06 1.778174191713333e-05 0.0 0.0 0.0 0.0
1.465 -0.15636011958122253 -0.8991849422454834 2.074986696243286e-05 -1.123175024986267e-06 0.0 0.0 0.0 0.0
1.466 -0.15757979452610016 -0.8986994624137878 9.423121809959412e-06 4.3958425521850586e-07 0.0 0.0 0.0 0.0
1.467 -0.15704753994941711 -0.8972273468971252 1.0524876415729523e-05 1.0497868061065674e-05 0.0 0.0 0.0 0.0
1.468 -0.15825603902339935 -0.897042453289032 1.264922320842743e-05 2.0734965801239014e-05 0.0 0.0 0.0 0.0
1.469 -0.15811219811439514 -0.8967164158821106 3.791414201259613e-06 2.3698434233665466e-05 0.0 0.0 0.0 0.0
1.47 -0.15903764963150024 -0.8960074782371521 1.582317054271698e-05 -2.158805727958679e-06 0.0 0.0 0.0 0.0
1.471 -0.16045905649662018 -0.8942075967788696 1.0288320481777191e-05 -3.553926944732666e-06 0.0 0.0 0.0 0.0
1.472 -0.16068106889724731 -0.894944429397583 1.3148412108421326e-05 7.5194984674453735e-06 0.0 0.0 0.0 0.0
1.473 -0.1625407338142395 -0.8932087421417236 7.776543498039246e-06 2.761371433734894e-06 0.0 0.0 0.0 0.0
1.474 -0.16233091056346893 -0.8931779265403748 2.437550574541092e-05 1.5086494386196136e-05 0.0 0.0 0.0 0.0
1.475 -0.16258062422275543 -0.8921098113059998 2.2710300981998444e-05 1.1341646313667297e-05 0.0 0.0 0.0 0.0
1.476 -0.16671593487262726 -0.8916749954223633 3.217346966266632e-05 1.4863908290863037e-06 0.0 0.0 0.0 0.0
1.477 -0.16344322264194489 -0.8911402821540833 1.3111159205436707e-05 -1.0862015187740326e-05 0.0 0.0 0.0 0.0
1.478 -0.16589806973934174 -0.8898321986198425 2.2339634597301483e-05 -3.60049307346344e-06 0.0 0.0 0.0 0.0
1.479 -0.16478876769542694 -0.8900086283683777 1.0997988283634186e-05 9.297393262386322e-06 0.0 0.0 0.0 0.0
1.48 -0.16650110483169556 -0.889699399471283 4.2858533561229706e-05 1.127924770116806e-05 0.0 0.0 0.0 0.0
1.481 -0.16599883139133453 -0.888836145401001 1.567881554365158e-05 1.4065764844417572e-05 0.0 0.0 0.0 0.0
1.482 -0.16932113468647003 -0.88764888048172 1.7607584595680237e-05 9.597279131412506e-06 0.0 0.0 0.0 0.0
1.483 -0.16668657958507538 -0.8884016871452332 2.5921501219272614e-05 4.124827682971954e-06 0.0 0.0 0.0 0.0
1.484 -0.16923125088214874 -0.8867635130882263 1.2476928532123566e-05 -4.6193599700927734e-07 0.0 0.0 0.0 0.0
1.485 -0.17089369893074036 -0.8853703141212463 1.2170523405075073e-05 -1.564156264066696e-05 0.0 0.0 0.0 0.0
1.486 -0.17005732655525208 -0.8859641551971436 5.141831934452057e-06 -3.787688910961151e-06 0.0 0.0 0.0 0.0
1.487 -0.17109593749046326 -0.8848123550415039 4.238449037075043e-06 3.5762786865234375e-07 0.0 0.0 0.0 0.0
1.488 -0.17444688081741333 -0.8847110867500305 2.4016015231609344e-05 1.4123506844043732e-05 0.0 0.0 0.0 0.0
1.489 -0.1701555699110031 -0.8837114572525024 2.363603562116623e-05 -2.466142177581787e-06 0.0 0.0 0.0 0.0
1.49 -0.17500819265842438 -0.8828557133674622 5.6121498346328735e-06 1.2109056115150452e-05 0.0 0.0 0.0 0.0
1.491 -0.17503176629543304 -0.8830134272575378 3.1502917408943176e-05 -1.5826895833015442e-05 0.0 0.0 0.0 0.0
1.492 -0.17634588479995728 -0.880841076374054 4.5779161155223846e-05 -8.810311555862427e-06 0.0 0.0 0.0 0.0
1.493 -0.1726267784833908 -0.8820682168006897 3.63839790225029e-05 6.511807441711426e-06 0.0 0.0 0.0 0.0
1.494 -0.17875832319259644 -0.8805885910987854 1.985859125852585e-05 -1.800619065761566e-05 0.0 0.0 0.0 0.0
1.495 -0.1757599115371704 -0.8797158002853394 1.005176454782486e-05 -3.361143171787262e-06 0.0 0.0 0.0 0.0
1.496 -0.17922556400299072 -0.8793159127235413 8.64267349243164e-06 2.882443368434906e-06 0.0 0.0 0.0 0.0
1.497 -0.17735914885997772 -0.8790611624717712 1.09085813164711e-05 6.038695573806763e-06 0.0 0.0 0.0 0.0
1.498 -0.1786295473575592 -0.8776788711547852 4.468299448490143e-05 -1.435261219739914e-05 0.0 0.0 0.0 0.0
1.499 -0.18050222098827362 -0.8770290613174438 3.391783684492111e-05 -1.1665746569633484e-05 0.0 0.0 0.0 0.0
1.5 -0.1804683357477188 -0.8755614757537842 2.4096108973026276e-05 -1.796521246433258e-06 0.0 0.0 0.0 0.0
1.501 -0.1832658350467682 -0.8761890530586243 1.4534220099449158e-05 1.2752600014209747e-05 0.0 0.0 0.0 0.0
1.502 -0.1821606308221817 -0.8767666220664978 1.0546296834945679e-05 3.2978132367134094e-06 0.0 0.0 0.0 0.0
1.503 -0.1820821464061737 -0.8752155900001526 3.170780837535858e-05 -1.332256942987442e-05 0.0 0.0 0.0 0.0
1.504 -0.18575769662857056 -0.8734641671180725 4.280265420675278e-05 -2.4138018488883972e-05 0.0 0.0 0.0 0.0
1.505 -0.1842174232006073 -0.8730875253677368 3.8440339267253876e-05 -2.225395292043686e-05 0.0 0.0 0.0 0.0
1.506 -0.18291546404361725 -0.8723466396331787 3.147311508655548e-05 -1.6149133443832397e-05 0.0 0.0 0.0 0.0
1.507 -0.18792381882667542 -0.8718690872192383 2.597365528345108e-05 -2.6716850697994232e-05 0.0 0.0 0.0 0.0
1.508 -0.18585136532783508 -0.8710098266601562 3.854185342788696e-05 -1.837965101003647e-05 0.0 0.0 0.0 0.0
1.509 -0.18715904653072357 -0.8703392744064331 2.7908943593502045e-05 -9.335577487945557e-06 0.0 0.0 0.0 0.0
1.51 -0.18623846769332886 -0.870472252368927 5.7620927691459656e-05 -3.679003566503525e-05 0.0 0.0 0.0 0.0
1.511 -0.18816541135311127 -0.8695827722549438 3.437325358390808e-05 -4.3946318328380585e-05 0.0 0.0 0.0 0.0
1.512 -0.19736890494823456 -0.8708435297012329 2.936646342277527e-05 -4.869699478149414e-05 0.0 0.0 0.0 0.0
1.513 -0.1886175125837326 -0.867861807346344 2.8558075428009033e-05 -3.4850090742111206e-05 0.0 0.0 0.0 0.0
1.514 -0.18940354883670807 -0.8675311207771301 5.869287997484207e-05 -4.382152110338211e-05 0.0 0.0 0.0 0.0
1.515 -0.19071419537067413 -0.8654217720031738 1.4235265552997589e-05 -6.404798477888107e-05 0.0 0.0 0.0 0.0
1.516 -0.1916457712650299 -0.8649135828018188 1.2532807886600494e-05 -6.843451410531998e-05 0.0 0.0 0.0 0.0
1.517 -0.19083723425865173 -0.8652016520500183 1.3509765267372131e-05 -6.210058927536011e-05 0.0 0.0 0.0 0.0
1.518 -0.19035905599594116 -0.8628549575805664 1.3049691915512085e-05 -5.9963203966617584e-05 0.0 0.0 0.0 0.0
1.519 -0.19328147172927856 -0.8624760508537292 -5.622394382953644e-06 -7.98199325799942e-05 0.0 0.0 0.0 0.0
1.52 -0.19311927258968353 -0.862220823764801 -1.6893260180950165e-05 -6.954465061426163e-05 0.0 0.0 0.0 0.0
1.521 -0.19129422307014465 -0.8621780276298523 -3.235321491956711e-05 -9.017065167427063e-05 0.0 0.0 0.0 0.0
1.522 -0.19395852088928223 -0.8606487512588501 -2.8819777071475983e-05 -7.769931107759476e-05 0.0 0.0 0.0 0.0
1.523 -0.19293317198753357 -0.8609915971755981 -4.9561262130737305e-05 -7.00186938047409e-05 0.0 0.0 0.0 0.0
1.524 -0.19413702189922333 -0.8671346306800842 -4.959572106599808e-05 -7.28098675608635e-05 0.0 0.0 0.0 0.0
1.525 -0.19418081641197205 -0.8601168990135193 -6.524473428726196e-05 -6.0696154832839966e-05 0.0 0.0 0.0 0.0
1.526 -0.19384776055812836 -0.8609168529510498 -6.0976482927799225e-05 -5.040876567363739e-05 0.0 0.0 0.0 0.0
1.527 -0.19489507377147675 -0.859674334526062 -6.696674972772598e-05 -4.720315337181091e-05 0.0 0.0 0.0 0.0
1.528 -0.19749216735363007 -0.8596508502960205 -7.201917469501495e-05 -3.785081207752228e-05 0.0 0.0 0.0 0.0
1.529 -0.19588182866573334 -0.85996413230896 -8.115824311971664e-05 -3.657955676317215e-05 0.0 0.0 0.0 0.0
1.53 -0.19677957892417908 -0.8583886027336121 -7.909443229436874e-05 -1.002475619316101e-05 0.0 0.0 0.0 0.0
1.531 -0.19721519947052002 -0.8581467270851135 -7.237028330564499e-05 -1.0001473128795624e-05 0.0 0.0 0.0 0.0
1.532 -0.19699116051197052 -0.8577410578727722 -5.29363751411438e-05 -1.0134652256965637e-05 0.0 0.0 0.0 0.0
1.533 -0.19964450597763062 -0.8576070666313171 -6.934348493814468e-05 3.795139491558075e-06 0.0 0.0 0.0 0.0
1.534 -0.20175886154174805 -0.8580514788627625 -5.6121498346328735e-05 -3.870576620101929e-06 0.0 0.0 0.0 0.0
1.535 -0.19964464008808136 -0.857476532459259 -5.009304732084274e-05 2.8386712074279785e-06 0.0 0.0 0.0 0.0
1.536 -0.20710210502147675 -0.8657804131507874 -7.039587944746017e-05 -2.902001142501831e-06 0.0 0.0 0.0 0.0
1.537 -0.20289219915866852 -0.8560512661933899 -3.088265657424927e-05 1.275632530450821e-05 0.0 0.0 0.0 0.0
1.538 -0.20242683589458466 -0.856876790523529 -5.4001808166503906e-05 3.3105723559856415e-05 0.0 0.0 0.0 0.0
1.539 -0.20258939266204834 -0.8558797836303711 -6.473995745182037e-05 3.38628888130188e-05 0.0 0.0 0.0 0.0
1.54 -0.20481272041797638 -0.8561352491378784 -3.078486770391464e-05 -4.258006811141968e-06 0.0 0.0 0.0 0.0
1.541 -0.20512321591377258 -0.8547353744506836 -4.0510669350624084e-05 -2.086162567138672e-07 0.0 0.0 0.0 0.0
1.542 -0.2038048803806305 -0.8556709289550781 -2.9698945581912994e-05 2.589542418718338e-05 0.0 0.0 0.0 0.0
1.543 -0.20715181529521942 -0.8540909886360168 -4.3653883039951324e-05 3.2539479434490204e-05 0.0 0.0 0.0 0.0
1.544 -0.2075316607952118 -0.8529811501502991 -3.199651837348938e-05 1.1236406862735748e-05 0.0 0.0 0.0 0.0
1.545 -0.2071293741464615 -0.8529719114303589 -3.939121961593628e-05 3.783125430345535e-05 0.0 0.0 0.0 0.0
1.546 -0.20910236239433289 -0.853632390499115 -3.48435714840889e-05 1.0785646736621857e-05 0.0 0.0 0.0 0.0
1.547 -0.21004346013069153 -0.8516268134117126 -2.0197592675685883e-05 6.629154086112976e-06 0.0 0.0 0.0 0.0
1.548 -0.2133764624595642 -0.8484656810760498 -2.293754369020462e-05 5.141831934452057e-06 0.0 0.0 0.0 0.0
1.549 -0.2114666998386383 -0.851609468460083 -1.382920891046524e-05 3.0403025448322296e-05 0.0 0.0 0.0 0.0
1.55 -0.2118736356496811 -0.8508556485176086 -2.4502165615558624e-05 2.618785947561264e-05 0.0 0.0 0.0 0.0
1.551 -0.21439482271671295 -0.8495689630508423 -2.1899119019508362e-05 2.7776695787906647e-05 0.0 0.0 0.0 0.0
1.552 -0.2127058207988739 -0.8486641645431519 2.7427449822425842e-06 3.520306199789047e-05 0.0 0.0 0.0 0.0
1.553 -0.2134498804807663 -0.8494895696640015 -2.797786146402359e-05 2.0091421902179718e-05 0.0 0.0 0.0 0.0
1.554 -0.21778784692287445 -0.8476359844207764 6.876885890960693e-06 3.913324326276779e-05 0.0 0.0 0.0 0.0
1.555 -0.2162286341190338 -0.8467131853103638 8.754432201385498e-08 2.8080306947231293e-05 0.0 0.0 0.0 0.0
1.556 -0.2167910635471344 -0.8474443554878235 -2.4423934519290924e-05 3.658793866634369e-05 0.0 0.0 0.0 0.0
1.557 -0.21595032513141632 -0.8468418717384338 -1.838523894548416e-05 1.6625970602035522e-05 0.0 0.0 0.0 0.0
1.558 -0.22087715566158295 -0.8464401364326477 1.0244548320770264e-05 2.378597855567932e-05 0.0 0.0 0.0 0.0
1.559 -0.2161838859319687 -0.8467726707458496 -1.2539327144622803e-05 1.1385418474674225e-05 0.0 0.0 0.0 0.0
1.56 -0.2218874841928482 -0.8556418418884277 -1.5283934772014618e-05 2.1948479115962982e-05 0.0 0.0 0.0 0.0
1.561 -0.22230377793312073 -0.8447009325027466 -1.554936170578003e-05 9.07108187675476e-06 0.0 0.0 0.0 0.0
1.562 -0.22003236413002014 -0.8444655537605286 -8.991919457912445e-06 2.4417415261268616e-05 0.0 0.0 0.0 0.0
1.563 -0.223237544298172 -0.8432906866073608 -1.730024814605713e-05 3.171619027853012e-05 0.0 0.0 0.0 0.0
1.564 -0.22187982499599457 -0.8431716561317444 -1.290440559387207e-05 3.268849104642868e-05 0.0 0.0 0.0 0.0
1.565 -0.22240757942199707 -0.8428598642349243 7.763504981994629e-06 3.284867852926254e-05 0.0 0.0 0.0 0.0
1.566 -0.22694602608680725 -0.841862142086029 2.543441951274872e-06 4.650186747312546e-05 0.0 0.0 0.0 0.0
1.567 -0.2251196950674057 -0.8419789671897888 -1.7463229596614838e-05 3.5235658288002014e-05 0.0 0.0 0.0 0.0
1.568 -0.22623898088932037 -0.8415578007698059 -1.16787850856781e-06 1.1412426829338074e-05 0.0 0.0 0.0 0.0
1.569 -0.2264890819787979 -0.8406080007553101 2.115964889526367e-06 2.043694257736206e-05 0.0 0.0 0.0 0.0
1.57 -0.22533121705055237 -0.8403190970420837 -1.1175870895385742e-07 2.4711713194847107e-05 0.0 0.0 0.0 0.0
1.571 -0.22799423336982727 -0.8397332429885864 1.6301870346069336e-05 1.936778426170349e-05 0.0 0.0 0.0 0.0
1.572 -0.22602401673793793 -0.8383021354675293 -1.734122633934021e-06 3.180559724569321e-05 0.0 0.0 0.0 0.0
1.573 -0.22832131385803223 -0.8364143371582031 2.4121254682540894e-06 9.02172178030014e-06 0.0 0.0 0.0 0.0
1.574 -0.2331758439540863 -0.8369223475456238 -3.8798898458480835e-06 1.9853003323078156e-05 0.0 0.0 0.0 0.0
1.575 -0.2302122563123703 -0.8370644450187683 -2.5872141122817993e-06 1.4716759324073792e-05 0.0 0.0 0.0 0.0
1.576 -0.2303636223077774 -0.8379397392272949 -1.7723068594932556e-06 1.1706724762916565e-05 0.0 0.0 0.0 0.0
1.577 -0.2323348969221115 -0.8363614082336426 -2.116803079843521e-05 2.5570392608642578e-05 0.0 0.0 0.0 0.0
1.578 -0.23421727120876312 -0.8347644805908203 9.864568710327148e-06 4.6185217797756195e-05 0.0 0.0 0.0 0.0
1.579 -0.2308490127325058 -0.8350850939750671 5.3551048040390015e-06 1.0728836059570312e-05 0.0 0.0 0.0 0.0
1.58 -0.2376670092344284 -0.833579421043396 -2.4886801838874817e-05 2.3808330297470093e-05 0.0 0.0 0.0 0.0
1.581 -0.23318298161029816 -0.8355801701545715 1.084897667169571e-05 1.1854805052280426e-05 0.0 0.0 0.0 0.0
1.582 -0.23488041758537292 -0.8315348625183105 1.2339092791080475e-05 3.227312117815018e-05 0.0 0.0 0.0 0.0
1.583 -0.23726820945739746 -0.832477867603302 -2.423301339149475e-06 -1.7331913113594055e-06 0.0 0.0 0.0 0.0
1.584 -0.23434102535247803 -0.842516303062439 -5.904585123062134e-07 8.816830813884735e-06 0.0 0.0 0.0 0.0
1.585 -0.23921377956867218 -0.8326976299285889 1.0265037417411804e-05 -1.329369843006134e-05 0.0 0.0 0.0 0.0
1.586 -0.24031710624694824 -0.8322191834449768 -1.7350539565086365e-06 1.3206154108047485e-05 0.0 0.0 0.0 0.0
1.587 -0.2386852204799652 -0.8304625153541565 -3.725290298461914e-08 4.4247135519981384e-06 0.0 0.0 0.0 0.0
1.588 -0.24194251000881195 -0.8289861083030701 -1.3053417205810547e-05 3.041699528694153e-06 0.0 0.0 0.0 0.0
1.589 -0.24220065772533417 -0.8302586078643799 3.154482692480087e-05 2.1346844732761383e-05 0.0 0.0 0.0 0.0
1.59 -0.24187135696411133 -0.8287503123283386 -6.612390279769897e-07 4.693865776062012e-06 0.0 0.0 0.0 0.0
1.591 -0.24552708864212036 -0.8290721774101257 -4.0316954255104065e-06 3.63960862159729e-05 0.0 0.0 0.0 0.0
1.592 -0.24485427141189575 -0.8266962170600891 3.7224963307380676e-06 6.991438567638397e-06 0.0 0.0 0.0 0.0
1.593 -0.24481208622455597 -0.8277628421783447 3.647059202194214e-06 1.4093704521656036e-05 0.0 0.0 0.0 0.0
1.594 -0.24544215202331543 -0.8277248740196228 -2.7650967240333557e-06 1.4884397387504578e-05 0.0 0.0 0.0 0.0
1.595 -0.2461433857679367 -0.8267533183097839 4.448927938938141e-06 4.50480729341507e-06 0.0 0.0 0.0 0.0
1.596 -0.24884459376335144 -0.8298882842063904 -2.8100796043872833e-05 2.9549002647399902e-05 0.0 0.0 0.0 0.0
1.597 -0.2474142462015152 -0.8254608511924744 -5.652196705341339e-06 1.0436400771141052e-05 0.0 0.0 0.0 0.0
1.598 -0.2482830137014389 -0.8236839771270752 2.3692846298217773e-06 -6.413087248802185e-06 0.0 0.0 0.0 0.0
1.599 -0.2514958381652832 -0.8237333297729492 8.835457265377045e-06 1.3608485460281372e-05 0.0 0.0 0.0 0.0
1.6 -0.2506924569606781 -0.8261680006980896 2.2668391466140747e-06 1.7012469470500946e-05 0.0 0.0 0.0 0.0
1.601 -0.24965381622314453 -0.8232241272926331 7.655471563339233e-07 -7.570721209049225e-06 0.0 0.0 0.0 0.0
1.602 -0.2510974407196045 -0.8219772577285767 1.3307668268680573e-05 -9.131617844104767e-06 0.0 0.0 0.0 0.0
1.603 -0.254415363073349 -0.8216923475265503 1.007039099931717e-05 6.139278411865234e-06 0.0 0.0 0.0 0.0
1.604 -0.2535460591316223 -0.8216844201087952 -4.077330231666565e-06 9.406358003616333e-07 0.0 0.0 0.0 0.0
1.605 -0.25780755281448364 -0.8205446004867554 -1.0868534445762634e-06 2.2703781723976135e-05 0.0 0.0 0.0 0.0
1.606 -0.2533249258995056 -0.8215944766998291 2.208910882472992e-05 2.7194619178771973e-06 0.0 0.0 0.0 0.0
1.607 -0.25809329748153687 -0.8190814852714539 -1.0188668966293335e-06 -4.127621650695801e-06 0.0 0.0 0.0 0.0
1.608 -0.2486140877008438 -0.8237804174423218 1.2720935046672821e-05 1.9793398678302765e-05 0.0 0.0 0.0 0.0
1.609 -0.25598806142807007 -0.818147599697113 3.788061439990997e-05 8.092261850833893e-06 0.0 0.0 0.0 0.0
1.61 -0.258375346660614 -0.8192229270935059 3.161095082759857e-05 -1.1280179023742676e-05 0.0 0.0 0.0 0.0
1.611 -0.2579640746116638 -0.8178059458732605 -3.87243926525116e-06 2.2938475012779236e-06 0.0 0.0 0.0 0.0
1.612 -0.2595182955265045 -0.817129373550415 2.4670735001564026e-06 -3.4831464290618896e-06 0.0 0.0 0.0 0.0
1.613 -0.2588580548763275 -0.8169434070587158 -3.929249942302704e-06 7.643364369869232e-06 0.0 0.0 0.0 0.0
1.614 -0.26200780272483826 -0.8144551515579224 5.125068128108978e-06 7.904134690761566e-06 0.0 0.0 0.0 0.0
1.615 -0.2633891999721527 -0.8152215480804443 3.296881914138794e-06 -3.908760845661163e-06 0.0 0.0 0.0 0.0
1.616 -0.2635655105113983 -0.81390780210495 2.169981598854065e-06 2.866145223379135e-05 0.0 0.0 0.0 0.0
1.617 -0.2637004256248474 -0.815114438533783 -1.5515834093093872e-06 4.583969712257385e-06 0.0 0.0 0.0 0.0
1.618 -0.2644919455051422 -0.8143928050994873 7.29784369468689e-06 2.63359397649765e-05 0.0 0.0 0.0 0.0
1.619 -0.26463842391967773 -0.813093900680542 -1.1343508958816528e-06 1.712515950202942e-05 0.0 0.0 0.0 0.0
1.62 -0.2689252197742462 -0.8094928860664368 6.998889148235321e-06 2.896413207054138e-06 0.0 0.0 0.0 0.0
1.621 -0.2695963680744171 -0.8115322589874268 -8.250586688518524e-06 3.166496753692627e-06 0.0 0.0 0.0 0.0
1.622 -0.2688009440898895 -0.8114935159683228 1.5391968190670013e-05 -2.1047890186309814e-07 0.0 0.0 0.0 0.0
1.623 -0.2690865695476532 -0.8097522854804993 -2.6328489184379578e-06 -2.1385028958320618e-05 0.0 0.0 0.0 0.0
1.624 -0.26993468403816223 -0.8109076023101807 2.564024180173874e-05 -1.640990376472473e-05 0.0 0.0 0.0 0.0
1.625 -0.27067992091178894 -0.809747040271759 1.5787780284881592e-05 2.566911280155182e-05 0.0 0.0 0.0 0.0
1.626 -0.2707713544368744 -0.8076801896095276 -4.939734935760498e-06 1.898873597383499e-05 0.0 0.0 0.0 0.0
1.627 -0.27150043845176697 -0.8096901774406433 1.89049169421196e-05 -1.7280690371990204e-05 0.0 0.0 0.0 0.0
1.628 -0.2731790244579315 -0.8074193000793457 -1.977197825908661e-06 4.312954843044281e-05 0.0 0.0 0.0 0.0
1.629 -0.27373823523521423 -0.8071634769439697 1.6801059246063232e-06 -8.746050298213959e-06 0.0 0.0 0.0 0.0
1.63 -0.27531883120536804 -0.8037132620811462 5.323439836502075e-06 1.1132098734378815e-05 0.0 0.0 0.0 0.0
1.631 -0.2766169309616089 -0.8056032061576843 -4.6659260988235474e-07 3.528781235218048e-06 0.0 0.0 0.0 0.0
1.632 -0.271447092294693 -0.7987217903137207 1.5441328287124634e-05 3.4442171454429626e-05 0.0 0.0 0.0 0.0
1.633 -0.273507684469223 -0.806505560874939 2.5253742933273315e-05 3.3462420105934143e-06 0.0 0.0 0.0 0.0
1.634 -0.2791399359703064 -0.8035409450531006 1.556146889925003e-05 4.241243004798889e-06 0.0 0.0 0.0 0.0
1.635 -0.27673619985580444 -0.8054540753364563 -1.6357749700546265e-05 3.2903626561164856e-05 0.0 0.0 0.0 0.0
1.636 -0.27800849080085754 -0.8054121136665344 6.410293281078339e-06 1.5407800674438477e-05 0.0 0.0 0.0 0.0
1.637 -0.2838733196258545 -0.8029919862747192 1.6645528376102448e-05 -1.9910745322704315e-05 0.0 0.0 0.0 0.0
1.638 -0.28238463401794434 -0.8022550940513611 -1.7426908016204834e-05 2.0456500351428986e-05 0.0 0.0 0.0 0.0
1.639 -0.2809963524341583 -0.800777792930603 -1.667160540819168e-05 -9.953975677490234e-06 0.0 0.0 0.0 0.0
1.64 -0.2846587598323822 -0.8000187277793884 1.201871782541275e-05 -1.4785677194595337e-05 0.0 0.0 0.0 0.0
1.641 -0.28442081809043884 -0.8015409708023071 9.882263839244843e-06 -1.0784715414047241e-05 0.0 0.0 0.0 0.0
1.642 -0.2853822708129883 -0.8000312447547913 -7.450580596923828e-09 -7.52229243516922e-06 0.0 0.0 0.0 0.0
1.643 -0.287017822265625 -0.7982767224311829 1.352652907371521e-05 -5.4175034165382385e-06 0.0 0.0 0.0 0.0
1.644 -0.28434643149375916 -0.8009976148605347 1.0314397513866425e-05 3.07764858007431e-05 0.0 0.0 0.0 0.0
1.645 -0.2872524559497833 -0.7977631092071533 7.986091077327728e-06 1.6707926988601685e-06 0.0 0.0 0.0 0.0
1.646 -0.28991714119911194 -0.7971197366714478 1.6850419342517853e-05 7.516704499721527e-06 0.0 0.0 0.0 0.0
1.647 -0.28892770409584045 -0.7978473901748657 1.072511076927185e-05 -1.6316771507263184e-05 0.0 0.0 0.0 0.0
1.648 -0.28947728872299194 -0.7944586277008057 1.4232471585273743e-05 -3.129243850708008e-07 0.0 0.0 0.0 0.0
1.649 -0.291570782661438 -0.7961763143539429 1.6009435057640076e-05 1.443084329366684e-05 0.0 0.0 0.0 0.0
1.65 -0.2907157838344574 -0.7951468825340271 3.934837877750397e-06 -6.496906280517578e-06 0.0 0.0 0.0 0.0
1.651 -0.29550427198410034 -0.7931620478630066 1.9742175936698914e-05 -1.240801066160202e-05 0.0 0.0 0.0 0.0
1.652 -0.2943359315395355 -0.7948397397994995 1.1239200830459595e-05 1.4114193618297577e-05 0.0 0.0 0.0 0.0
1.653 -0.2933008372783661 -0.794899582862854 6.643123924732208e-06 2.9688701033592224e-05 0.0 0.0 0.0 0.0
1.654 -0.2955591380596161 -0.7901779413223267 -5.820766091346741e-06 -3.6545097827911377e-06 0.0 0.0 0.0 0.0
1.655 -0.2962816059589386 -0.7929898500442505 1.9511207938194275e-06 2.6013702154159546e-05 0.0 0.0 0.0 0.0
1.656 -0.29850369691848755 -0.7815914750099182 -5.885027348995209e-06 9.095296263694763e-06 0.0 0.0 0.0 0.0
1.657 -0.2971463203430176 -0.7893545031547546 1.9215047359466553e-05 3.754161298274994e-06 0.0 0.0 0.0 0.0
1.658 -0.29831263422966003 -0.7907840609550476 -6.6552311182022095e-06 -5.4016709327697754e-08 0.0 0.0 0.0 0.0
1.659 -0.30053845047950745 -0.7902654409408569 3.290828317403793e-05 9.697861969470978e-06 0.0 0.0 0.0 0.0
1.66 -0.3017085790634155 -0.7885823845863342 -1.255422830581665e-06 -3.1534582376480103e-06 0.0 0.0 0.0 0.0
1.661 -0.30111464858055115 -0.7881145477294922 3.4158118069171906e-05 -1.1343508958816528e-06 0.0 0.0 0.0 0.0
1.662 -0.30414819717407227 -0.7864473462104797 2.725888043642044e-05 5.486421287059784e-06 0.0 0.0 0.0 0.0
1.663 -0.304198682308197 -0.7880429625511169 1.4330260455608368e-05 -1.071300357580185e-05 0.0 0.0 0.0 0.0
1.664 -0.30705463886260986 -0.7856189608573914 1.2355856597423553e-05 -3.2924115657806396e-05 0.0 0.0 0.0 0.0
1.665 -0.3053325116634369 -0.7857022285461426 2.8468668460845947e-05 3.137625753879547e-06 0.0 0.0 0.0 0.0
1.666 -0.30781883001327515 -0.7841893434524536 3.5245902836322784e-05 -2.3437663912773132e-05 0.0 0.0 0.0 0.0
1.667 -0.3067782521247864 -0.785961925983429 -4.011206328868866e-06 -1.239590346813202e-06 0.0 0.0 0.0 0.0
1.668 -0.3037368655204773 -0.7840536832809448 7.89109617471695e-06 5.904585123062134e-06 0.0 0.0 0.0 0.0
1.669 -0.3088458180427551 -0.786557137966156 1.2855976819992065e-05 2.010725438594818e-05 0.0 0.0 0.0 0.0
1.67 -0.3104241192340851 -0.7831675410270691 2.1938234567642212e-05 1.9035302102565765e-05 0.0 0.0 0.0 0.0
1.671 -0.3121160566806793 -0.7838276028633118 2.886541187763214e-05 1.7134472727775574e-05 0.0 0.0 0.0 0.0
1.672 -0.3114567995071411 -0.781834602355957 1.4644116163253784e-05 -2.0489096641540527e-07 0.0 0.0 0.0 0.0
1.673 -0.31399908661842346 -0.7819198369979858 1.0206364095211029e-05 -9.227544069290161e-06 0.0 0.0 0.0 0.0
1.674 -0.31401941180229187 -0.7823987007141113 1.5457160770893097e-05 -2.2084452211856842e-05 0.0 0.0 0.0 0.0
1.675 -0.3128485083580017 -0.7817850708961487 2.0405277609825134e-05 1.5329569578170776e-05 0.0 0.0 0.0 0.0
1.676 -0.31560879945755005 -0.7796866297721863 3.8819387555122375e-05 -1.624971628189087e-05 0.0 0.0 0.0 0.0
1.677 -0.3158646821975708 -0.7783362865447998 2.245325595140457e-05 -2.8067268431186676e-05 0.0 0.0 0.0 0.0
1.678 -0.31636953353881836 -0.78033846616745 8.99285078048706e-06 9.277835488319397e-06 0.0 0.0 0.0 0.0
1.679 -0.3203950822353363 -0.7770218849182129 -7.264316082000732e-08 -1.758430153131485e-05 0.0 0.0 0.0 0.0
1.68 -0.3229011297225952 -0.7673251628875732 2.163182944059372e-05 -1.8940307199954987e-05 0.0 0.0 0.0 0.0
1.681 -0.3213353753089905 -0.7745707035064697 1.3363547623157501e-05 -3.0273571610450745e-05 0.0 0.0 0.0 0.0
1.682 -0.3210388123989105 -0.7752304077148438 8.530914783477783e-06 -1.4217570424079895e-05 0.0 0.0 0.0 0.0
1.683 -0.3206596374511719 -0.7746526598930359 -5.925074219703674e-06 -1.1402182281017303e-05 0.0 0.0 0.0 0.0
1.684 -0.32351210713386536 -0.7718144059181213 1.8347986042499542e-05 -1.9418075680732727e-06 0.0 0.0 0.0 0.0
1.685 -0.3241457939147949 -0.7732316255569458 2.8615817427635193e-05 -1.6409903764724731e-06 0.0 0.0 0.0 0.0
1.686 -0.32428452372550964 -0.773055911064148 2.4537555873394012e-05 -3.0994415283203125e-05 0.0 0.0 0.0 0.0
1.687 -0.3274863660335541 -0.7697588801383972 1.180265098810196e-05 -5.995854735374451e-06 0.0 0.0 0.0 0.0
1.688 -0.32744300365448 -0.7706466913223267 2.3096799850463867e-05 7.038936018943787e-06 0.0 0.0 0.0 0.0
1.689 -0.3283890187740326 -0.7698827385902405 5.8282166719436646e-06 -2.973899245262146e-05 0.0 0.0 0.0 0.0
1.69 -0.32981380820274353 -0.7697480916976929 1.802109181880951e-06 -2.8265640139579773e-06 0.0 0.0 0.0 0.0
1.691 -0.3290514051914215 -0.7690653204917908 2.5700777769088745e-05 -1.0928139090538025e-05 0.0 0.0 0.0 0.0
1.692 -0.328928679227829 -0.7642550468444824 1.9148923456668854e-05 -1.1213123798370361e-05 0.0 0.0 0.0 0.0
1.693 -0.33206355571746826 -0.7663265466690063 2.635642886161804e-07 -4.8912130296230316e-05 0.0 0.0 0.0 0.0
1.694 -0.3306770622730255 -0.7674418091773987 -1.8715858459472656e-05 -2.5626271963119507e-05 0.0 0.0 0.0 0.0
1.695 -0.33421996235847473 -0.7659227252006531 1.3583339750766754e-05 -3.681238740682602e-05 0.0 0.0 0.0 0.0
1.696 -0.33363837003707886 -0.7644118070602417 1.989305019378662e-05 -2.50842422246933e-05 0.0 0.0 0.0 0.0
1.697 -0.33494263887405396 -0.7648640871047974 1.0334886610507965e-05 -3.4957192838191986e-05 0.0 0.0 0.0 0.0
1.698 -0.3354668915271759 -0.7642408013343811 -8.072704076766968e-06 -1.9437633454799652e-05 0.0 0.0 0.0 0.0
1.699 -0.3360693156719208 -0.7638638019561768 -7.090158760547638e-06 -4.1155144572257996e-05 0.0 0.0 0.0 0.0
1.7 -0.33693650364875793 -0.7604434490203857 1.824367791414261e-05 -4.539545625448227e-05 0.0 0.0 0.0 0.0
1.701 -0.3394449055194855 -0.7602279782295227 -2.241041511297226e-05 -5.923211574554443e-07 0.0 0.0 0.0 0.0
1.702 -0.3380546271800995 -0.7607512474060059 5.568377673625946e-06 -3.8516707718372345e-05 0.0 0.0 0.0 0.0
1.703 -0.3397737741470337 -0.7592340111732483 -2.0371749997138977e-05 -2.2875145077705383e-05 0.0 0.0 0.0 0.0
1.704 -0.34560832381248474 -0.7550814747810364 -6.856396794319153e-06 -4.1602179408073425e-05 0.0 0.0 0.0 0.0
1.705 -0.34058061242103577 -0.7566611766815186 -4.587695002555847e-06 -4.648882895708084e-05 0.0 0.0 0.0 0.0
1.706 -0.3423107862472534 -0.7562730312347412 -3.686361014842987e-05 -2.3206695914268494e-05 0.0 0.0 0.0 0.0
1.707 -0.3422450125217438 -0.7564290761947632 -2.26655974984169e-05 -2.1927058696746826e-05 0.0 0.0 0.0 0.0
1.708 -0.34114035964012146 -0.7565067410469055 -4.625041037797928e-05 -8.595176041126251e-06 0.0 0.0 0.0 0.0
1.709 -0.3437528908252716 -0.7553014755249023 -2.7266331017017365e-05 -2.065766602754593e-05 0.0 0.0 0.0 0.0
1.71 -0.3446398973464966 -0.7553621530532837 -7.34720379114151e-06 -7.020309567451477e-06 0.0 0.0 0.0 0.0
1.711 -0.34419286251068115 -0.753900945186615 -8.200295269489288e-06 -1.4708377420902252e-05 0.0 0.0 0.0 0.0
1.712 -0.34622907638549805 -0.7529510259628296 -1.8127262592315674e-05 -3.587454557418823e-05 0.0 0.0 0.0 0.0
1.713 -0.347378671169281 -0.7537099123001099 5.0691887736320496e-06 -1.2984499335289001e-05 0.0 0.0 0.0 0.0
1.714 -0.3447565734386444 -0.7526444792747498 -2.2401101887226105e-05 -8.595176041126251e-06 0.0 0.0 0.0 0.0
1.715 -0.34701985120773315 -0.7524362802505493 -2.0791776478290558e-05 -8.158385753631592e-06 0.0 0.0 0.0 0.0
1.716 -0.3506466746330261 -0.7491785883903503 -1.6646459698677063e-05 -1.203734427690506e-05 0.0 0.0 0.0 0.0
1.717 -0.3483489751815796 -0.7510605454444885 -2.2499822080135345e-05 5.289912223815918e-06 0.0 0.0 0.0 0.0
1.718 -0.3502148687839508 -0.7516437768936157 1.2088567018508911e-06 1.601874828338623e-06 0.0 0.0 0.0 0.0
1.719 -0.3493744730949402 -0.7519556283950806 -9.063631296157837e-06 -8.959323167800903e-07 0.0 0.0 0.0 0.0
1.72 -0.3527071475982666 -0.7511101961135864 -2.1618790924549103e-05 1.475214958190918e-06 0.0 0.0 0.0 0.0
1.721 -0.35327863693237305 -0.751664400100708 -2.0225532352924347e-05 1.0706484317779541e-05 0.0 0.0 0.0 0.0
1.722 -0.3539784848690033 -0.7492391467094421 -3.061257302761078e-06 1.2946315109729767e-05 0.0 0.0 0.0 0.0
1.723 -0.35673919320106506 -0.7491386532783508 -1.0816380381584167e-05 1.6944482922554016e-05 0.0 0.0 0.0 0.0
1.724 -0.354389488697052 -0.750633716583252 -1.695193350315094e-05 1.3067387044429779e-05 0.0 0.0 0.0 0.0
1.725 -0.3565359115600586 -0.7481384873390198 -2.8116628527641296e-06 5.9371814131736755e-06 0.0 0.0 0.0 0.0
1.726 -0.35947954654693604 -0.748249351978302 -8.767470717430115e-06 1.0591000318527222e-05 0.0 0.0 0.0 0.0
1.727 -0.3586072325706482 -0.7480273246765137 -1.181289553642273e-05 1.356564462184906e-05 0.0 0.0 0.0 0.0
1.728 -0.3655956983566284 -0.7460500597953796 -5.270354449748993e-06 -7.931143045425415e-06 0.0 0.0 0.0 0.0
1.729 -0.36277467012405396 -0.7459107041358948 -1.4406628906726837e-05 1.673959195613861e-05 0.0 0.0 0.0 0.0
1.73 -0.36161574721336365 -0.7466886043548584 -6.8088993430137634e-06 3.2531097531318665e-06 0.0 0.0 0.0 0.0
1.731 -0.3639010488986969 -0.744467556476593 9.713694453239441e-06 -9.782612323760986e-06 0.0 0.0 0.0 0.0
1.732 -0.3642946481704712 -0.7450940012931824 1.2614764273166656e-05 -1.3109296560287476e-05 0.0 0.0 0.0 0.0
1.733 -0.3648414611816406 -0.7447811365127563 6.245449185371399e-06 4.606321454048157e-06 0.0 0.0 0.0 0.0
1.734 -0.36656635999679565 -0.7427683472633362 1.8198974430561066e-05 4.240032285451889e-05 0.0 0.0 0.0 0.0
1.735 -0.36903464794158936 -0.743689775466919 2.6615336537361145e-05 2.8907321393489838e-05 0.0 0.0 0.0 0.0
1.736 -0.3691936135292053 -0.742591917514801 1.1817552149295807e-05 1.8962658941745758e-05 0.0 0.0 0.0 0.0
1.737 -0.3716009557247162 -0.7407594323158264 1.1873431503772736e-05 -4.999339580535889e-06 0.0 0.0 0.0 0.0
1.738 -0.3697526156902313 -0.7409749031066895 1.2557953596115112e-05 5.4426491260528564e-06 0.0 0.0 0.0 0.0
1.739 -0.3719004988670349 -0.7401776313781738 1.1224299669265747e-05 1.783110201358795e-05 0.0 0.0 0.0 0.0
1.74 -0.38061124086380005 -0.7369985580444336 3.655441105365753e-06 -1.642853021621704e-06 0.0 0.0 0.0 0.0
1.741 -0.37398093938827515 -0.7387562990188599 -2.1047890186309814e-07 -7.062219083309174e-06 0.0 0.0 0.0 0.0
1.742 -0.3741578459739685 -0.7380393743515015 2.3599714040756226e-05 6.584450602531433e-07 0.0 0.0 0.0 0.0
1.743 -0.37689337134361267 -0.7373238205909729 1.2291595339775085e-05 3.61073762178421e-06 0.0 0.0 0.0 0.0
1.744 -0.37705859541893005 -0.7372079491615295 2.8703361749649048e-06 -3.8173049688339233e-05 0.0 0.0 0.0 0.0
1.745 -0.37880825996398926 -0.735633373260498 4.3433159589767456e-05 1.3006851077079773e-05 0.0 0.0 0.0 0.0
1.746 -0.38093501329421997 -0.7342464923858643 1.3381242752075195e-05 -1.5614554286003113e-05 0.0 0.0 0.0 0.0
1.747 -0.3796657919883728 -0.7358009219169617 -1.0624527931213379e-05 -2.4963170289993286e-05 0.0 0.0 0.0 0.0
1.748 -0.3816453218460083 -0.734368622303009 8.542090654373169e-06 -1.0155141353607178e-05 0.0 0.0 0.0 0.0
1.749 -0.383218377828598 -0.7335577011108398 -1.2088567018508911e-06 8.541159331798553e-06 0.0 0.0 0.0 0.0
1.75 -0.382260262966156 -0.7321221232414246 5.098059773445129e-06 -1.5271827578544617e-05 0.0 0.0 0.0 0.0
1.751 -0.3849371671676636 -0.7322356700897217 -8.450821042060852e-06 -1.0221265256404877e-05 0.0 0.0 0.0 0.0
1.752 -0.3881922662258148 -0.7350636124610901 2.2360123693943024e-05 -9.969808161258698e-06 0.0 0.0 0.0 0.0
1.753 -0.38631609082221985 -0.7301754355430603 1.571793109178543e-05 2.5155022740364075e-06 0.0 0.0 0.0 0.0
1.754 -0.3889782428741455 -0.7296828627586365 1.0058283805847168e-05 -1.0885298252105713e-05 0.0 0.0 0.0 0.0
1.755 -0.388755202293396 -0.7289782166481018 -2.0423904061317444e-06 -9.488314390182495e-06 0.0 0.0 0.0 0.0
1.756 -0.39071792364120483 -0.7283701300621033 9.082257747650146e-06 -2.7596019208431244e-05 0.0 0.0 0.0 0.0
1.757 -0.38996627926826477 -0.7284625768661499 -6.645917892456055e-06 -2.0077452063560486e-05 0.0 0.0 0.0 0.0
1.758 -0.3911910653114319 -0.728467583656311 1.6518868505954742e-05 1.227203756570816e-05 0.0 0.0 0.0 0.0
1.759 -0.3916589021682739 -0.7268836498260498 7.431954145431519e-07 -2.852547913789749e-05 0.0 0.0 0.0 0.0
1.76 -0.3945964276790619 -0.7266122698783875 -3.327988088130951e-05 -5.669891834259033e-06 0.0 0.0 0.0 0.0
1.761 -0.3964986801147461 -0.725879430770874 1.4071352779865265e-05 -2.9797665774822235e-05 0.0 0.0 0.0 0.0
1.762 -0.3955082893371582 -0.7230044007301331 2.625398337841034e-06 -1.4343298971652985e-05 0.0 0.0 0.0 0.0
1.763 -0.39635854959487915 -0.723692774772644 2.2098422050476074e-05 1.3605691492557526e-05 0.0 0.0 0.0 0.0
1.764 -0.39503785967826843 -0.7241560220718384 1.5852972865104675e-05 -6.04335218667984e-06 0.0 0.0 0.0 0.0
1.765 -0.398940771818161 -0.7190945744514465 -6.3264742493629456e-06 -4.412606358528137e-06 0.0 0.0 0.0 0.0
1.766 -0.3998238444328308 -0.7207211852073669 -1.5929341316223145e-05 5.835667252540588e-06 0.0 0.0 0.0 0.0
1.767 -0.3993031978607178 -0.7205718755722046 -3.0394643545150757e-05 -2.3011118173599243e-05 0.0 0.0 0.0 0.0
1.768 -0.4037613570690155 -0.717812716960907 -2.6001594960689545e-05 -1.7819926142692566e-05 0.0 0.0 0.0 0.0
1.769 -0.40246066451072693 -0.718469500541687 -3.552064299583435e-06 -1.5683472156524658e-05 0.0 0.0 0.0 0.0
1.77 -0.40305861830711365 -0.7193279266357422 1.0505318641662598e-05 -1.2777745723724365e-05 0.0 0.0 0.0 0.0
1.771 -0.4048500955104828 -0.7180445790290833 5.424953997135162e-06 -1.3167038559913635e-05 0.0 0.0 0.0 0.0
1.772 -0.4072730839252472 -0.7154844999313354 1.523829996585846e-05 -4.742294549942017e-06 0.0 0.0 0.0 0.0
1.773 -0.40729114413261414 -0.7137515544891357 -3.526266664266586e-05 -3.86824831366539e-05 0.0 0.0 0.0 0.0
1.774 -0.4125727415084839 -0.7154775857925415 -8.286908268928528e-06 -1.6551464796066284e-05 0.0 0.0 0.0 0.0
1.775 -0.4081518054008484 -0.7146693468093872 1.809746026992798e-05 8.668750524520874e-06 0.0 0.0 0.0 0.0
1.776 -0.40816718339920044 -0.7086090445518494 3.3387914299964905e-06 -1.140497624874115e-05 0.0 0.0 0.0 0.0
1.777 -0.41262370347976685 -0.7110370993614197 -2.4673528969287872e-05 -1.692492514848709e-05 0.0 0.0 0.0 0.0
1.778 -0.41139623522758484 -0.7122277617454529 -1.4281831681728363e-05 -6.234273314476013e-06 0.0 0.0 0.0 0.0
1.779 -0.41243961453437805 -0.7111228108406067 -1.325458288192749e-05 -1.2400560081005096e-05 0.0 0.0 0.0 0.0
1.78 -0.4135053753852844 -0.7091090679168701 1.4660879969596863e-05 -1.4417804777622223e-05 0.0 0.0 0.0 0.0
1.781 -0.41413751244544983 -0.709458589553833 2.103205770254135e-05 -5.4640695452690125e-06 0.0 0.0 0.0 0.0
1.782 -0.41672074794769287 -0.7079983949661255 -9.723007678985596e-07 7.236376404762268e-06 0.0 0.0 0.0 0.0
1.783 -0.4184104800224304 -0.7097236514091492 6.770715117454529e-07 2.6413239538669586e-05 0.0 0.0 0.0 0.0
1.784 -0.4173271656036377 -0.7066507339477539 1.9688159227371216e-06 1.0328367352485657e-06 0.0 0.0 0.0 0.0
1.785 -0.4186391532421112 -0.7080277800559998 -2.887565642595291e-05 1.2541189789772034e-05 0.0 0.0 0.0 0.0
1.786 -0.419516921043396 -0.707141637802124 -7.870607078075409e-06 -1.6526319086551666e-05 0.0 0.0 0.0 0.0
1.787 -0.4208240211009979 -0.703770637512207 3.955326974391937e-06 -4.788581281900406e-05 0.0 0.0 0.0 0.0
1.788 -0.42699289321899414 -0.7035279870033264 -9.835697710514069e-06 1.011975109577179e-05 0.0 0.0 0.0 0.0
1.789 -0.42310065031051636 -0.702980101108551 -1.6662292182445526e-05 3.073364496231079e-08 0.0 0.0 0.0 0.0
1.79 -0.42528727650642395 -0.7018082141876221 -1.4454126358032227e-05 3.918074071407318e-06 0.0 0.0 0.0 0.0
1.791 -0.425020694732666 -0.7024301886558533 -2.790801227092743e-05 -7.217749953269958e-07 0.0 0.0 0.0 0.0
1.792 -0.42659085988998413 -0.7026984691619873 7.082708179950714e-06 -2.0978040993213654e-05 0.0 0.0 0.0 0.0
1.793 -0.42761969566345215 -0.6995623707771301 -3.4580007195472717e-06 -1.5038996934890747e-05 0.0 0.0 0.0 0.0
1.794 -0.42945152521133423 -0.6982499361038208 -1.7055310308933258e-05 -6.1355531215667725e-06 0.0 0.0 0.0 0.0
1.795 -0.42749515175819397 -0.697346031665802 -3.169570118188858e-05 -2.0655803382396698e-05 0.0 0.0 0.0 0.0
1.796 -0.43214109539985657 -0.6957303881645203 -2.6443973183631897e-05 1.010950654745102e-05 0.0 0.0 0.0 0.0
1.797 -0.4326260983943939 -0.6958742141723633 1.3801269233226776e-05 -5.5460259318351746e-06 0.0 0.0 0.0 0.0
1.798 -0.43388116359710693 -0.6960657238960266 2.4279579520225525e-05 -1.6392208635807037e-05 0.0 0.0 0.0 0.0
1.799 -0.43380844593048096 -0.6962156891822815 2.366490662097931e-06 -2.9122456908226013e-06 0.0 0.0 0.0 0.0
1.8 -0.43871569633483887 -0.6887128949165344 7.187016308307648e-06 1.0113231837749481e-05 0.0 0.0 0.0 0.0
1.801 -0.4378952383995056 -0.6942810416221619 4.529021680355072e-06 -2.106744796037674e-05 0.0 0.0 0.0 0.0
1.802 -0.4370546340942383 -0.6936599016189575 9.049661457538605e-06 1.3869255781173706e-05 0.0 0.0 0.0 0.0
1.803 -0.4375132918357849 -0.6922414898872375 -4.7693029046058655e-06 1.5832483768463135e-06 0.0 0.0 0.0 0.0
1.804 -0.4398358464241028 -0.6924433708190918 8.59145075082779e-06 2.0312145352363586e-05 0.0 0.0 0.0 0.0
1.805 -0.44151556491851807 -0.6897186636924744 9.836629033088684e-06 -1.738686114549637e-05 0.0 0.0 0.0 0.0
1.806 -0.44078224897384644 -0.6899071931838989 -4.6566128730773926e-09 1.2864358723163605e-05 0.0 0.0 0.0 0.0
1.807 -0.442573606967926 -0.6883388757705688 1.4491379261016846e-06 1.4050863683223724e-05 0.0 0.0 0.0 0.0
1.808 -0.44528695940971375 -0.6857904195785522 -3.84356826543808e-06 -1.6265548765659332e-05 0.0 0.0 0.0 0.0
1.809 -0.44565457105636597 -0.687241792678833 7.086433470249176e-06 -2.547912299633026e-05 0.0 0.0 0.0 0.0
1.81 -0.4432242810726166 -0.6866127252578735 -1.8864870071411133e-05 -2.687610685825348e-05 0.0 0.0 0.0 0.0
1.811 -0.44745582342147827 -0.6852578520774841 1.971609890460968e-06 2.1743588149547577e-05 0.0 0.0 0.0 0.0
1.812 -0.44888779520988464 -0.6847614049911499 2.12816521525383e-05 1.541338860988617e-05 0.0 0.0 0.0 0.0
1.813 -0.4459848403930664 -0.6835414171218872 9.582377970218658e-06 1.232139766216278e-05 0.0 0.0 0.0 0.0
1.814 -0.4514620006084442 -0.6820192933082581 1.9278377294540405e-06 1.0654330253601074e-05 0.0 0.0 0.0 0.0
1.815 -0.4530337154865265 -0.6813626885414124 2.2312626242637634e-05 1.569744199514389e-05 0.0 0.0 0.0 0.0
1.816 -0.45334115624427795 -0.6810594797134399 1.1951662600040436e-05 -1.9669532775878906e-06 0.0 0.0 0.0 0.0
1.817 -0.4548802971839905 -0.6794894337654114 2.422928810119629e-05 -9.313225746154785e-08 0.0 0.0 0.0 0.0
1.818 -0.4549597501754761 -0.6783286333084106 4.6798959374427795e-06 -1.4139339327812195e-05 0.0 0.0 0.0 0.0
1.819 -0.4567837715148926 -0.6754755973815918 2.8627924621105194e-05 -2.6300549507141113e-06 0.0 0.0 0.0 0.0
1.82 -0.45730867981910706 -0.6772202253341675 -1.0240823030471802e-05 1.132674515247345e-05 0.0 0.0 0.0 0.0
1.821 -0.45792314410209656 -0.6762117147445679 2.570822834968567e-05 2.1656043827533722e-05 0.0 0.0 0.0 0.0
1.822 -0.4552183449268341 -0.6761390566825867 3.02046537399292e-05 -1.600850373506546e-05 0.0 0.0 0.0 0.0
1.823 -0.4598861038684845 -0.6744366884231567 8.005648851394653e-06 1.6762875020503998e-05 0.0 0.0 0.0 0.0
1.824 -0.4694075584411621 -0.6705579161643982 9.326264262199402e-06 -1.685693860054016e-07 0.0 0.0 0.0 0.0
1.825 -0.46417325735092163 -0.6739420890808105 1.1239200830459595e-05 6.761401891708374e-06 0.0 0.0 0.0 0.0
1.826 -0.4617261290550232 -0.6732633709907532 2.0612962543964386e-05 -1.752655953168869e-05 0.0 0.0 0.0 0.0
1.827 -0.4672586917877197 -0.6701051592826843 7.916241884231567e-08 3.3192336559295654e-06 0.0 0.0 0.0 0.0
1.828 -0.46435627341270447 -0.669937789440155 1.1115334928035736e-05 -4.0376558899879456e-05 0.0 0.0 0.0 0.0
1.829 -0.4681229889392853 -0.6683071255683899 2.1606683731079102e-07 -2.7428381145000458e-05 0.0 0.0 0.0 0.0
1.83 -0.46768832206726074 -0.66802579164505 1.9319355487823486e-05 -2.53189355134964e-05 0.0 0.0 0.0 0.0
1.831 -0.47306832671165466 -0.6690153479576111 9.356997907161713e-06 -3.057718276977539e-05 0.0 0.0 0.0 0.0
1.832 -0.4722529947757721 -0.6664461493492126 1.5200115740299225e-05 -7.366761565208435e-07 0.0 0.0 0.0 0.0
1.833 -0.47362056374549866 -0.6661005020141602 5.177222192287445e-06 -4.6566128730773926e-08 0.0 0.0 0.0 0.0
1.834 -0.4742344915866852 -0.6662778258323669 -1.3042241334915161e-05 -3.130827099084854e-05 0.0 0.0 0.0 0.0
1.835 -0.4730195105075836 -0.6648978590965271 -1.110229641199112e-05 -3.802776336669922e-05 0.0 0.0 0.0 0.0
1.836 -0.4748588502407074 -0.66216641664505 2.66125425696373e-05 -2.685748040676117e-05 0.0 0.0 0.0 0.0
1.837 -0.47661057114601135 -0.6638914942741394 5.264021456241608e-05 -8.828938007354736e-07 0.0 0.0 0.0 0.0
1.838 -0.47771793603897095 -0.6612439751625061 -3.678351640701294e-05 7.2503462433815e-06 0.0 0.0 0.0 0.0
1.839 -0.48003876209259033 -0.6599085330963135 6.489455699920654e-06 3.74671071767807e-06 0.0 0.0 0.0 0.0
1.84 -0.48172706365585327 -0.6609777808189392 3.4837983548641205e-05 -2.874433994293213e-05 0.0 0.0 0.0 0.0
1.841 -0.4824516773223877 -0.6575775146484375 8.299946784973145e-06 2.647656947374344e-05 0.0 0.0 0.0 0.0
1.842 -0.48300889134407043 -0.658846378326416 -5.6158751249313354e-06 -1.1523254215717316e-05 0.0 0.0 0.0 0.0
1.843 -0.48053982853889465 -0.6570212841033936 6.054528057575226e-06 -5.490146577358246e-06 0.0 0.0 0.0 0.0
1.844 -0.48536837100982666 -0.6537516117095947 -1.24368816614151e-05 -2.712942659854889e-06 0.0 0.0 0.0 0.0
1.845 -0.48718446493148804 -0.6548766493797302 -1.6573816537857056e-05 1.994241029024124e-05 0.0 0.0 0.0 0.0
1.846 -0.4885435104370117 -0.651270866394043 9.294599294662476e-06 3.531482070684433e-05 0.0 0.0 0.0 0.0
1.847 -0.487967848777771 -0.6528398394584656 -3.838445991277695e-05 -2.051703631877899e-06 0.0 0.0 0.0 0.0
1.848 -0.4940583407878876 -0.6562264561653137 1.6544945538043976e-05 -4.482455551624298e-06 0.0 0.0 0.0 0.0
1.849 -0.48903998732566833 -0.6549156904220581 -1.8363818526268005e-05 9.980984032154083e-06 0.0 0.0 0.0 0.0
1.85 -0.49073317646980286 -0.6519054770469666 3.69558110833168e-05 -2.1692365407943726e-05 0.0 0.0 0.0 0.0
1.851 -0.49203819036483765 -0.649590253829956 2.679135650396347e-05 6.310641765594482e-06 0.0 0.0 0.0 0.0
1.852 -0.4926471710205078 -0.6482120752334595 2.4475157260894775e-05 7.531605660915375e-06 0.0 0.0 0.0 0.0
1.853 -0.4938788115978241 -0.6480255722999573 2.7978792786598206e-05 -2.3555941879749298e-05 0.0 0.0 0.0 0.0
1.854 -0.49671149253845215 -0.6473529934883118 1.866556704044342e-05 1.2128613889217377e-05 0.0 0.0 0.0 0.0
1.855 -0.49771374464035034 -0.6450666189193726 4.4461339712142944e-06 -1.2004747986793518e-05 0.0 0.0 0.0 0.0
1.856 -0.4981147348880768 -0.6438491940498352 -4.034489393234253e-06 2.2677704691886902e-05 0.0 0.0 0.0 0.0
1.857 -0.5005372762680054 -0.6432187557220459 3.1043775379657745e-05 1.3131648302078247e-06 0.0 0.0 0.0 0.0
1.858 -0.4997004270553589 -0.6416158676147461 1.7665326595306396e-05 -2.8876587748527527e-05 0.0 0.0 0.0 0.0
1.859 -0.5009875893592834 -0.6411087512969971 1.3182871043682098e-05 1.9123777747154236e-05 0.0 0.0 0.0 0.0
1.86 -0.5030708909034729 -0.6420643329620361 1.3812445104122162e-05 -1.8936581909656525e-05 0.0 0.0 0.0 0.0
1.861 -0.502856433391571 -0.6424207091331482 5.100853741168976e-06 -1.7134472727775574e-05 0.0 0.0 0.0 0.0
1.862 -0.5052769184112549 -0.6385114192962646 -2.913177013397217e-06 1.4751218259334564e-05 0.0 0.0 0.0 0.0
1.863 -0.5083405375480652 -0.6355268955230713 -1.0253861546516418e-05 -4.911795258522034e-06 0.0 0.0 0.0 0.0
1.864 -0.5068339109420776 -0.6360967755317688 1.3994984328746796e-05 -1.3078562915325165e-05 0.0 0.0 0.0 0.0
1.865 -0.5081996917724609 -0.6358540058135986 2.600438892841339e-05 7.208436727523804e-06 0.0 0.0 0.0 0.0
1.866 -0.5122770667076111 -0.6339136362075806 2.3142434656620026e-05 -8.473172783851624e-06 0.0 0.0 0.0 0.0
1.867 -0.5103055238723755 -0.6318100690841675 -2.7824193239212036e-05 1.0484829545021057e-05 0.0 0.0 0.0 0.0
1.868 -0.5129351019859314 -0.6309255957603455 -3.093387931585312e-05 -2.201460301876068e-05 0.0 0.0 0.0 0.0
1.869 -0.5137361884117126 -0.6322929859161377 -5.941838026046753e-07 -1.34296715259552e-06 0.0 0.0 0.0 0.0
1.87 -0.5087546110153198 -0.629845142364502 -8.219853043556213e-06 9.441748261451721e-06 0.0 0.0 0.0 0.0
1.871 -0.514992892742157 -0.6304038763046265 -2.168118953704834e-06 -7.398426532745361e-06 0.0 0.0 0.0 0.0
1.872 -0.519149124622345 -0.6339116096496582 -1.2093223631381989e-05 -4.99160960316658e-05 0.0 0.0 0.0 0.0
1.873 -0.5174116492271423 -0.6270208358764648 1.584179699420929e-06 -2.421438694000244e-07 0.0 0.0 0.0 0.0
1.874 -0.5184062123298645 -0.6271761655807495 3.154110163450241e-05 -9.174458682537079e-06 0.0 0.0 0.0 0.0
1.875 -0.5196054577827454 -0.6253938674926758 -2.7853064239025116e-05 9.222887456417084e-06 0.0 0.0 0.0 0.0
1.876 -0.5227922797203064 -0.626882016658783 1.2278556823730469e-05 -1.722760498523712e-05 0.0 0.0 0.0 0.0
1.877 -0.5230406522750854 -0.6232928037643433 -1.607649028301239e-05 -9.930692613124847e-06 0.0 0.0 0.0 0.0
1.878 -0.5217904448509216 -0.6222606301307678 -5.535781383514404e-06 -3.3163465559482574e-05 0.0 0.0 0.0 0.0
1.879 -0.5229489207267761 -0.6186436414718628 -4.060566425323486e-06 -1.6412697732448578e-05 0.0 0.0 0.0 0.0
1.88 -0.5276250243186951 -0.6184902787208557 -4.0335580706596375e-05 -4.295818507671356e-05 0.0 0.0 0.0 0.0
1.881 -0.5262064337730408 -0.6210445761680603 -1.66185200214386e-05 1.2069940567016602e-05 0.0 0.0 0.0 0.0
1.882 -0.5292433500289917 -0.6185550689697266 -2.7514994144439697e-05 -3.7233345210552216e-05 0.0 0.0 0.0 0.0
1.883 -0.5296191573143005 -0.6157752871513367 -1.158006489276886e-05 -1.2788921594619751e-05 0.0 0.0 0.0 0.0
1.884 -0.5280967950820923 -0.6180760860443115 3.0035153031349182e-06 -2.6814639568328857e-05 0.0 0.0 0.0 0.0
1.885 -0.5318682193756104 -0.6153905391693115 -3.4188851714134216e-05 -2.0464882254600525e-05 0.0 0.0 0.0 0.0
1.886 -0.5319957733154297 -0.6138526797294617 3.898516297340393e-06 -1.849886029958725e-05 0.0 0.0 0.0 0.0
1.887 -0.5332449078559875 -0.6116995811462402 -2.390984445810318e-05 4.6193599700927734e-07 0.0 0.0 0.0 0.0
1.888 -0.5354293584823608 -0.6124297976493835 -3.3167190849781036e-05 6.88992440700531e-06 0.0 0.0 0.0 0.0
1.889 -0.5346918106079102 -0.6104474663734436 -2.99159437417984e-05 3.839842975139618e-05 0.0 0.0 0.0 0.0
1.89 -0.5389726161956787 -0.6052935719490051 -2.6425346732139587e-05 1.699291169643402e-05 0.0 0.0 0.0 0.0
1.891 -0.5388699173927307 -0.605968713760376 -1.6691163182258606e-05 4.015583544969559e-05 0.0 0.0 0.0 0.0
1.892 -0.5350844860076904 -0.6086392998695374 1.3942830264568329e-05 2.6324763894081116e-05 0.0 0.0 0.0 0.0
1.893 -0.5413698554039001 -0.6028673052787781 -1.948140561580658e-05 3.3525750041007996e-05 0.0 0.0 0.0 0.0
1.894 -0.5416327118873596 -0.6042539477348328 -2.0153820514678955e-05 3.434531390666962e-05 0.0 0.0 0.0 0.0
1.895 -0.5402926802635193 -0.6031529307365417 -3.916304558515549e-05 -1.7025507986545563e-05 0.0 0.0 0.0 0.0
1.896 -0.5419549345970154 -0.6076568961143494 3.6022625863552094e-05 6.93928450345993e-06 0.0 0.0 0.0 0.0
1.897 -0.5440046787261963 -0.602227509021759 -2.0380131900310516e-05 -2.3189932107925415e-07 0.0 0.0 0.0 0.0
1.898 -0.5414198637008667 -0.6007780432701111 -2.9772520065307617e-05 2.4983659386634827e-05 0.0 0.0 0.0 0.0
1.899 -0.5445739030838013 -0.5980772972106934 4.2244791984558105e-06 -3.904104232788086e-06 0.0 0.0 0.0 0.0
1.9 -0.543881356716156 -0.5976859927177429 1.5292316675186157e-06 8.687376976013184e-06 0.0 0.0 0.0 0.0
1.901 -0.5432484745979309 -0.5994209051132202 -4.066154360771179e-06 1.8674880266189575e-05 0.0 0.0 0.0 0.0
1.902 -0.5456320643424988 -0.5957609415054321 -2.83215194940567e-06 3.6057084798812866e-05 0.0 0.0 0.0 0.0
1.903 -0.5453729033470154 -0.5954515337944031 3.713741898536682e-05 -2.4139881134033203e-06 0.0 0.0 0.0 0.0
1.904 -0.5464170575141907 -0.5950599312782288 8.400529623031616e-06 2.924073487520218e-05 0.0 0.0 0.0 0.0
1.905 -0.5490171909332275 -0.5930215120315552 -3.635883331298828e-06 1.4178454875946045e-05 0.0 0.0 0.0 0.0
1.906 -0.5498863458633423 -0.5967719554901123 4.233792424201965e-05 -5.070120096206665e-06 0.0 0.0 0.0 0.0
1.907 -0.5504209995269775 -0.5927911996841431 1.6353093087673187e-05 1.3533048331737518e-05 0.0 0.0 0.0 0.0
1.908 -0.5553469061851501 -0.5904862284660339 2.641882747411728e-05 -3.784243017435074e-05 0.0 0.0 0.0 0.0
1.909 -0.5539081692695618 -0.5941013097763062 2.1345913410186768e-05 7.119029760360718e-06 0.0 0.0 0.0 0.0
1.91 -0.554924726486206 -0.5905472040176392 1.7707236111164093e-05 -2.6154331862926483e-05 0.0 0.0 0.0 0.0
1.911 -0.555967390537262 -0.591390073299408 1.6470439732074738e-05 -1.6995705664157867e-05 0.0 0.0 0.0 0.0
1.912 -0.5558581948280334 -0.5905567407608032 5.893409252166748e-06 6.454065442085266e-06 0.0 0.0 0.0 0.0
1.913 -0.5578628778457642 -0.5883285999298096 2.5641173124313354e-05 -3.424752503633499e-05 0.0 0.0 0.0 0.0
1.914 -0.5593312382698059 -0.5870196223258972 1.7391517758369446e-05 -1.193024218082428e-05 0.0 0.0 0.0 0.0
1.915 -0.5605545043945312 -0.5858971476554871 8.907169103622437e-06 -3.180466592311859e-06 0.0 0.0 0.0 0.0
1.916 -0.5639063715934753 -0.5843673944473267 3.646034747362137e-05 -9.929761290550232e-06 0.0 0.0 0.0 0.0
1.917 -0.5608159303665161 -0.5866513252258301 5.453824996948242e-05 2.2444874048233032e-06 0.0 0.0 0.0 0.0
1.918 -0.5613924264907837 -0.5812222361564636 5.1544979214668274e-05 -3.786291927099228e-05 0.0 0.0 0.0 0.0
1.919 -0.5671343207359314 -0.5818751454353333 1.3228505849838257e-05 4.336237907409668e-06 0.0 0.0 0.0 0.0
1.92 -0.5645251870155334 -0.5854985117912292 8.349306881427765e-06 -1.5450641512870789e-06 0.0 0.0 0.0 0.0
1.921 -0.5667595863342285 -0.5805572271347046 1.0836869478225708e-05 8.023343980312347e-06 0.0 0.0 0.0 0.0
1.922 -0.5711172223091125 -0.5780594348907471 4.872679710388184e-06 -4.2440369725227356e-05 0.0 0.0 0.0 0.0
1.923 -0.5698218941688538 -0.579951286315918 9.311363101005554e-06 1.0497868061065674e-05 0.0 0.0 0.0 0.0
1.924 -0.5744461417198181 -0.5745751261711121 2.7111731469631195e-05 1.5897676348686218e-05 0.0 0.0 0.0 0.0
1.925 -0.572189211845398 -0.5778677463531494 -1.4975666999816895e-06 5.971640348434448e-06 0.0 0.0 0.0 0.0
1.926 -0.5740594267845154 -0.5764936208724976 -1.3561919331550598e-05 -4.252977669239044e-05 0.0 0.0 0.0 0.0
1.927 -0.5742264986038208 -0.572523832321167 -2.321600914001465e-05 -3.762729465961456e-05 0.0 0.0 0.0 0.0
1.928 -0.5766582489013672 -0.5721871256828308 1.0291114449501038e-05 -2.5568529963493347e-05 0.0 0.0 0.0 0.0
1.929 -0.579556941986084 -0.5731639862060547 -2.9112212359905243e-05 -3.986526280641556e-05 0.0 0.0 0.0 0.0
1.93 -0.5811604261398315 -0.5709484815597534 3.474578261375427e-05 -1.3165175914764404e-05 0.0 0.0 0.0 0.0
1.931 -0.5815821290016174 -0.5687716603279114 1.3028271496295929e-05 -4.38569113612175e-05 0.0 0.0 0.0 0.0
1.932 -0.587394654750824 -0.566571056842804 9.049661457538605e-06 2.1284446120262146e-05 0.0 0.0 0.0 0.0
1.933 -0.5835691094398499 -0.5691945552825928 4.198402166366577e-06 -4.597194492816925e-05 0.0 0.0 0.0 0.0
1.934 -0.5874819159507751 -0.5645166039466858 -2.0825304090976715e-05 -4.290230572223663e-05 0.0 0.0 0.0 0.0
1.935 -0.586509108543396 -0.5662488341331482 -2.5076791644096375e-05 -4.2166560888290405e-05 0.0 0.0 0.0 0.0
1.936 -0.585298478603363 -0.5646635890007019 -2.7942471206188202e-05 -2.555549144744873e-05 0.0 0.0 0.0 0.0
1.937 -0.5897619724273682 -0.561352550983429 -1.0506249964237213e-05 2.0169652998447418e-05 0.0 0.0 0.0 0.0
1.938 -0.5897603631019592 -0.5600790977478027 -1.0862946510314941e-05 -3.0788592994213104e-05 0.0 0.0 0.0 0.0
1.939 -0.5934939980506897 -0.5593273043632507 -1.7918646335601807e-06 -2.7973204851150513e-05 0.0 0.0 0.0 0.0
1.94 -0.5934880375862122 -0.5579851269721985 1.7163343727588654e-05 -2.6979483664035797e-05 0.0 0.0 0.0 0.0
1.941 -0.5941969156265259 -0.5581698417663574 -1.1782161891460419e-05 -2.552662044763565e-05 0.0 0.0 0.0 0.0
1.942 -0.5935531258583069 -0.5590746998786926 3.4878961741924286e-05 -1.9844621419906616e-05 0.0 0.0 0.0 0.0
1.943 -0.5976322889328003 -0.5542561411857605 3.0996277928352356e-05 -3.8537196815013885e-05 0.0 0.0 0.0 0.0
1.944 -0.592989981174469 -0.5603851675987244 -2.5955960154533386e-06 -4.182010889053345e-05 0.0 0.0 0.0 0.0
1.945 -0.6015781760215759 -0.5519379377365112 2.131052315235138e-05 -9.397044777870178e-07 0.0 0.0 0.0 0.0
1.946 -0.5997492074966431 -0.5518091320991516 -7.634982466697693e-06 -1.829303801059723e-05 0.0 0.0 0.0 0.0
1.947 -0.6018082499504089 -0.5494474172592163 -1.362524926662445e-05 -7.858499884605408e-06 0.0 0.0 0.0 0.0
1.948 -0.6015791893005371 -0.5486283898353577 2.9408372938632965e-05 -2.230145037174225e-05 0.0 0.0 0.0 0.0
1.949 -0.60228431224823 -0.5487009286880493 8.866190910339355e-06 1.598615199327469e-05 0.0 0.0 0.0 0.0
1.95 -0.6049808263778687 -0.5461798310279846 -3.6796554923057556e-05 -1.2443400919437408e-05 0.0 0.0 0.0 0.0
1.951 -0.6067962050437927 -0.5457744002342224 -6.585381925106049e-06 -3.246963024139404e-05 0.0 0.0 0.0 0.0
1.952 -0.6072110533714294 -0.5442631840705872 9.057112038135529e-06 2.8030015528202057e-05 0.0 0.0 0.0 0.0
1.953 -0.6089030504226685 -0.5425413846969604 2.6650726795196533e-05 -1.0163523256778717e-05 0.0 0.0 0.0 0.0
1.954 -0.610307514667511 -0.5377557277679443 -2.962164580821991e-05 -3.288872539997101e-05 0.0 0.0 0.0 0.0
1.955 -0.6097370386123657 -0.5421383380889893 -7.058493793010712e-06 1.3994984328746796e-05 0.0 0.0 0.0 0.0
1.956 -0.6086406111717224 -0.5373979806900024 1.3493932783603668e-05 2.5258399546146393e-05 0.0 0.0 0.0 0.0
1.957 -0.6167609691619873 -0.5371783375740051 1.7940998077392578e-05 -1.7179176211357117e-05 0.0 0.0 0.0 0.0
1.958 -0.6141257882118225 -0.5372930765151978 3.244541585445404e-05 -1.2503936886787415e-05 0.0 0.0 0.0 0.0
1.959 -0.6163457632064819 -0.5338099002838135 1.2065283954143524e-05 2.849847078323364e-07 0.0 0.0 0.0 0.0
1.96 -0.6173997521400452 -0.5347146391868591 6.373971700668335e-06 1.8973834812641144e-05 0.0 0.0 0.0 0.0
1.961 -0.617487370967865 -0.5344393849372864 4.190020263195038e-06 3.37967649102211e-05 0.0 0.0 0.0 0.0
1.962 -0.6200702786445618 -0.531688928604126 5.199015140533447e-05 -2.638157457113266e-05 0.0 0.0 0.0 0.0
1.963 -0.6199026107788086 -0.531162679195404 -1.7134472727775574e-05 -1.961551606655121e-05 0.0 0.0 0.0 0.0
1.964 -0.6218783855438232 -0.5290993452072144 3.263074904680252e-05 -5.214475095272064e-06 0.0 0.0 0.0 0.0
1.965 -0.6238152384757996 -0.5252924561500549 1.6070902347564697e-05 -1.0047107934951782e-05 0.0 0.0 0.0 0.0
1.966 -0.6216574907302856 -0.5236397981643677 -2.4106353521347046e-05 -2.4674460291862488e-05 0.0 0.0 0.0 0.0
1.967 -0.6247965097427368 -0.525735080242157 -1.5152618288993835e-06 9.210780262947083e-06 0.0 0.0 0.0 0.0
1.968 -0.6243127584457397 -0.5199851989746094 3.7044286727905273e-05 -3.520213067531586e-05 0.0 0.0 0.0 0.0
1.969 -0.6299178600311279 -0.5215840339660645 -3.129150718450546e-05 -2.286769449710846e-05 0.0 0.0 0.0 0.0
1.97 -0.6272123456001282 -0.5232399702072144 3.536604344844818e-05 -1.5375204384326935e-05 0.0 0.0 0.0 0.0
1.971 -0.6314734220504761 -0.5178695917129517 -6.571412086486816e-06 -8.512288331985474e-07 0.0 0.0 0.0 0.0
1.972 -0.6322965621948242 -0.5172896385192871 3.1130388379096985e-05 -5.3705647587776184e-05 0.0 0.0 0.0 0.0
1.973 -0.6324085593223572 -0.5177046060562134 -2.8145499527454376e-05 6.481073796749115e-06 0.0 0.0 0.0 0.0
1.974 -0.6360412836074829 -0.5142823457717896 -1.3622455298900604e-05 1.0991469025611877e-05 0.0 0.0 0.0 0.0
1.975 -0.6357465386390686 -0.5134671926498413 -1.889839768409729e-05 5.513429641723633e-06 0.0 0.0 0.0 0.0
1.976 -0.6373488903045654 -0.5101661682128906 -2.7620233595371246e-05 -1.58846378326416e-05 0.0 0.0 0.0 0.0
1.977 -0.6366232633590698 -0.5113999843597412 2.447422593832016e-05 -3.513321280479431e-05 0.0 0.0 0.0 0.0
1.978 -0.6368367671966553 -0.5111504793167114 1.6067177057266235e-05 -4.2593106627464294e-05 0.0 0.0 0.0 0.0
1.979 -0.6406077742576599 -0.5071836113929749 1.8889084458351135e-05 -3.106612712144852e-05 0.0 0.0 0.0 0.0
1.98 -0.6393901109695435 -0.5047332644462585 -6.904825568199158e-06 -4.670768976211548e-05 0.0 0.0 0.0 0.0
1.981 -0.6421027183532715 -0.5060886740684509 1.8659047782421112e-05 -4.4842250645160675e-05 0.0 0.0 0.0 0.0
1.982 -0.643668532371521 -0.5041707754135132 3.195367753505707e-05 -1.916196197271347e-05 0.0 0.0 0.0 0.0
1.983 -0.6453534960746765 -0.5022323727607727 -2.2419728338718414e-05 -1.8617138266563416e-06 0.0 0.0 0.0 0.0
1.984 -0.6446543335914612 -0.5041372179985046 -3.2158568501472473e-06 -8.944422006607056e-06 0.0 0.0 0.0 0.0
1.985 -0.6464473605155945 -0.5002447366714478 1.1727213859558105e-05 -1.5638768672943115e-05 0.0 0.0 0.0 0.0
1.986 -0.6479854583740234 -0.49984875321388245 2.878718078136444e-06 -1.6186386346817017e-06 0.0 0.0 0.0 0.0
1.987 -0.6502912044525146 -0.49716073274612427 -2.0740553736686707e-05 -2.1974556148052216e-05 0.0 0.0 0.0 0.0
1.988 -0.6516454815864563 -0.49429619312286377 1.5132129192352295e-05 1.2677162885665894e-05 0.0 0.0 0.0 0.0
1.989 -0.6514244079589844 -0.4948755204677582 -4.1522085666656494e-05 -1.0817311704158783e-05 0.0 0.0 0.0 0.0
1.99 -0.6544328331947327 -0.4917982518672943 1.7278827726840973e-05 6.292946636676788e-06 0.0 0.0 0.0 0.0
1.991 -0.6547147631645203 -0.49106884002685547 2.898275852203369e-05 3.1366944313049316e-06 0.0 0.0 0.0 0.0
1.992 -0.6549144983291626 -0.4895407259464264 1.2288801372051239e-05 3.155972808599472e-05 0.0 0.0 0.0 0.0
1.993 -0.6562149524688721 -0.4902438223361969 -2.6592053472995758e-05 -1.8477439880371094e-05 0.0 0.0 0.0 0.0
1.994 -0.6586194038391113 -0.4863766133785248 2.3490749299526215e-05 -8.237548172473907e-06 0.0 0.0 0.0 0.0
1.995 -0.6589464545249939 -0.48650863766670227 2.4275854229927063e-05 -1.460779458284378e-05 0.0 0.0 0.0 0.0
1.996 -0.6602922677993774 -0.4845637381076813 1.2434087693691254e-05 -4.907418042421341e-05 0.0 0.0 0.0 0.0
1.997 -0.662753701210022 -0.4802905023097992 1.8578022718429565e-05 -3.6784447729587555e-05 0.0 0.0 0.0 0.0
1.998 -0.6627488136291504 -0.4805130362510681 3.817398101091385e-05 1.2174248695373535e-05 0.0 0.0 0.0 0.0
1.999 -0.6630023121833801 -0.4787880778312683 3.2116658985614777e-05 7.5409188866615295e-06 0.0 0.0 0.0 0.0
2.0 -0.6635350584983826 -0.48078930377960205 6.388872861862183e-06 9.336508810520172e-06 0.0 0.0 0.0 0.0
2.001 -0.6671715974807739 -0.47488120198249817 -3.828667104244232e-06 -3.3128075301647186e-05 0.0 0.0 0.0 0.0
2.002 -0.6643922924995422 -0.47561702132225037 -4.075467586517334e-06 -3.0994415283203125e-05 0.0 0.0 0.0 0.0
2.003 -0.6678563952445984 -0.4746456742286682 -1.452770084142685e-05 -1.9554980099201202e-05 0.0 0.0 0.0 0.0
2.004 -0.6687108278274536 -0.46611905097961426 2.300366759300232e-06 -1.686345785856247e-05 0.0 0.0 0.0 0.0
2.005 -0.6707425713539124 -0.47076869010925293 2.240855246782303e-05 -1.866370439529419e-06 0.0 0.0 0.0 0.0
2.006 -0.6717094779014587 -0.4689864218235016 4.064291715621948e-05 -1.9128434360027313e-05 0.0 0.0 0.0 0.0
2.007 -0.6723436117172241 -0.4673858880996704 1.9169412553310394e-05 -1.9263476133346558e-05 0.0 0.0 0.0 0.0
2.008 -0.6750741600990295 -0.4662836492061615 3.351084887981415e-05 1.7862766981124878e-05 0.0 0.0 0.0 0.0
2.009 -0.6758038997650146 -0.46434029936790466 3.866851329803467e-05 -1.5251338481903076e-05 0.0 0.0 0.0 0.0
2.01 -0.6757673025131226 -0.46260493993759155 1.8100254237651825e-05 -7.100403308868408e-06 0.0 0.0 0.0 0.0
2.011 -0.676200807094574 -0.46214812994003296 -2.518296241760254e-05 1.930631697177887e-06 0.0 0.0 0.0 0.0
2.012 -0.6793472170829773 -0.4607071876525879 2.436060458421707e-05 -3.672949969768524e-05 0.0 0.0 0.0 0.0
2.013 -0.6798718571662903 -0.45904505252838135 2.5114044547080994e-05 1.4622695744037628e-05 0.0 0.0 0.0 0.0
2.014 -0.6849364042282104 -0.4538191854953766 -1.5677884221076965e-05 -4.394538700580597e-05 0.0 0.0 0.0 0.0
2.015 -0.6818135380744934 -0.4565545320510864 3.988295793533325e-05 -4.142150282859802e-05 0.0 0.0 0.0 0.0
2.016 -0.683515727519989 -0.4527835547924042 1.7871148884296417e-05 -1.848861575126648e-05 0.0 0.0 0.0 0.0
2.017 -0.6854473948478699 -0.4493460953235626 2.9494985938072205e-06 -3.9186328649520874e-05 0.0 0.0 0.0 0.0
2.018 -0.6866887807846069 -0.45086756348609924 -1.2602657079696655e-05 -2.2409483790397644e-05 0.0 0.0 0.0 0.0
2.019 -0.686711847782135 -0.44917556643486023 2.91457399725914e-05 -3.2388605177402496e-05 0.0 0.0 0.0 0.0
2.02 -0.6876627802848816 -0.4448513388633728 2.317875623703003e-05 -3.915280103683472e-06 0.0 0.0 0.0 0.0
2.021 -0.6889724135398865 -0.4467056691646576 2.300739288330078e-05 -3.787968307733536e-05 0.0 0.0 0.0 0.0
2.022 -0.6914176344871521 -0.44355177879333496 2.574734389781952e-05 -8.589588105678558e-06 0.0 0.0 0.0 0.0
2.023 -0.6938298940658569 -0.44153478741645813 3.0512921512126923e-05 5.434267222881317e-06 0.0 0.0 0.0 0.0
2.024 -0.6932170987129211 -0.4413715600967407 2.374313771724701e-05 4.563480615615845e-06 0.0 0.0 0.0 0.0
2.025 -0.6935036778450012 -0.4388279318809509 6.872229278087616e-06 -5.004648119211197e-05 0.0 0.0 0.0 0.0
2.026 -0.694878876209259 -0.438082754611969 2.508610486984253e-05 5.451031029224396e-06 0.0 0.0 0.0 0.0
2.027 -0.6962608098983765 -0.43544620275497437 2.2044405341148376e-05 -3.010127693414688e-05 0.0 0.0 0.0 0.0
2.028 -0.6952567100524902 -0.4405553340911865 2.5082379579544067e-05 -3.635231405496597e-05 0.0 0.0 0.0 0.0
2.029 -0.6993952393531799 -0.4335770308971405 2.5374814867973328e-05 -2.1299347281455994e-05 0.0 0.0 0.0 0.0
2.03 -0.6993366479873657 -0.4323134124279022 1.2448988854885101e-05 -5.246791988611221e-05 0.0 0.0 0.0 0.0
2.031 -0.7017551064491272 -0.42844218015670776 -7.42543488740921e-06 -1.3144686818122864e-05 0.0 0.0 0.0 0.0
2.032 -0.7033067345619202 -0.42610880732536316 1.7199665307998657e-05 -3.909226506948471e-05 0.0 0.0 0.0 0.0
2.033 -0.7030237317085266 -0.42700737714767456 1.2082047760486603e-05 -4.04994934797287e-05 0.0 0.0 0.0 0.0
2.034 -0.7025215029716492 -0.42669937014579773 3.1785108149051666e-05 -2.158619463443756e-05 0.0 0.0 0.0 0.0
2.035 -0.7037484645843506 -0.42431360483169556 -2.2232532501220703e-05 -2.9396265745162964e-05 0.0 0.0 0.0 0.0
2.036 -0.705592930316925 -0.422826886177063 -3.4030526876449585e-06 -9.065493941307068e-06 0.0 0.0 0.0 0.0
2.037 -0.7076367139816284 -0.41952648758888245 1.833587884902954e-05 -1.1486001312732697e-05 0.0 0.0 0.0 0.0
2.038 -0.7084766626358032 -0.4207276999950409 1.1595897376537323e-05 -1.9321218132972717e-05 0.0 0.0 0.0 0.0
2.039 -0.7096008658409119 -0.4170641601085663 3.757886588573456e-06 -4.253163933753967e-05 0.0 0.0 0.0 0.0
2.04 -0.7107988595962524 -0.4165084660053253 -2.2720545530319214e-05 -5.408935248851776e-05 0.0 0.0 0.0 0.0
2.041 -0.7125369906425476 -0.416286826133728 -2.428889274597168e-06 -4.569068551063538e-06 0.0 0.0 0.0 0.0
2.042 -0.7134308815002441 -0.41158682107925415 -1.5681609511375427e-05 -2.4363398551940918e-05 0.0 0.0 0.0 0.0
2.043 -0.7137699723243713 -0.4098471701145172 8.249655365943909e-06 -2.7297064661979675e-05 0.0 0.0 0.0 0.0
2.044 -0.7158521413803101 -0.4086202085018158 5.150213837623596e-06 1.5232712030410767e-05 0.0 0.0 0.0 0.0
2.045 -0.7170751094818115 -0.40669527649879456 -1.384783536195755e-05 -2.8889626264572144e-05 0.0 0.0 0.0 0.0
2.046 -0.7168147563934326 -0.4055747985839844 -1.2289732694625854e-05 -2.2959895431995392e-05 0.0 0.0 0.0 0.0
2.047 -0.7197610139846802 -0.40103375911712646 2.2020190954208374e-05 -4.588812589645386e-05 0.0 0.0 0.0 0.0
2.048 -0.7203897833824158 -0.4013836085796356 2.4789944291114807e-05 -6.3050538301467896e-06 0.0 0.0 0.0 0.0
2.049 -0.7201611995697021 -0.4007531702518463 -8.068978786468506e-06 -2.2217631340026855e-05 0.0 0.0 0.0 0.0
2.05 -0.7207217812538147 -0.3966982066631317 1.751445233821869e-05 -4.197657108306885e-05 0.0 0.0 0.0 0.0
2.051 -0.7234034538269043 -0.3965635597705841 5.509704351425171e-06 -2.32672318816185e-05 0.0 0.0 0.0 0.0
2.052 -0.7240185737609863 -0.392486035823822 2.4158507585525513e-05 -7.790513336658478e-06 0.0 0.0 0.0 0.0
2.053 -0.7238718271255493 -0.39099550247192383 1.7014332115650177e-05 -1.7658807337284088e-05 0.0 0.0 0.0 0.0
2.054 -0.7258931398391724 -0.3913320302963257 4.4405460357666016e-06 -3.5122036933898926e-05 0.0 0.0 0.0 0.0
2.055 -0.7263088822364807 -0.38973474502563477 -1.22804194688797e-05 -3.0411407351493835e-05 0.0 0.0 0.0 0.0
2.056 -0.7290247678756714 -0.3856552243232727 5.052424967288971e-06 6.664544343948364e-06 0.0 0.0 0.0 0.0
2.057 -0.7309734225273132 -0.38288789987564087 -1.4336779713630676e-05 -2.1389685571193695e-05 0.0 0.0 0.0 0.0
2.058 -0.7289823889732361 -0.38802579045295715 -1.475401222705841e-05 -2.1861866116523743e-05 0.0 0.0 0.0 0.0
2.059 -0.7304601669311523 -0.38202840089797974 -2.609565854072571e-06 3.904104232788086e-06 0.0 0.0 0.0 0.0
2.06 -0.732679545879364 -0.38027194142341614 -2.865586429834366e-05 -2.3049302399158478e-05 0.0 0.0 0.0 0.0
2.061 -0.7327206134796143 -0.38021528720855713 -4.221498966217041e-05 -5.6438148021698e-07 0.0 0.0 0.0 0.0
2.062 -0.7373305559158325 -0.37506088614463806 6.103888154029846e-06 -2.107955515384674e-05 0.0 0.0 0.0 0.0
2.063 -0.7367316484451294 -0.3738044202327728 -8.592382073402405e-06 -1.3103708624839783e-06 0.0 0.0 0.0 0.0
2.064 -0.7371320724487305 -0.3732893466949463 -7.18235969543457e-06 -1.3781711459159851e-05 0.0 0.0 0.0 0.0
2.065 -0.7382273077964783 -0.37284180521965027 -2.8927810490131378e-05 3.67872416973114e-07 0.0 0.0 0.0 0.0
2.066 -0.7385281920433044 -0.37042436003685 -1.712888479232788e-05 -3.421492874622345e-05 0.0 0.0 0.0 0.0
2.067 -0.7391445636749268 -0.3674336373806 -2.819858491420746e-05 1.0612420737743378e-05 0.0 0.0 0.0 0.0
2.068 -0.7423579096794128 -0.366567999124527 -2.5130808353424072e-05 3.2922253012657166e-06 0.0 0.0 0.0 0.0
2.069 -0.7423574924468994 -0.3640298843383789 2.282671630382538e-06 -6.030313670635223e-06 0.0 0.0 0.0 0.0
2.07 -0.7425538301467896 -0.3619566261768341 -3.47113236784935e-05 -3.116205334663391e-06 0.0 0.0 0.0 0.0
2.071 -0.7458396553993225 -0.35939347743988037 -2.793688327074051e-05 2.188701182603836e-05 0.0 0.0 0.0 0.0
2.072 -0.7434327006340027 -0.3589746057987213 -1.0919757187366486e-05 2.3888424038887024e-05 0.0 0.0 0.0 0.0
2.073 -0.7450438141822815 -0.35712432861328125 3.425031900405884e-05 7.733702659606934e-06 0.0 0.0 0.0 0.0
2.074 -0.745968759059906 -0.35661035776138306 -5.323905497789383e-05 -2.421438694000244e-05 0.0 0.0 0.0 0.0
2.075 -0.7462459802627563 -0.35383129119873047 -4.215165972709656e-05 3.907177597284317e-05 0.0 0.0 0.0 0.0
2.076 -0.7500608563423157 -0.3475756347179413 -3.6600977182388306e-05 8.991919457912445e-06 0.0 0.0 0.0 0.0
2.077 -0.7487363815307617 -0.3491579592227936 -1.2774020433425903e-05 2.494361251592636e-05 0.0 0.0 0.0 0.0
2.078 -0.7490586638450623 -0.34819433093070984 1.8388032913208008e-05 3.664940595626831e-05 0.0 0.0 0.0 0.0
2.079 -0.7515333294868469 -0.3426089584827423 1.0035932064056396e-05 1.0983087122440338e-05 0.0 0.0 0.0 0.0
2.08 -0.7529672384262085 -0.343980610370636 -8.651986718177795e-07 3.8700178265571594e-05 0.0 0.0 0.0 0.0
2.081 -0.7510932087898254 -0.3423818349838257 -3.7439167499542236e-07 2.8058886528015137e-05 0.0 0.0 0.0 0.0
2.082 -0.7524223327636719 -0.339473694562912 5.532056093215942e-06 1.923181116580963e-06 0.0 0.0 0.0 0.0
2.083 -0.7527938485145569 -0.3372498154640198 -1.1641532182693481e-06 9.685754776000977e-07 0.0 0.0 0.0 0.0
2.084 -0.7539624571800232 -0.3356676995754242 3.6051496863365173e-06 3.382284194231033e-05 0.0 0.0 0.0 0.0
2.085 -0.7553339600563049 -0.33388039469718933 1.4504417777061462e-05 1.900363713502884e-05 0.0 0.0 0.0 0.0
2.086 -0.7563617825508118 -0.3326438367366791 8.733011782169342e-06 3.0280090868473053e-05 0.0 0.0 0.0 0.0
2.087 -0.7555040717124939 -0.329983651638031 -1.1664815247058868e-05 1.672748476266861e-05 0.0 0.0 0.0 0.0
2.088 -0.7578810453414917 -0.3293679654598236 2.981536090373993e-05 2.1562911570072174e-05 0.0 0.0 0.0 0.0
2.089 -0.7561795115470886 -0.32763585448265076 5.6549906730651855e-06 3.159698098897934e-05 0.0 0.0 0.0 0.0
2.09 -0.7573300004005432 -0.3263080418109894 4.1462481021881104e-05 3.8322992622852325e-05 0.0 0.0 0.0 0.0
2.091 -0.7590134143829346 -0.32102298736572266 2.6901252567768097e-05 7.956288754940033e-06 0.0 0.0 0.0 0.0
2.092 -0.758698582649231 -0.3198876976966858 2.7417205274105072e-05 -1.4484860002994537e-05 0.0 0.0 0.0 0.0
2.093 -0.7585839629173279 -0.3209654986858368 4.9243681132793427e-05 6.946735084056854e-06 0.0 0.0 0.0 0.0
2.094 -0.760607898235321 -0.31699642539024353 2.585817128419876e-05 -7.964670658111572e-06 0.0 0.0 0.0 0.0
2.095 -0.7602550983428955 -0.3171166479587555 2.930406481027603e-05 1.375097781419754e-05 0.0 0.0 0.0 0.0
2.096 -0.761390745639801 -0.31427398324012756 2.999883145093918e-05 -3.1445175409317017e-05 0.0 0.0 0.0 0.0
2.097 -0.7617573142051697 -0.3146272897720337 6.002001464366913e-05 -4.782341420650482e-06 0.0 0.0 0.0 0.0
2.098 -0.761225163936615 -0.3123345971107483 4.6016648411750793e-05 4.95370477437973e-06 0.0 0.0 0.0 0.0
2.099 -0.7641876935958862 -0.30974167585372925 4.7097913920879364e-05 -6.964430212974548e-06 0.0 0.0 0.0 0.0
2.1 -0.7634932398796082 -0.31197020411491394 4.1629187762737274e-05 -2.1276064217090607e-05 0.0 0.0 0.0 0.0
2.101 -0.7651675939559937 -0.30741697549819946 2.4884939193725586e-05 -4.451815038919449e-05 0.0 0.0 0.0 0.0
2.102 -0.7659925222396851 -0.30867403745651245 4.526600241661072e-05 -4.9493275582790375e-05 0.0 0.0 0.0 0.0
2.103 -0.7669110298156738 -0.30660825967788696 1.0493211448192596e-05 -5.757249891757965e-05 0.0 0.0 0.0 0.0
2.104 -0.7682749629020691 -0.30570346117019653 4.831142723560333e-05 -3.836490213871002e-05 0.0 0.0 0.0 0.0
2.105 -0.7694897055625916 -0.3044857680797577 2.739671617746353e-05 -3.4460797905921936e-05 0.0 0.0 0.0 0.0
2.106 -0.7707536220550537 -0.3026483356952667 2.4339184165000916e-05 -5.383230745792389e-05 0.0 0.0 0.0 0.0
2.107 -0.7728677988052368 -0.29854506254196167 8.945353329181671e-06 -8.78702849149704e-05 0.0 0.0 0.0 0.0
2.108 -0.7725570201873779 -0.2980029284954071 -1.909211277961731e-05 -3.177579492330551e-05 0.0 0.0 0.0 0.0
2.109 -0.774758517742157 -0.29442161321640015 -1.0805204510688782e-05 -4.7505833208560944e-05 0.0 0.0 0.0 0.0
2.11 -0.7758895754814148 -0.293753981590271 -1.9292347133159637e-05 -7.600244134664536e-05 0.0 0.0 0.0 0.0
2.111 -0.775145947933197 -0.29446151852607727 6.625428795814514e-06 -5.474220961332321e-05 0.0 0.0 0.0 0.0
2.112 -0.7767900228500366 -0.2909245789051056 -2.0660459995269775e-05 -4.435889422893524e-05 0.0 0.0 0.0 0.0
2.113 -0.7779627442359924 -0.2911805212497711 1.173466444015503e-05 -2.3527070879936218e-05 0.0 0.0 0.0 0.0
2.114 -0.7799045443534851 -0.28637298941612244 -4.373770207166672e-05 -3.433786332607269e-05 0.0 0.0 0.0 0.0
2.115 -0.7815418839454651 -0.2858772277832031 -9.163282811641693e-06 -1.1946074664592743e-05 0.0 0.0 0.0 0.0
2.116 -0.7808151841163635 -0.28507959842681885 8.288770914077759e-07 -2.7817673981189728e-05 0.0 0.0 0.0 0.0
2.117 -0.7835396528244019 -0.2806725800037384 -2.3952685296535492e-05 -4.585646092891693e-05 0.0 0.0 0.0 0.0
2.118 -0.7843263149261475 -0.28090018033981323 -1.9350089132785797e-05 -4.4364482164382935e-05 0.0 0.0 0.0 0.0
2.119 -0.7860711812973022 -0.2755320966243744 -3.5954639315605164e-05 -2.678763121366501e-05 0.0 0.0 0.0 0.0
2.12 -0.7862464189529419 -0.27662011981010437 -4.649162292480469e-06 -3.892742097377777e-05 0.0 0.0 0.0 0.0
2.121 -0.7870613932609558 -0.2748343348503113 2.0876526832580566e-05 -2.8483569622039795e-05 0.0 0.0 0.0 0.0
2.122 -0.7879776358604431 -0.27261096239089966 -3.193505108356476e-06 -2.3480504751205444e-05 0.0 0.0 0.0 0.0
2.123 -0.7899115681648254 -0.2686191499233246 -4.60650771856308e-05 -2.2190622985363007e-05 0.0 0.0 0.0 0.0
2.124 -0.7902485728263855 -0.2704344391822815 -2.586469054222107e-05 -1.1410564184188843e-05 0.0 0.0 0.0 0.0
2.125 -0.7906830310821533 -0.26737651228904724 -2.9765069484710693e-06 -1.102592796087265e-05 0.0 0.0 0.0 0.0
2.126 -0.7919105291366577 -0.26313117146492004 -2.9593706130981445e-05 2.1355226635932922e-06 0.0 0.0 0.0 0.0
2.127 -0.7936173677444458 -0.26208776235580444 -2.9214657843112946e-05 -1.4145858585834503e-05 0.0 0.0 0.0 0.0
2.128 -0.7931765913963318 -0.25948581099510193 1.2500211596488953e-05 -4.263129085302353e-05 0.0 0.0 0.0 0.0
2.129 -0.7951845526695251 -0.25746846199035645 -7.554888725280762e-06 1.2381933629512787e-05 0.0 0.0 0.0 0.0
2.13 -0.795129120349884 -0.2570318877696991 -1.9608065485954285e-05 -1.1343508958816528e-06 0.0 0.0 0.0 0.0
2.131 -0.7969583868980408 -0.2538987100124359 -2.0965933799743652e-05 -1.761317253112793e-05 0.0 0.0 0.0 0.0
2.132 -0.7980050444602966 -0.2517315149307251 -4.877336323261261e-06 9.056180715560913e-06 0.0 0.0 0.0 0.0
2.133 -0.7973923087120056 -0.25378724932670593 -1.5587545931339264e-05 5.832873284816742e-06 0.0 0.0 0.0 0.0
2.134 -0.7993651032447815 -0.24660861492156982 -8.493661880493164e-07 -5.890615284442902e-06 0.0 0.0 0.0 0.0
2.135 -0.7999639511108398 -0.24630315601825714 -2.6152469217777252e-05 -1.6903504729270935e-06 0.0 0.0 0.0 0.0
2.136 -0.7988341450691223 -0.2443469613790512 1.9049271941184998e-05 2.0097941160202026e-05 0.0 0.0 0.0 0.0
2.137 -0.8023532032966614 -0.24030330777168274 -1.404155045747757e-05 -1.539289951324463e-05 0.0 0.0 0.0 0.0
2.138 -0.8031212091445923 -0.23911626636981964 -1.051928848028183e-05 -7.526017725467682e-06 0.0 0.0 0.0 0.0
2.139 -0.803192675113678 -0.2379031479358673 -2.300366759300232e-06 -1.884251832962036e-05 0.0 0.0 0.0 0.0
2.14 -0.8047550916671753 -0.23526644706726074 -4.8140063881874084e-06 5.885958671569824e-06 0.0 0.0 0.0 0.0
2.141 -0.8045403957366943 -0.23508061468601227 -1.922808587551117e-05 9.033828973770142e-07 0.0 0.0 0.0 0.0
2.142 -0.8051968812942505 -0.23164623975753784 -9.791925549507141e-06 -2.937670797109604e-05 0.0 0.0 0.0 0.0
2.143 -0.807206928730011 -0.2287527471780777 -2.034660428762436e-05 3.5762786865234375e-07 0.0 0.0 0.0 0.0
2.144 -0.8072558045387268 -0.22896048426628113 1.101754605770111e-06 4.920177161693573e-06 0.0 0.0 0.0 0.0
2.145 -0.8086646795272827 -0.22429615259170532 -3.636069595813751e-05 1.313723623752594e-05 0.0 0.0 0.0 0.0
2.146 -0.8095139265060425 -0.22325532138347626 8.28225165605545e-06 1.8377788364887238e-05 0.0 0.0 0.0 0.0
2.147 -0.80946946144104 -0.2219621241092682 -2.1981075406074524e-05 1.660175621509552e-05 0.0 0.0 0.0 0.0
2.148 -0.8113370537757874 -0.21827968955039978 -2.7905218303203583e-05 1.7072074115276337e-05 0.0 0.0 0.0 0.0
2.149 -0.8110260963439941 -0.2192404419183731 -1.9019469618797302e-05 1.990329474210739e-05 0.0 0.0 0.0 0.0
2.15 -0.8121132850646973 -0.21462009847164154 -1.8316321074962616e-05 -3.8584694266319275e-05 0.0 0.0 0.0 0.0
2.151 -0.813262403011322 -0.21247415244579315 9.806826710700989e-07 1.2150965631008148e-05 0.0 0.0 0.0 0.0
2.152 -0.8135280609130859 -0.21252493560314178 -3.100000321865082e-05 1.61612406373024e-05 0.0 0.0 0.0 0.0
2.153 -0.8136042356491089 -0.20955593883991241 2.753734588623047e-05 -2.0648352801799774e-05 0.0 0.0 0.0 0.0
2.154 -0.8162755966186523 -0.20340986549854279 -3.5108067095279694e-05 9.683892130851746e-06 0.0 0.0 0.0 0.0
2.155 -0.8147134780883789 -0.20684081315994263 -2.5696121156215668e-05 -1.390744000673294e-05 0.0 0.0 0.0 0.0
2.156 -0.8156508207321167 -0.2052227407693863 8.016824722290039e-06 2.6674941182136536e-05 0.0 0.0 0.0 0.0
2.157 -0.8179566264152527 -0.1978866159915924 -7.1283429861068726e-06 -1.3923272490501404e-05 0.0 0.0 0.0 0.0
2.158 -0.8172698616981506 -0.19885219633579254 1.1815689504146576e-05 -1.1379830539226532e-05 0.0 0.0 0.0 0.0
2.159 -0.8181002140045166 -0.19786901772022247 3.135763108730316e-05 -1.3755634427070618e-06 0.0 0.0 0.0 0.0
2.16 -0.8188144564628601 -0.19320198893547058 3.949739038944244e-06 1.3057142496109009e-06 0.0 0.0 0.0 0.0
2.161 -0.8194361329078674 -0.19358964264392853 -2.40374356508255e-06 6.161630153656006e-06 0.0 0.0 0.0 0.0
2.162 -0.8203784227371216 -0.1885293573141098 5.977228283882141e-06 -2.279132604598999e-05 0.0 0.0 0.0 0.0
2.163 -0.8213791847229004 -0.18935629725456238 -6.2389299273490906e-06 2.64681875705719e-05 0.0 0.0 0.0 0.0
2.164 -0.821061372756958 -0.18638594448566437 -1.5027821063995361e-05 2.5646761059761047e-05 0.0 0.0 0.0 0.0
2.165 -0.8227952718734741 -0.18423570692539215 -1.0545365512371063e-05 -8.520670235157013e-06 0.0 0.0 0.0 0.0
2.166 -0.8227596879005432 -0.18465198576450348 -1.5061348676681519e-05 2.9780901968479156e-05 0.0 0.0 0.0 0.0
2.167 -0.8235706686973572 -0.18019601702690125 -9.381212294101715e-06 4.18834388256073e-05 0.0 0.0 0.0 0.0
2.168 -0.8249796032905579 -0.17586177587509155 1.2527219951152802e-05 -1.1545605957508087e-05 0.0 0.0 0.0 0.0
2.169 -0.8248314261436462 -0.17571130394935608 1.1410564184188843e-05 1.3428740203380585e-05 0.0 0.0 0.0 0.0
2.17 -0.8253883123397827 -0.17312152683734894 2.9847025871276855e-05 2.1352432668209076e-05 0.0 0.0 0.0 0.0
2.171 -0.8270362019538879 -0.17009857296943665 1.2896955013275146e-05 2.244114875793457e-05 0.0 0.0 0.0 0.0
2.172 -0.8266947865486145 -0.17050263285636902 7.035210728645325e-06 3.666989505290985e-05 0.0 0.0 0.0 0.0
2.173 -0.8270731568336487 -0.16685926914215088 2.8860755264759064e-05 4.4871121644973755e-06 0.0 0.0 0.0 0.0
2.174 -0.8281543850898743 -0.16533875465393066 5.339272320270538e-05 3.359746187925339e-05 0.0 0.0 0.0 0.0
2.175 -0.8286621570587158 -0.16200613975524902 3.576651215553284e-05 2.2678636014461517e-05 0.0 0.0 0.0 0.0
2.176 -0.8281239867210388 -0.16109667718410492 2.2698193788528442e-05 2.2351741790771484e-08 0.0 0.0 0.0 0.0
2.177 -0.829718291759491 -0.15844608843326569 1.913309097290039e-05 6.807968020439148e-07 0.0 0.0 0.0 0.0
2.178 -0.8292874693870544 -0.15881198644638062 3.501866012811661e-05 3.246963024139404e-05 0.0 0.0 0.0 0.0
2.179 -0.8302402496337891 -0.1543876677751541 3.0220486223697662e-05 8.771196007728577e-06 0.0 0.0 0.0 0.0
2.18 -0.8309438228607178 -0.15296773612499237 2.5286339223384857e-05 2.3041851818561554e-05 0.0 0.0 0.0 0.0
2.181 -0.8316839933395386 -0.15060153603553772 3.1762756407260895e-05 1.1962838470935822e-05 0.0 0.0 0.0 0.0
2.182 -0.8320170044898987 -0.14695078134536743 1.6380101442337036e-05 3.1441450119018555e-06 0.0 0.0 0.0 0.0
2.183 -0.8329273462295532 -0.1475527137517929 1.8855556845664978e-05 2.3524276912212372e-05 0.0 0.0 0.0 0.0
2.184 -0.8328908681869507 -0.1458231508731842 1.5968456864356995e-05 1.1146999895572662e-05 0.0 0.0 0.0 0.0
2.185 -0.8337512016296387 -0.14114323258399963 3.335531800985336e-05 1.0932795703411102e-05 0.0 0.0 0.0 0.0
2.186 -0.834855854511261 -0.13882209360599518 2.919696271419525e-05 1.4104880392551422e-05 0.0 0.0 0.0 0.0
2.187 -0.8343446254730225 -0.13842055201530457 3.8363970816135406e-05 -1.5513040125370026e-05 0.0 0.0 0.0 0.0
2.188 -0.8354253768920898 -0.13293689489364624 4.463084042072296e-05 -7.724389433860779e-06 0.0 0.0 0.0 0.0
2.189 -0.8359988331794739 -0.13484372198581696 4.1034072637557983e-05 2.2545456886291504e-05 0.0 0.0 0.0 0.0
2.19 -0.836004912853241 -0.13069835305213928 1.7443671822547913e-06 -8.401460945606232e-06 0.0 0.0 0.0 0.0
2.191 -0.8374829888343811 -0.12821616232395172 1.602526754140854e-05 2.3973174393177032e-05 0.0 0.0 0.0 0.0
2.192 -0.8371846079826355 -0.1266607940196991 4.638545215129852e-05 1.4374032616615295e-05 0.0 0.0 0.0 0.0
2.193 -0.8379553556442261 -0.12532305717468262 6.971973925828934e-05 -7.609836757183075e-06 0.0 0.0 0.0 0.0
2.194 -0.8384900093078613 -0.12248321622610092 2.1865591406822205e-05 -2.4695880711078644e-05 0.0 0.0 0.0 0.0
2.195 -0.8384135961532593 -0.12178618460893631 3.948528319597244e-05 -1.0678544640541077e-05 0.0 0.0 0.0 0.0
2.196 -0.8398522138595581 -0.11434093117713928 2.8362497687339783e-05 2.8910115361213684e-05 0.0 0.0 0.0 0.0
2.197 -0.8402490615844727 -0.11557287722826004 3.288872539997101e-05 -1.0505318641662598e-06 0.0 0.0 0.0 0.0
2.198 -0.8398191332817078 -0.11330333352088928 2.5962479412555695e-05 -1.3794749975204468e-05 0.0 0.0 0.0 0.0
2.199 -0.8405812978744507 -0.11105092614889145 1.535750925540924e-05 -8.79727303981781e-06 0.0 0.0 0.0 0.0
2.2 -0.8408021330833435 -0.11016149073839188 1.6184523701667786e-05 -7.781200110912323e-06 0.0 0.0 0.0 0.0
2.201 -0.8408594131469727 -0.11023867130279541 4.452746361494064e-05 -3.3945776522159576e-05 0.0 0.0 0.0 0.0
2.202 -0.8417958617210388 -0.10211212188005447 6.059277802705765e-05 -2.1556392312049866e-05 0.0 0.0 0.0 0.0
2.203 -0.8421557545661926 -0.1046256497502327 3.494415432214737e-05 -2.834014594554901e-06 0.0 0.0 0.0 0.0
2.204 -0.8419857025146484 -0.10182317346334457 2.9492191970348358e-05 -6.706453859806061e-06 0.0 0.0 0.0 0.0
2.205 -0.8431679606437683 -0.09708983451128006 4.31649386882782e-05 -3.10949981212616e-05 0.0 0.0 0.0 0.0
2.206 -0.8436097502708435 -0.09724323451519012 3.6096200346946716e-05 -1.0003335773944855e-05 0.0 0.0 0.0 0.0
2.207 -0.8435677886009216 -0.09789291024208069 3.071129322052002e-05 -3.330502659082413e-05 0.0 0.0 0.0 0.0
2.208 -0.844772219657898 -0.09235537797212601 9.717419743537903e-06 -2.4995766580104828e-05 0.0 0.0 0.0 0.0
2.209 -0.8447919487953186 -0.09003672003746033 2.5384128093719482e-05 1.199822872877121e-05 0.0 0.0 0.0 0.0
2.21 -0.8443520665168762 -0.0898478552699089 4.589371383190155e-05 -1.7350539565086365e-06 0.0 0.0 0.0 0.0
2.211 -0.8449516296386719 -0.08489833027124405 5.459878593683243e-05 -1.1473894119262695e-05 0.0 0.0 0.0 0.0
2.212 -0.8458625674247742 -0.08307904750108719 3.5312026739120483e-05 6.210990250110626e-06 0.0 0.0 0.0 0.0
2.213 -0.8461093902587891 -0.08017101883888245 4.302896559238434e-05 -3.307964652776718e-05 0.0 0.0 0.0 0.0
2.214 -0.8460994362831116 -0.078985795378685 1.0542571544647217e-05 -2.7478672564029694e-05 0.0 0.0 0.0 0.0
2.215 -0.8470041155815125 -0.07716519385576248 1.812167465686798e-05 -1.548323780298233e-05 0.0 0.0 0.0 0.0
2.216 -0.8470765948295593 -0.07632354646921158 3.800634294748306e-05 -3.618653863668442e-05 0.0 0.0 0.0 0.0
2.217 -0.8473297357559204 -0.07073437422513962 3.810785710811615e-05 5.995854735374451e-06 0.0 0.0 0.0 0.0
2.218 -0.8479012250900269 -0.07143615931272507 4.7684647142887115e-05 -2.8281472623348236e-05 0.0 0.0 0.0 0.0
2.219 -0.8475355505943298 -0.0710606575012207 1.4866702258586884e-05 -3.3377669751644135e-05 0.0 0.0 0.0 0.0
2.22 -0.8483085632324219 -0.06539040803909302 4.3371692299842834e-05 -1.6709789633750916e-05 0.0 0.0 0.0 0.0
2.221 -0.8484324812889099 -0.06483665853738785 1.4623627066612244e-05 -4.386436194181442e-05 0.0 0.0 0.0 0.0
2.222 -0.8483901619911194 -0.05995568260550499 7.920898497104645e-06 -2.735201269388199e-05 0.0 0.0 0.0 0.0
2.223 -0.8490437865257263 -0.06091691181063652 1.5228986740112305e-05 -3.894045948982239e-05 0.0 0.0 0.0 0.0
2.224 -0.8497951626777649 -0.057872168719768524 3.005005419254303e-05 -8.618459105491638e-06 0.0 0.0 0.0 0.0
2.225 -0.8493375182151794 -0.05625326558947563 3.757420927286148e-05 -2.0675361156463623e-06 0.0 0.0 0.0 0.0
2.226 -0.8498792052268982 -0.05508044362068176 2.7837231755256653e-05 -2.8704293072223663e-05 0.0 0.0 0.0 0.0
2.227 -0.8502445220947266 -0.049236759543418884 1.8315389752388e-05 -3.483425825834274e-05 0.0 0.0 0.0 0.0
2.228 -0.8498497605323792 -0.05147342383861542 -2.9001384973526e-06 -6.182026118040085e-05 0.0 0.0 0.0 0.0
2.229 -0.8510146737098694 -0.04372740164399147 4.153512418270111e-05 -1.176539808511734e-05 0.0 0.0 0.0 0.0
2.23 -0.850857138633728 -0.04314308241009712 2.2615306079387665e-05 -3.372319042682648e-05 0.0 0.0 0.0 0.0
2.231 -0.8512349724769592 -0.04087655246257782 -1.1993572115898132e-05 -3.60952690243721e-05 0.0 0.0 0.0 0.0
2.232 -0.8514031767845154 -0.043989021331071854 3.2257288694381714e-05 -1.674611121416092e-05 0.0 0.0 0.0 0.0
2.233 -0.851370096206665 -0.03564440831542015 4.636123776435852e-06 -2.9955990612506866e-05 0.0 0.0 0.0 0.0
2.234 -0.8515510559082031 -0.038244426250457764 4.5105814933776855e-05 -3.026239573955536e-05 0.0 0.0 0.0 0.0
2.235 -0.8514829874038696 -0.034118667244911194 2.7842819690704346e-05 -3.030523657798767e-06 0.0 0.0 0.0 0.0
2.236 -0.8518580794334412 -0.032342132180929184 7.738359272480011e-06 -8.923932909965515e-06 0.0 0.0 0.0 0.0
2.237 -0.852410078048706 -0.0286407470703125 6.220303475856781e-06 -7.982365787029266e-06 0.0 0.0 0.0 0.0
2.238 -0.8520700931549072 -0.026451440528035164 3.673788160085678e-05 -3.23345884680748e-05 0.0 0.0 0.0 0.0
2.239 -0.852759063243866 -0.022390272468328476 3.006868064403534e-05 -1.1653639376163483e-05 0.0 0.0 0.0 0.0
2.24 -0.853016197681427 -0.024185707792639732 2.5033950805664062e-06 -4.221033304929733e-05 0.0 0.0 0.0 0.0
2.241 -0.8524550199508667 -0.020216548815369606 9.199604392051697e-06 -3.961566835641861e-05 0.0 0.0 0.0 0.0
2.242 -0.8533853888511658 -0.01909775659441948 5.3979456424713135e-06 -1.4875084161758423e-05 0.0 0.0 0.0 0.0
2.243 -0.8526976108551025 -0.01891709305346012 1.3051554560661316e-05 -2.067629247903824e-05 0.0 0.0 0.0 0.0
2.244 -0.8529701828956604 -0.013920124620199203 1.4853663742542267e-05 -2.3388303816318512e-05 0.0 0.0 0.0 0.0
2.245 -0.8537144660949707 -0.009356541559100151 5.748122930526733e-06 -4.956219345331192e-05 0.0 0.0 0.0 0.0
2.246 -0.8532172441482544 -0.010591789148747921 1.514330506324768e-06 -3.180466592311859e-05 0.0 0.0 0.0 0.0
2.247 -0.853342592716217 -0.004562759771943092 -5.559064447879791e-06 -2.1484680473804474e-05 0.0 0.0 0.0 0.0
2.248 -0.8541173338890076 -0.007381107658147812 -1.885928213596344e-06 -3.464799374341965e-05 0.0 0.0 0.0 0.0
2.249 -0.8536726832389832 -0.003973560407757759 -2.062879502773285e-06 -3.388058394193649e-05 0.0 0.0 0.0 0.0
2.25 -0.8536274433135986 0.000707174651324749 1.991167664527893e-06 -3.79364937543869e-05 0.0 0.0 0.0 0.0
2.251 -0.8540542125701904 0.004000886343419552 -1.5933066606521606e-05 -2.1195970475673676e-05 0.0 0.0 0.0 0.0
2.252 -0.8535890579223633 0.00246491190046072 1.0622665286064148e-05 -3.987923264503479e-05 0.0 0.0 0.0 0.0
2.253 -0.8539144992828369 0.005289074964821339 1.301988959312439e-06 -1.7237849533557892e-05 0.0 0.0 0.0 0.0
2.254 -0.8542353510856628 0.007014614529907703 1.5934929251670837e-05 -1.6549602150917053e-05 0.0 0.0 0.0 0.0
2.255 -0.8537763357162476 0.010156880132853985 -1.239776611328125e-05 -4.3050386011600494e-05 0.0 0.0 0.0 0.0
2.256 -0.854276716709137 0.010973592288792133 -2.7581118047237396e-05 -3.1383708119392395e-05 0.0 0.0 0.0 0.0
2.257 -0.8542285561561584 0.013577384874224663 2.185814082622528e-06 -1.0632909834384918e-05 0.0 0.0 0.0 0.0
2.258 -0.8539624214172363 0.01845313422381878 -4.503875970840454e-06 -1.165829598903656e-05 0.0 0.0 0.0 0.0
2.259 -0.8543817400932312 0.01689971797168255 1.1621974408626556e-05 -2.7033500373363495e-05 0.0 0.0 0.0 0.0
2.26 -0.8542037010192871 0.020499061793088913 -7.115304470062256e-07 -3.119930624961853e-05 0.0 0.0 0.0 0.0
2.261 -0.8538898229598999 0.020959263667464256 -1.7263926565647125e-05 -2.1651387214660645e-05 0.0 0.0 0.0 0.0
2.262 -0.8537620902061462 0.027097145095467567 -6.222166121006012e-06 -2.446211874485016e-05 0.0 0.0 0.0 0.0
2.263 -0.8539190888404846 0.027513662353157997 -1.7255544662475586e-05 -3.1220726668834686e-05 0.0 0.0 0.0 0.0
2.264 -0.8532435894012451 0.028768740594387054 -7.892027497291565e-06 -4.398077726364136e-05 0.0 0.0 0.0 0.0
2.265 -0.8533373475074768 0.033216699957847595 -7.204711437225342e-06 -2.793688327074051e-05 0.0 0.0 0.0 0.0
2.266 -0.8536779880523682 0.03495931997895241 -4.155561327934265e-05 -3.7795864045619965e-05 0.0 0.0 0.0 0.0
2.267 -0.8532931804656982 0.03531508147716522 -1.0112300515174866e-05 -4.408974200487137e-05 0.0 0.0 0.0 0.0
2.268 -0.8532617092132568 0.040552765130996704 -9.569339454174042e-06 -2.6023946702480316e-05 0.0 0.0 0.0 0.0
2.269 -0.8531307578086853 0.040171630680561066 -2.6823021471500397e-05 -2.9214657843112946e-05 0.0 0.0 0.0 0.0
2.27 -0.8524119853973389 0.04305798560380936 -1.139473170042038e-05 -6.343889981508255e-05 0.0 0.0 0.0 0.0
2.271 -0.8528578877449036 0.044888053089380264 -1.7220154404640198e-06 -4.377216100692749e-08 0.0 0.0 0.0 0.0
2.272 -0.8523958921432495 0.048632122576236725 2.658925950527191e-06 -1.7766840755939484e-05 0.0 0.0 0.0 0.0
2.273 -0.8519722819328308 0.04944337159395218 -1.1838041245937347e-05 -3.8749538362026215e-05 0.0 0.0 0.0 0.0
2.274 -0.8524733185768127 0.050001177936792374 -2.480391412973404e-05 -2.575572580099106e-05 0.0 0.0 0.0 0.0
2.275 -0.8515065908432007 0.053715936839580536 -4.359707236289978e-05 -8.675269782543182e-06 0.0 0.0 0.0 0.0
2.276 -0.85089111328125 0.0576656311750412 -3.7064775824546814e-05 -2.882629632949829e-05 0.0 0.0 0.0 0.0
2.277 -0.8509001731872559 0.05881894752383232 -5.083531141281128e-05 -8.676201105117798e-06 0.0 0.0 0.0 0.0
2.278 -0.8509071469306946 0.057511016726493835 -2.428889274597168e-05 -1.0516494512557983e-05 0.0 0.0 0.0 0.0
2.279 -0.8498265743255615 0.06322275102138519 -6.473623216152191e-06 -2.585630863904953e-05 0.0 0.0 0.0 0.0
2.28 -0.8497536182403564 0.06390631198883057 -4.309229552745819e-05 -7.696449756622314e-06 0.0 0.0 0.0 0.0
2.281 -0.8495305776596069 0.06529644131660461 -4.109274595975876e-05 -1.974310725927353e-05 0.0 0.0 0.0 0.0
2.282 -0.8486382365226746 0.06818671524524689 -5.167815834283829e-05 5.931593477725983e-06 0.0 0.0 0.0 0.0
2.283 -0.8484627604484558 0.06920561194419861 -2.439785748720169e-05 6.370246410369873e-06 0.0 0.0 0.0 0.0
2.284 -0.8483084440231323 0.07043469697237015 -3.8409605622291565e-05 2.3249536752700806e-05 0.0 0.0 0.0 0.0
2.285 -0.8471646308898926 0.07260915637016296 -3.405380994081497e-05 2.43261456489563e-06 0.0 0.0 0.0 0.0
2.286 -0.8469012975692749 0.07431501150131226 -9.554438292980194e-06 4.382804036140442e-06 0.0 0.0 0.0 0.0
2.287 -0.8466783165931702 0.07702983915805817 -2.1462328732013702e-05 5.363672971725464e-05 0.0 0.0 0.0 0.0
2.288 -0.8457497358322144 0.07831280678510666 3.789551556110382e-06 1.6357749700546265e-05 0.0 0.0 0.0 0.0
2.289 -0.845496654510498 0.08262765407562256 -4.3830834329128265e-05 5.3967349231243134e-05 0.0 0.0 0.0 0.0
2.29 -0.8456369638442993 0.08073362708091736 -1.1001713573932648e-05 1.4044344425201416e-05 0.0 0.0 0.0 0.0
2.291 -0.8448799252510071 0.08225520700216293 -2.143159508705139e-05 1.9023194909095764e-05 0.0 0.0 0.0 0.0
2.292 -0.8448483347892761 0.08580829203128815 -3.245193511247635e-05 4.113558679819107e-05 0.0 0.0 0.0 0.0
2.293 -0.8447964191436768 0.08632455766201019 8.736737072467804e-06 4.926137626171112e-05 0.0 0.0 0.0 0.0
2.294 -0.8438555598258972 0.0887409895658493 5.804933607578278e-06 3.6271288990974426e-05 0.0 0.0 0.0 0.0
2.295 -0.8443841934204102 0.09022363275289536 8.015893399715424e-06 6.489735096693039e-05 0.0 0.0 0.0 0.0
2.296 -0.8444849848747253 0.09035471826791763 -2.454221248626709e-05 4.452373832464218e-05 0.0 0.0 0.0 0.0
2.297 -0.8441872596740723 0.09368441998958588 2.4668872356414795e-05 4.788581281900406e-05 0.0 0.0 0.0 0.0
2.298 -0.8444584608078003 0.09363335371017456 -1.7195940017700195e-05 6.96089118719101e-05 0.0 0.0 0.0 0.0
2.299 -0.8449693322181702 0.09219984710216522 1.6800127923488617e-05 5.524326115846634e-05 0.0 0.0 0.0 0.0
2.3 -0.844553530216217 0.10002079606056213 9.72021371126175e-06 3.123003989458084e-05 0.0 0.0 0.0 0.0
2.301 -0.8450502157211304 0.10147695988416672 1.57821923494339e-05 5.832500755786896e-05 0.0 0.0 0.0 0.0
2.302 -0.8458364009857178 0.09844708442687988 3.507174551486969e-05 3.289617598056793e-05 0.0 0.0 0.0 0.0
2.303 -0.8455565571784973 0.10016897320747375 2.424977719783783e-05 5.3503550589084625e-05 0.0 0.0 0.0 0.0
2.304 -0.8462202548980713 0.1060657724738121 2.8995797038078308e-05 3.630388528108597e-05 0.0 0.0 0.0 0.0
2.305 -0.8461828231811523 0.10441114753484726 3.4829601645469666e-05 4.1019171476364136e-05 0.0 0.0 0.0 0.0
2.306 -0.8457017540931702 0.10965199768543243 2.132449299097061e-05 2.5303103029727936e-05 0.0 0.0 0.0 0.0
2.307 -0.8462079167366028 0.11215773224830627 1.910421997308731e-05 2.2641383111476898e-05 0.0 0.0 0.0 0.0
2.308 -0.846540093421936 0.11189696937799454 3.1840987503528595e-05 2.2549182176589966e-05 0.0 0.0 0.0 0.0
2.309 -0.8460957407951355 0.11368203908205032 6.158370524644852e-05 2.5095418095588684e-05 0.0 0.0 0.0 0.0
2.31 -0.8462617993354797 0.11766815185546875 2.998393028974533e-05 1.7597340047359467e-05 0.0 0.0 0.0 0.0
2.311 -0.8466167449951172 0.11734927445650101 3.547314554452896e-05 2.2018328309059143e-05 0.0 0.0 0.0 0.0
2.312 -0.8462395668029785 0.12008056789636612 5.101412534713745e-05 7.58003443479538e-06 0.0 0.0 0.0 0.0
2.313 -0.8458642959594727 0.1239837184548378 3.9380043745040894e-05 8.196569979190826e-06 0.0 0.0 0.0 0.0
2.314 -0.8464683294296265 0.12426310777664185 4.217121750116348e-05 1.9978731870651245e-05 0.0 0.0 0.0 0.0
2.315 -0.8463072776794434 0.12412142753601074 4.1540712118148804e-05 5.683861672878265e-06 0.0 0.0 0.0 0.0
2.316 -0.8459810018539429 0.12916119396686554 2.2707507014274597e-05 1.3770535588264465e-05 0.0 0.0 0.0 0.0
2.317 -0.8456407785415649 0.1306421160697937 4.222802817821503e-05 2.755783498287201e-05 0.0 0.0 0.0 0.0
2.318 -0.8456254005432129 0.1325094997882843 3.834627568721771e-05 -1.4953315258026123e-05 0.0 0.0 0.0 0.0
2.319 -0.8450548648834229 0.13600580394268036 8.15652310848236e-06 1.4564022421836853e-05 0.0 0.0 0.0 0.0
2.32 -0.8450275659561157 0.1384531408548355 3.658141940832138e-05 2.891756594181061e-06 0.0 0.0 0.0 0.0
2.321 -0.8443908095359802 0.13860636949539185 2.824794501066208e-05 2.109631896018982e-05 0.0 0.0 0.0 0.0
2.322 -0.8449400067329407 0.1413937211036682 5.4164789617061615e-05 -1.2745149433612823e-05 0.0 0.0 0.0 0.0
2.323 -0.8445184230804443 0.14269809424877167 3.509223461151123e-05 2.4691224098205566e-05 0.0 0.0 0.0 0.0
2.324 -0.844578206539154 0.1423487663269043 3.9490871131420135e-05 -1.762527972459793e-05 0.0 0.0 0.0 0.0
2.325 -0.8440444469451904 0.14862816035747528 1.7063692212104797e-05 -3.3816322684288025e-06 0.0 0.0 0.0 0.0
2.326 -0.8432641625404358 0.14873288571834564 2.6428140699863434e-05 -9.987503290176392e-06 0.0 0.0 0.0 0.0
2.327 -0.8430442810058594 0.15178565680980682 4.4451095163822174e-05 -6.975606083869934e-06 0.0 0.0 0.0 0.0
2.328 -0.8440809845924377 0.1515713781118393 1.9310973584651947e-05 -4.676170647144318e-06 0.0 0.0 0.0 0.0
2.329 -0.8426611423492432 0.15300101041793823 1.8248334527015686e-05 -3.937631845474243e-06 0.0 0.0 0.0 0.0
2.33 -0.8418440818786621 0.15838077664375305 4.311744123697281e-05 1.3024546205997467e-05 0.0 0.0 0.0 0.0
2.331 -0.8433215022087097 0.1545824110507965 3.2524578273296356e-05 -2.459995448589325e-05 0.0 0.0 0.0 0.0
2.332 -0.8420400619506836 0.15932630002498627 6.338581442832947e-06 2.8759241104125977e-06 0.0 0.0 0.0 0.0
2.333 -0.8410657048225403 0.165887251496315 2.2358261048793793e-05 -1.4950521290302277e-05 0.0 0.0 0.0 0.0
2.334 -0.8421010971069336 0.1621140092611313 7.2503462433815e-06 -1.3906508684158325e-05 0.0 0.0 0.0 0.0
2.335 -0.8406595587730408 0.16657045483589172 3.3809803426265717e-05 1.1618249118328094e-05 0.0 0.0 0.0 0.0
2.336 -0.8405728340148926 0.168256938457489 1.2814998626708984e-05 -1.5878118574619293e-05 0.0 0.0 0.0 0.0
2.337 -0.8406711220741272 0.16894729435443878 1.1214986443519592e-05 2.1853484213352203e-05 0.0 0.0 0.0 0.0
2.338 -0.8398412466049194 0.17161108553409576 2.1960586309432983e-05 -1.530814915895462e-05 0.0 0.0 0.0 0.0
2.339 -0.8393303751945496 0.1744457483291626 2.309214323759079e-05 -6.645917892456055e-06 0.0 0.0 0.0 0.0
2.34 -0.8393549919128418 0.17584338784217834 5.7036057114601135e-05 -5.788169801235199e-06 0.0 0.0 0.0 0.0
2.341 -0.8383280038833618 0.17759822309017181 1.2376345694065094e-05 -1.118239015340805e-05 0.0 0.0 0.0 0.0
2.342 -0.8380753397941589 0.18024615943431854 2.3455359041690826e-05 -1.4764256775379181e-05 0.0 0.0 0.0 0.0
2.343 -0.837855875492096 0.18200334906578064 1.3414770364761353e-05 8.673407137393951e-06 0.0 0.0 0.0 0.0
2.344 -0.8376517295837402 0.1813846081495285 2.5802291929721832e-05 -6.1569735407829285e-06 0.0 0.0 0.0 0.0
2.345 -0.8369396924972534 0.18558472394943237 3.0016526579856873e-05 -3.024376928806305e-05 0.0 0.0 0.0 0.0
2.346 -0.8362824320793152 0.18799641728401184 1.4975666999816895e-05 -1.5106052160263062e-06 0.0 0.0 0.0 0.0
2.347 -0.8352031707763672 0.18984824419021606 4.1779130697250366e-05 -2.3173168301582336e-05 0.0 0.0 0.0 0.0
2.348 -0.8354425430297852 0.19328662753105164 3.466010093688965e-05 6.250105798244476e-06 0.0 0.0 0.0 0.0
2.349 -0.8357020616531372 0.1910310536623001 2.9179267585277557e-05 -2.9187649488449097e-06 0.0 0.0 0.0 0.0
2.35 -0.8339453935623169 0.1951328068971634 1.2684613466262817e-05 5.261041224002838e-06 0.0 0.0 0.0 0.0
2.351 -0.8338174819946289 0.19912613928318024 3.275927156209946e-05 -8.108094334602356e-06 0.0 0.0 0.0 0.0
2.352 -0.8352671265602112 0.19511231780052185 3.202725201845169e-05 -2.212170511484146e-05 0.0 0.0 0.0 0.0
2.353 -0.8334340453147888 0.2017608880996704 2.242904156446457e-05 -1.1029653251171112e-05 0.0 0.0 0.0 0.0
2.354 -0.8333465456962585 0.20178872346878052 1.0440126061439514e-06 6.560236215591431e-06 0.0 0.0 0.0 0.0
2.355 -0.8321425318717957 0.20438238978385925 1.7510727047920227e-05 -1.7229467630386353e-07 0.0 0.0 0.0 0.0
2.356 -0.8312775492668152 0.20870482921600342 1.735147088766098e-05 1.232977956533432e-05 0.0 0.0 0.0 0.0
2.357 -0.8317281603813171 0.20767706632614136 2.9359012842178345e-05 -1.2573786079883575e-05 0.0 0.0 0.0 0.0
2.358 -0.8308919072151184 0.20794354379177094 2.842675894498825e-05 6.081536412239075e-07 0.0 0.0 0.0 0.0
2.359 -0.8305374979972839 0.21307167410850525 2.2722408175468445e-05 2.061016857624054e-06 0.0 0.0 0.0 0.0
2.36 -0.8310603499412537 0.20990245044231415 1.677684485912323e-05 -2.8549693524837494e-05 0.0 0.0 0.0 0.0
2.361 -0.8294850587844849 0.21338604390621185 4.291534423828125e-06 -6.754882633686066e-06 0.0 0.0 0.0 0.0
2.362 -0.827787458896637 0.22022435069084167 3.425870090723038e-05 1.4300458133220673e-05 0.0 0.0 0.0 0.0
2.363 -0.8285111784934998 0.21808317303657532 6.130896508693695e-06 1.5041790902614594e-05 0.0 0.0 0.0 0.0
2.364 -0.8275699019432068 0.2223520129919052 2.7550384402275085e-05 7.553026080131531e-07 0.0 0.0 0.0 0.0
2.365 -0.8282744884490967 0.22128084301948547 3.427453339099884e-05 1.2214295566082e-05 0.0 0.0 0.0 0.0
2.366 -0.8268576860427856 0.2239157259464264 3.4928321838378906e-05 9.63546335697174e-06 0.0 0.0 0.0 0.0
2.367 -0.8262810111045837 0.2264145314693451 5.515292286872864e-06 -9.436160326004028e-06 0.0 0.0 0.0 0.0
2.368 -0.8262043595314026 0.22676606476306915 8.191913366317749e-06 -6.457790732383728e-06 0.0 0.0 0.0 0.0
2.369 -0.8249229788780212 0.229091614484787 1.209508627653122e-05 -2.3869797587394714e-05 0.0 0.0 0.0 0.0
2.37 -0.8254966139793396 0.2306326925754547 2.4063512682914734e-05 8.121132850646973e-07 0.0 0.0 0.0 0.0
2.371 -0.8246650695800781 0.23150378465652466 1.750420778989792e-05 1.0287389159202576e-05 0.0 0.0 0.0 0.0
2.372 -0.8239545822143555 0.2329588383436203 1.2812204658985138e-05 3.917142748832703e-06 0.0 0.0 0.0 0.0
2.373 -0.8237286806106567 0.23562628030776978 2.1716579794883728e-05 1.35861337184906e-05 0.0 0.0 0.0 0.0
2.374 -0.8237029314041138 0.23418256640434265 -5.49759715795517e-06 4.194676876068115e-06 0.0 0.0 0.0 0.0
2.375 -0.8213126063346863 0.24079643189907074 3.317743539810181e-05 7.030554115772247e-06 0.0 0.0 0.0 0.0
2.376 -0.8228808045387268 0.24038109183311462 4.626251757144928e-05 1.4370307326316833e-06 0.0 0.0 0.0 0.0
2.377 -0.8212955594062805 0.2411194145679474 3.8016587495803833e-06 -1.16787850856781e-06 0.0 0.0 0.0 0.0
2.378 -0.81935715675354 0.24623388051986694 2.912711352109909e-05 1.6452744603157043e-05 0.0 0.0 0.0 0.0
2.379 -0.8193472027778625 0.24724382162094116 2.164393663406372e-05 4.032626748085022e-07 0.0 0.0 0.0 0.0
2.38 -0.819318413734436 0.24787911772727966 1.92420557141304e-05 -6.14020973443985e-06 0.0 0.0 0.0 0.0
2.381 -0.8191971182823181 0.24694611132144928 2.2251158952713013e-05 1.461803913116455e-05 0.0 0.0 0.0 0.0
2.382 -0.8189111948013306 0.2501814365386963 3.19797545671463e-05 -7.990747690200806e-07 0.0 0.0 0.0 0.0
2.383 -0.8178713917732239 0.2519835829734802 3.807339817285538e-05 1.8673017621040344e-06 0.0 0.0 0.0 0.0
2.384 -0.8171224594116211 0.25303202867507935 2.5391578674316406e-05 2.608075737953186e-05 0.0 0.0 0.0 0.0
2.385 -0.8168954253196716 0.2553761303424835 4.641897976398468e-05 1.0564923286437988e-05 0.0 0.0 0.0 0.0
2.386 -0.8155758380889893 0.2555007040500641 9.58424061536789e-06 -1.5009194612503052e-05 0.0 0.0 0.0 0.0
2.387 -0.8151656985282898 0.2589428424835205 2.5511719286441803e-05 -1.3544224202632904e-05 0.0 0.0 0.0 0.0
2.388 -0.8140132427215576 0.2595031261444092 1.6557052731513977e-05 2.151820808649063e-05 0.0 0.0 0.0 0.0
2.389 -0.8139233589172363 0.262299507856369 4.924740642309189e-05 1.9278377294540405e-07 0.0 0.0 0.0 0.0
2.39 -0.8139370083808899 0.26282715797424316 1.8698163330554962e-05 -5.038455128669739e-07 0.0 0.0 0.0 0.0
2.391 -0.8130282759666443 0.26646867394447327 3.786291927099228e-05 -6.27618283033371e-06 0.0 0.0 0.0 0.0
2.392 -0.8126035332679749 0.26488253474235535 3.542378544807434e-05 1.933705061674118e-05 0.0 0.0 0.0 0.0
2.393 -0.8112256526947021 0.26893675327301025 3.84598970413208e-05 2.1734274923801422e-05 0.0 0.0 0.0 0.0
2.394 -0.8114750385284424 0.2691795229911804 3.28943133354187e-06 3.345310688018799e-06 0.0 0.0 0.0 0.0
2.395 -0.8095474243164062 0.2736288905143738 2.497714012861252e-05 1.3438984751701355e-06 0.0 0.0 0.0 0.0
2.396 -0.8095840811729431 0.2741870880126953 1.9225291907787323e-05 -8.905306458473206e-06 0.0 0.0 0.0 0.0
2.397 -0.809380829334259 0.2745170593261719 2.2404827177524567e-05 2.6815570890903473e-05 0.0 0.0 0.0 0.0
2.398 -0.809541642665863 0.2739347815513611 1.7741695046424866e-05 7.912516593933105e-06 0.0 0.0 0.0 0.0
2.399 -0.807121753692627 0.2795076072216034 1.3032928109169006e-05 -2.2975727915763855e-06 0.0 0.0 0.0 0.0
2.4 -0.8075448274612427 0.2798389792442322 1.954101026058197e-05 2.7499161660671234e-05 0.0 0.0 0.0 0.0
2.401 -0.806495726108551 0.2802625894546509 3.1303614377975464e-05 6.157904863357544e-06 0.0 0.0 0.0 0.0
2.402 -0.8059753775596619 0.28346380591392517 1.8551014363765717e-05 2.4298205971717834e-06 0.0 0.0 0.0 0.0
2.403 -0.8055993318557739 0.2838859558105469 -9.47900116443634e-06 -8.440576493740082e-06 0.0 0.0 0.0 0.0
2.404 -0.8040874004364014 0.2856179177761078 1.0448507964611053e-05 3.7848949432373047e-06 0.0 0.0 0.0 0.0
2.405 -0.8024185299873352 0.2902953624725342 -1.9702129065990448e-05 2.3535452783107758e-05 0.0 0.0 0.0 0.0
2.406 -0.8046339750289917 0.2847002148628235 2.7861446142196655e-05 1.8739141523838043e-05 0.0 0.0 0.0 0.0
2.407 -0.8020601272583008 0.2901410162448883 3.7060119211673737e-05 -5.07943332195282e-06 0.0 0.0 0.0 0.0
2.408 -0.8014453053474426 0.29276183247566223 3.399606794118881e-05 -4.157423973083496e-06 0.0 0.0 0.0 0.0
2.409 -0.8019170165061951 0.29160362482070923 3.5869888961315155e-05 2.606865018606186e-05 0.0 0.0 0.0 0.0
2.41 -0.8018651008605957 0.29161858558654785 1.976173371076584e-05 1.236889511346817e-05 0.0 0.0 0.0 0.0
2.411 -0.79982990026474 0.2969658672809601 3.7299469113349915e-05 1.2186355888843536e-05 0.0 0.0 0.0 0.0
2.412 -0.7999622821807861 0.30089253187179565 2.293381839990616e-05 9.252689778804779e-06 0.0 0.0 0.0 0.0
2.413 -0.7991758584976196 0.2961055040359497 4.095491021871567e-05 2.1334737539291382e-05 0.0 0.0 0.0 0.0
2.414 -0.7979161143302917 0.3002879023551941 3.1721778213977814e-05 1.4981254935264587e-05 0.0 0.0 0.0 0.0
2.415 -0.7980594038963318 0.30036354064941406 1.0526739060878754e-05 1.7298385500907898e-05 0.0 0.0 0.0 0.0
2.416 -0.7968758940696716 0.30177125334739685 4.379730671644211e-05 1.7171725630760193e-05 0.0 0.0 0.0 0.0
2.417 -0.7951176166534424 0.3071652352809906 2.4818815290927887e-05 1.7816200852394104e-06 0.0 0.0 0.0 0.0
2.418 -0.7968899607658386 0.3027120530605316 6.38086348772049e-05 1.6242265701293945e-06 0.0 0.0 0.0 0.0
2.419 -0.7944580316543579 0.3077247142791748 2.0050443708896637e-05 2.1412037312984467e-05 0.0 0.0 0.0 0.0
2.42 -0.7940986156463623 0.30998384952545166 9.093433618545532e-06 2.2640451788902283e-06 0.0 0.0 0.0 0.0
2.421 -0.7939858436584473 0.30889609456062317 2.284534275531769e-06 3.3266842365264893e-06 0.0 0.0 0.0 0.0
2.422 -0.7919021248817444 0.3129846751689911 3.610365092754364e-05 4.824250936508179e-07 0.0 0.0 0.0 0.0
2.423 -0.792598307132721 0.3129035532474518 4.450790584087372e-06 -9.029172360897064e-06 0.0 0.0 0.0 0.0
2.424 -0.7915252447128296 0.31317999958992004 3.3680349588394165e-05 3.794301301240921e-05 0.0 0.0 0.0 0.0
2.425 -0.7909167408943176 0.3163140118122101 3.10409814119339e-05 1.6271136701107025e-05 0.0 0.0 0.0 0.0
2.426 -0.7906888127326965 0.3166472017765045 2.8369948267936707e-05 1.0606832802295685e-05 0.0 0.0 0.0 0.0
2.427 -0.7892715334892273 0.3172851502895355 2.242904156446457e-05 2.388283610343933e-05 0.0 0.0 0.0 0.0
2.428 -0.7882251143455505 0.3215939998626709 1.768302172422409e-05 2.5002285838127136e-05 0.0 0.0 0.0 0.0
2.429 -0.7885996699333191 0.320313423871994 1.8259510397911072e-05 1.194048672914505e-05 0.0 0.0 0.0 0.0
2.43 -0.7868706583976746 0.3234204649925232 2.6304274797439575e-05 2.6905909180641174e-05 0.0 0.0 0.0 0.0
2.431 -0.7858628034591675 0.3266317546367645 2.1371059119701385e-05 1.7918646335601807e-05 0.0 0.0 0.0 0.0
2.432 -0.7862026691436768 0.32468098402023315 1.1373311281204224e-05 1.6611069440841675e-05 0.0 0.0 0.0 0.0
2.433 -0.7860754132270813 0.32451876997947693 5.881022661924362e-05 -6.711110472679138e-06 0.0 0.0 0.0 0.0
2.434 -0.7850838899612427 0.32791072130203247 4.212651401758194e-05 1.5087425708770752e-06 0.0 0.0 0.0 0.0
2.435 -0.7849302887916565 0.327411025762558 3.33636999130249e-05 -7.71787017583847e-06 0.0 0.0 0.0 0.0
2.436 -0.7813120484352112 0.33101779222488403 4.5144930481910706e-05 3.1664036214351654e-05 0.0 0.0 0.0 0.0
2.437 -0.7818918824195862 0.33311617374420166 3.5412609577178955e-05 3.0965544283390045e-05 0.0 0.0 0.0 0.0
2.438 -0.7810531854629517 0.33382999897003174 2.6755966246128082e-05 2.1463260054588318e-05 0.0 0.0 0.0 0.0
2.439 -0.7803698182106018 0.33556464314460754 4.2242929339408875e-05 6.523914635181427e-06 0.0 0.0 0.0 0.0
2.44 -0.7808114886283875 0.335339218378067 5.244370549917221e-05 3.1616538763046265e-05 0.0 0.0 0.0 0.0
2.441 -0.779605507850647 0.33654290437698364 3.6131590604782104e-05 2.5153160095214844e-05 0.0 0.0 0.0 0.0
2.442 -0.778121829032898 0.33936038613319397 3.947596997022629e-05 -2.6971101760864258e-06 0.0 0.0 0.0 0.0
2.443 -0.7771403789520264 0.34244316816329956 2.9507093131542206e-05 2.449285238981247e-05 0.0 0.0 0.0 0.0
2.444 -0.7778062224388123 0.3393518924713135 5.931500345468521e-05 2.2192485630512238e-05 0.0 0.0 0.0 0.0
2.445 -0.7768810391426086 0.34081369638442993 4.438776522874832e-05 2.4469569325447083e-05 0.0 0.0 0.0 0.0
2.446 -0.7758899331092834 0.3448086977005005 4.9862079322338104e-05 3.2223761081695557e-06 0.0 0.0 0.0 0.0
2.447 -0.774766206741333 0.34611234068870544 5.4799020290374756e-05 -2.8098002076148987e-06 0.0 0.0 0.0 0.0
2.448 -0.7754595279693604 0.3427964746952057 4.112999886274338e-05 2.5995075702667236e-05 0.0 0.0 0.0 0.0
2.449 -0.7743234038352966 0.3461008369922638 5.6226737797260284e-05 2.5534071028232574e-05 0.0 0.0 0.0 0.0
2.45 -0.7731624841690063 0.347721129655838 4.771724343299866e-05 1.2204982340335846e-05 0.0 0.0 0.0 0.0
2.451 -0.7719725370407104 0.350698322057724 3.9091333746910095e-05 1.8484890460968018e-05 0.0 0.0 0.0 0.0
2.452 -0.7711821794509888 0.35236549377441406 5.017779767513275e-05 -2.5890767574310303e-06 0.0 0.0 0.0 0.0
2.453 -0.7714512944221497 0.3518502116203308 6.466079503297806e-05 -1.3834796845912933e-05 0.0 0.0 0.0 0.0
2.454 -0.768978476524353 0.3546251058578491 8.255802094936371e-05 2.423301339149475e-06 0.0 0.0 0.0 0.0
2.455 -0.7698768377304077 0.35450053215026855 5.8527104556560516e-05 6.9374218583106995e-06 0.0 0.0 0.0 0.0
2.456 -0.7692967653274536 0.353450745344162 3.875605762004852e-05 3.711320459842682e-06 0.0 0.0 0.0 0.0
2.457 -0.7674685120582581 0.3573191165924072 6.637535989284515e-05 -1.8691644072532654e-06 0.0 0.0 0.0 0.0
2.458 -0.766123354434967 0.3611692786216736 4.892796277999878e-05 6.129033863544464e-06 0.0 0.0 0.0 0.0
2.459 -0.7673749327659607 0.3580860495567322 6.15408644080162e-05 2.5175511837005615e-05 0.0 0.0 0.0 0.0
2.46 -0.7669991850852966 0.3617568016052246 4.976429045200348e-05 1.996755599975586e-06 0.0 0.0 0.0 0.0
2.461 -0.7651416063308716 0.3610052466392517 3.666151314973831e-05 9.298324584960938e-06 0.0 0.0 0.0 0.0
2.462 -0.7640587687492371 0.3621320426464081 5.2109360694885254e-05 -5.885958671569824e-07 0.0 0.0 0.0 0.0
2.463 -0.7626410126686096 0.36510875821113586 6.767362356185913e-05 1.4926306903362274e-05 0.0 0.0 0.0 0.0
2.464 -0.7626550793647766 0.3645536005496979 7.517635822296143e-05 8.94349068403244e-06 0.0 0.0 0.0 0.0
2.465 -0.7617512941360474 0.3643086552619934 6.301235407590866e-05 -2.109445631504059e-05 0.0 0.0 0.0 0.0
2.466 -0.759312629699707 0.368972510099411 6.0694292187690735e-05 1.0253861546516418e-06 0.0 0.0 0.0 0.0
2.467 -0.7597801089286804 0.3678799867630005 3.5402365028858185e-05 -1.6967765986919403e-05 0.0 0.0 0.0 0.0
2.468 -0.7580296397209167 0.36947888135910034 7.36285001039505e-05 1.3384036719799042e-05 0.0 0.0 0.0 0.0
2.469 -0.758250892162323 0.371090292930603 3.968365490436554e-05 -2.778228372335434e-05 0.0 0.0 0.0 0.0
2.47 -0.7574355006217957 0.3715619146823883 5.73405995965004e-05 -2.0906329154968262e-05 0.0 0.0 0.0 0.0
2.471 -0.7557253837585449 0.37327665090560913 5.150679498910904e-05 -1.002289354801178e-05 0.0 0.0 0.0 0.0
2.472 -0.7553482055664062 0.37328699231147766 4.403013736009598e-05 -8.706934750080109e-06 0.0 0.0 0.0 0.0
2.473 -0.7549829483032227 0.3727657198905945 6.574764847755432e-05 -2.4781562387943268e-05 0.0 0.0 0.0 0.0
2.474 -0.7514471411705017 0.3769625127315521 2.779252827167511e-05 -1.0719522833824158e-06 0.0 0.0 0.0 0.0
2.475 -0.7525327801704407 0.3759083151817322 5.983375012874603e-05 -2.4444423615932465e-05 0.0 0.0 0.0 0.0
2.476 -0.7515127062797546 0.3771359920501709 4.641711711883545e-05 -1.7947517335414886e-05 0.0 0.0 0.0 0.0
2.477 -0.7498762607574463 0.37944599986076355 7.952190935611725e-05 1.493748277425766e-05 0.0 0.0 0.0 0.0
2.478 -0.7510482668876648 0.3759770691394806 7.566902786493301e-05 -1.3356097042560577e-05 0.0 0.0 0.0 0.0
2.479 -0.7491440773010254 0.37807026505470276 6.559491157531738e-05 -2.4517066776752472e-05 0.0 0.0 0.0 0.0
2.48 -0.7475844621658325 0.38074034452438354 6.805174052715302e-05 2.798624336719513e-06 0.0 0.0 0.0 0.0
2.481 -0.7487348914146423 0.37830621004104614 4.7616660594940186e-05 1.0557472705841064e-05 0.0 0.0 0.0 0.0
2.482 -0.746842622756958 0.3794533908367157 5.627982318401337e-05 -2.0763836801052094e-05 0.0 0.0 0.0 0.0
2.483 -0.74508136510849 0.3833681046962738 3.716908395290375e-05 -5.3085386753082275e-08 0.0 0.0 0.0 0.0
2.484 -0.7489125728607178 0.3799832761287689 5.5031850934028625e-05 -8.746050298213959e-06 0.0 0.0 0.0 0.0
2.485 -0.7455525398254395 0.38175931572914124 4.010554403066635e-05 -2.8304755687713623e-05 0.0 0.0 0.0 0.0
2.486 -0.7433913946151733 0.38385260105133057 4.752166569232941e-05 -1.8709339201450348e-05 0.0 0.0 0.0 0.0
2.487 -0.7449603080749512 0.38119223713874817 6.052479147911072e-05 -2.2759661078453064e-05 0.0 0.0 0.0 0.0
2.488 -0.7444764971733093 0.3827669024467468 3.8605183362960815e-05 -3.107544034719467e-05 0.0 0.0 0.0 0.0
2.489 -0.7438133955001831 0.3855026364326477 4.496704787015915e-05 -4.317518323659897e-05 0.0 0.0 0.0 0.0
2.49 -0.7439507842063904 0.383126825094223 3.5492703318595886e-05 -2.3869797587394714e-05 0.0 0.0 0.0 0.0
2.491 -0.7417482137680054 0.386631578207016 2.9760412871837616e-05 -1.5509314835071564e-05 0.0 0.0 0.0 0.0
2.492 -0.7423323392868042 0.387739896774292 1.7435289919376373e-05 -1.6318634152412415e-05 0.0 0.0 0.0 0.0
2.493 -0.7440016865730286 0.384869784116745 5.1205046474933624e-05 -3.0807219445705414e-05 0.0 0.0 0.0 0.0
2.494 -0.7413139343261719 0.39112406969070435 3.21781262755394e-05 -3.772508352994919e-05 0.0 0.0 0.0 0.0
2.495 -0.7424997091293335 0.3895058333873749 1.2645497918128967e-05 -5.308445543050766e-05 0.0 0.0 0.0 0.0
2.496 -0.7416273951530457 0.3902163505554199 3.607012331485748e-05 -2.431124448776245e-05 0.0 0.0 0.0 0.0
2.497 -0.7408463358879089 0.3930615782737732 3.595184534788132e-05 -2.556201070547104e-05 0.0 0.0 0.0 0.0
2.498 -0.741205096244812 0.39174678921699524 1.064501702785492e-05 -1.3042241334915161e-05 0.0 0.0 0.0 0.0
2.499 -0.7409390211105347 0.3935326337814331 4.890281707048416e-05 -2.086721360683441e-05 0.0 0.0 0.0 0.0
2.5 -0.741454005241394 0.39239537715911865 4.057586193084717e-05 -1.4329329133033752e-05 0.0 0.0 0.0 0.0
2.501 -0.740237832069397 0.3964116871356964 3.306195139884949e-05 4.1192397475242615e-06 0.0 0.0 0.0 0.0
2.502 -0.7405309081077576 0.39450803399086 -4.45730984210968e-06 -5.355104804039001e-07 0.0 0.0 0.0 0.0
2.503 -0.7411162853240967 0.39537888765335083 3.150478005409241e-05 -3.0511990189552307e-05 0.0 0.0 0.0 0.0
2.504 -0.7391232252120972 0.3989464342594147 1.808907836675644e-05 2.0209699869155884e-06 0.0 0.0 0.0 0.0
2.505 -0.7383418679237366 0.4008938670158386 2.6806257665157318e-05 -3.611575812101364e-05 0.0 0.0 0.0 0.0
2.506 -0.7395331859588623 0.40021151304244995 1.7834827303886414e-05 -3.137905150651932e-05 0.0 0.0 0.0 0.0
2.507 -0.738969624042511 0.3995499014854431 1.382920891046524e-05 1.3773329555988312e-05 0.0 0.0 0.0 0.0
2.508 -0.7356468439102173 0.40520238876342773 4.31649386882782e-05 -2.971850335597992e-05 0.0 0.0 0.0 0.0
2.509 -0.7381393909454346 0.40330228209495544 2.9608607292175293e-05 1.5050172805786133e-06 0.0 0.0 0.0 0.0
2.51 -0.7371469736099243 0.4032398462295532 2.20518559217453e-05 -8.04942101240158e-06 0.0 0.0 0.0 0.0
2.511 -0.7364695072174072 0.4057856798171997 1.1641532182693481e-06 -2.0265579223632812e-06 0.0 0.0 0.0 0.0
2.512 -0.7361323833465576 0.40608757734298706 1.6056932508945465e-05 -3.2028183341026306e-06 0.0 0.0 0.0 0.0
2.513 -0.7341930270195007 0.40852436423301697 2.5686807930469513e-05 2.3907050490379333e-06 0.0 0.0 0.0 0.0
2.514 -0.7339215874671936 0.4103119671344757 4.84660267829895e-06 2.2258609533309937e-06 0.0 0.0 0.0 0.0
2.515 -0.7357723712921143 0.4079740047454834 1.5703029930591583e-05 7.876195013523102e-06 0.0 0.0 0.0 0.0
2.516 -0.7331749200820923 0.4111756980419159 3.558490425348282e-05 -1.0147690773010254e-05 0.0 0.0 0.0 0.0
2.517 -0.7319563031196594 0.4144251048564911 2.5163404643535614e-05 -1.6196630895137787e-05 0.0 0.0 0.0 0.0
2.518 -0.7326444387435913 0.4110300540924072 1.894962042570114e-05 -3.814697265625e-06 0.0 0.0 0.0 0.0
2.519 -0.73250812292099 0.4126470685005188 2.02227383852005e-05 1.0571442544460297e-05 0.0 0.0 0.0 0.0
2.52 -0.7306954264640808 0.41581419110298157 2.15824693441391e-05 2.1773390471935272e-05 0.0 0.0 0.0 0.0
2.521 -0.731651782989502 0.4132252037525177 1.695007085800171e-05 -6.011687219142914e-06 0.0 0.0 0.0 0.0
2.522 -0.7301527261734009 0.41628292202949524 8.863396942615509e-06 -6.942078471183777e-06 0.0 0.0 0.0 0.0
2.523 -0.7294172644615173 0.41931265592575073 6.193295121192932e-07 1.4659017324447632e-06 0.0 0.0 0.0 0.0
2.524 -0.7317818999290466 0.41519269347190857 1.3647601008415222e-05 1.1160969734191895e-05 0.0 0.0 0.0 0.0
2.525 -0.728972315788269 0.4193609952926636 3.910716623067856e-05 -4.104338586330414e-06 0.0 0.0 0.0 0.0
2.526 -0.7287043929100037 0.4202316701412201 3.1311996281147e-05 -2.5564804673194885e-05 0.0 0.0 0.0 0.0
2.527 -0.7291619777679443 0.41919219493865967 1.639779657125473e-05 1.929979771375656e-05 0.0 0.0 0.0 0.0
2.528 -0.7276197671890259 0.4216451346874237 1.3655982911586761e-05 -2.408307045698166e-05 0.0 0.0 0.0 0.0
2.529 -0.7275931239128113 0.42355504631996155 3.431364893913269e-05 2.5955960154533386e-06 0.0 0.0 0.0 0.0
2.53 -0.7281437516212463 0.42273759841918945 5.550403147935867e-05 7.526949048042297e-06 0.0 0.0 0.0 0.0
2.531 -0.7255788445472717 0.4248761832714081 6.786547601222992e-06 1.2020580470561981e-05 0.0 0.0 0.0 0.0
2.532 -0.7263395190238953 0.42788881063461304 4.90555539727211e-05 1.7836689949035645e-05 0.0 0.0 0.0 0.0
2.533 -0.725000262260437 0.42728129029273987 1.6565434634685516e-05 -6.395392119884491e-06 0.0 0.0 0.0 0.0
2.534 -0.7255744338035583 0.4259878695011139 6.870366632938385e-06 -1.95307657122612e-05 0.0 0.0 0.0 0.0
2.535 -0.7242142558097839 0.4285281002521515 4.0376558899879456e-05 -4.909001290798187e-06 0.0 0.0 0.0 0.0
2.536 -0.7244423627853394 0.4286727011203766 3.494042903184891e-05 -4.476867616176605e-06 0.0 0.0 0.0 0.0
2.537 -0.7229491472244263 0.4303227365016937 2.039596438407898e-05 -3.958120942115784e-06 0.0 0.0 0.0 0.0
2.538 -0.7219114303588867 0.4322004020214081 3.449153155088425e-05 -7.695518434047699e-06 0.0 0.0 0.0 0.0
2.539 -0.7238572835922241 0.4293948709964752 3.468804061412811e-05 2.441462129354477e-05 0.0 0.0 0.0 0.0
2.54 -0.7223592400550842 0.4329226315021515 3.085564821958542e-05 -1.4081597328186035e-05 0.0 0.0 0.0 0.0
2.541 -0.7204391956329346 0.4329363703727722 1.884251832962036e-05 -5.139969289302826e-06 0.0 0.0 0.0 0.0
2.542 -0.7191721796989441 0.43477755784988403 3.458000719547272e-05 2.9081478714942932e-05 0.0 0.0 0.0 0.0
2.543 -0.7197744250297546 0.43540796637535095 -5.0282105803489685e-06 1.7373822629451752e-05 0.0 0.0 0.0 0.0
2.544 -0.7193287014961243 0.4342149794101715 6.9607049226760864e-06 4.862062633037567e-05 0.0 0.0 0.0 0.0
2.545 -0.7186808586120605 0.43710142374038696 2.245325595140457e-05 1.1553056538105011e-05 0.0 0.0 0.0 0.0
2.546 -0.7188047170639038 0.4370201528072357 -5.146488547325134e-06 2.3341737687587738e-05 0.0 0.0 0.0 0.0
2.547 -0.717819333076477 0.4374332129955292 2.198200672864914e-05 1.3451091945171356e-05 0.0 0.0 0.0 0.0
2.548 -0.7173796892166138 0.4397830069065094 3.676023334264755e-05 1.9147060811519623e-05 0.0 0.0 0.0 0.0
2.549 -0.7173218727111816 0.4402010142803192 5.009770393371582e-05 8.734874427318573e-06 0.0 0.0 0.0 0.0
2.55 -0.7180824279785156 0.4384976625442505 4.268810153007507e-05 2.899765968322754e-05 0.0 0.0 0.0 0.0
2.551 -0.7155089974403381 0.44360411167144775 2.046208828687668e-05 1.4293007552623749e-05 0.0 0.0 0.0 0.0
2.552 -0.716687798500061 0.44111964106559753 3.3795833587646484e-05 6.8051740527153015e-06 0.0 0.0 0.0 0.0
2.553 -0.7155745029449463 0.4437545835971832 2.9423274099826813e-05 -1.7257407307624817e-06 0.0 0.0 0.0 0.0
2.554 -0.7139939665794373 0.4459671378135681 3.7911348044872284e-05 2.2028572857379913e-05 0.0 0.0 0.0 0.0
2.555 -0.715034008026123 0.44463616609573364 8.651986718177795e-06 7.813796401023865e-06 0.0 0.0 0.0 0.0
2.556 -0.715668797492981 0.4479157030582428 3.193225711584091e-05 2.8206035494804382e-05 0.0 0.0 0.0 0.0
2.557 -0.7130224704742432 0.44845423102378845 1.9480474293231964e-05 9.255483746528625e-06 0.0 0.0 0.0 0.0
2.558 -0.7128969430923462 0.4461279809474945 3.1713396310806274e-05 1.4270655810832977e-05 0.0 0.0 0.0 0.0
2.559 -0.711894690990448 0.44727498292922974 2.7944333851337433e-05 -6.919726729393005e-06 0.0 0.0 0.0 0.0
2.56 -0.7099288702011108 0.450176477432251 1.7832964658737183e-05 3.47653403878212e-05 0.0 0.0 0.0 0.0
2.561 -0.7124638557434082 0.44660353660583496 3.517512232065201e-05 5.056150257587433e-06 0.0 0.0 0.0 0.0
2.562 -0.7101104855537415 0.45139819383621216 3.812834620475769e-05 2.639368176460266e-05 0.0 0.0 0.0 0.0
2.563 -0.7098100781440735 0.450640469789505 4.078913480043411e-05 1.7204321920871735e-05 0.0 0.0 0.0 0.0
2.564 -0.7106044888496399 0.45036134123802185 3.840681165456772e-05 4.190951585769653e-08 0.0 0.0 0.0 0.0
2.565 -0.7097712755203247 0.4541762173175812 2.3902393877506256e-05 2.4580396711826324e-05 0.0 0.0 0.0 0.0
2.566 -0.7100189924240112 0.45160555839538574 5.017034709453583e-05 9.28528606891632e-06 0.0 0.0 0.0 0.0
2.567 -0.7090554237365723 0.45374494791030884 6.52465969324112e-05 2.0995736122131348e-05 0.0 0.0 0.0 0.0
2.568 -0.7076740264892578 0.4534015655517578 4.3478794395923615e-05 2.515595406293869e-05 0.0 0.0 0.0 0.0
2.569 -0.7091468572616577 0.4522954523563385 5.757622420787811e-05 -7.86222517490387e-06 0.0 0.0 0.0 0.0
2.57 -0.7054373621940613 0.4593892991542816 4.8597343266010284e-05 9.8375603556633e-06 0.0 0.0 0.0 0.0
2.571 -0.7069776654243469 0.45564913749694824 4.233047366142273e-05 4.628673195838928e-07 0.0 0.0 0.0 0.0
2.572 -0.7045688033103943 0.4579634964466095 4.903227090835571e-05 4.096329212188721e-05 0.0 0.0 0.0 0.0
2.573 -0.7035699486732483 0.46125298738479614 5.100388079881668e-05 1.9819475710391998e-05 0.0 0.0 0.0 0.0
2.574 -0.7091545462608337 0.45591381192207336 6.566382944583893e-05 2.475455403327942e-05 0.0 0.0 0.0 0.0
2.575 -0.7046452164649963 0.45951005816459656 4.893168807029724e-06 4.973262548446655e-07 0.0 0.0 0.0 0.0
2.576 -0.7038296461105347 0.4631873369216919 5.376804620027542e-05 -1.2570060789585114e-05 0.0 0.0 0.0 0.0
2.577 -0.7079527974128723 0.45929908752441406 4.7909095883369446e-05 2.9793009161949158e-05 0.0 0.0 0.0 0.0
2.578 -0.7060752511024475 0.46090027689933777 6.262212991714478e-05 2.1260231733322144e-05 0.0 0.0 0.0 0.0
2.579 -0.7045173645019531 0.46289461851119995 1.2266449630260468e-05 -4.657544195652008e-06 0.0 0.0 0.0 0.0
2.58 -0.7058252096176147 0.46490171551704407 5.472172051668167e-05 2.339482307434082e-05 0.0 0.0 0.0 0.0
2.581 -0.7015642523765564 0.4642767608165741 3.3377669751644135e-05 -1.128949224948883e-05 0.0 0.0 0.0 0.0
2.582 -0.7019177079200745 0.46676191687583923 3.0028633773326874e-05 1.1698342859745026e-05 0.0 0.0 0.0 0.0
2.583 -0.7043174505233765 0.46459493041038513 5.1021575927734375e-05 -2.9616057872772217e-07 0.0 0.0 0.0 0.0
2.584 -0.7017977833747864 0.46622273325920105 6.54216855764389e-05 2.3330561816692352e-05 0.0 0.0 0.0 0.0
2.585 -0.7026986479759216 0.4657750725746155 1.382920891046524e-05 7.340684533119202e-06 0.0 0.0 0.0 0.0
2.586 -0.7017986178398132 0.46717438101768494 6.29303976893425e-05 -9.958632290363312e-06 0.0 0.0 0.0 0.0
2.587 -0.6993615627288818 0.46855536103248596 3.408361226320267e-05 -5.169771611690521e-06 0.0 0.0 0.0 0.0
2.588 -0.6994211673736572 0.47038257122039795 2.874806523323059e-05 -9.527429938316345e-07 0.0 0.0 0.0 0.0
2.589 -0.7012656331062317 0.4699213206768036 5.848333239555359e-05 1.1980533599853516e-05 0.0 0.0 0.0 0.0
2.59 -0.6981375217437744 0.47215545177459717 4.314165562391281e-05 1.623108983039856e-05 0.0 0.0 0.0 0.0
2.591 -0.6990681290626526 0.471431165933609 8.917413651943207e-06 2.9136426746845245e-05 0.0 0.0 0.0 0.0
2.592 -0.6985071897506714 0.47099417448043823 5.390867590904236e-05 1.3463199138641357e-05 0.0 0.0 0.0 0.0
2.593 -0.6983821988105774 0.47137293219566345 4.529301077127457e-05 1.2808479368686676e-05 0.0 0.0 0.0 0.0
2.594 -0.6979702115058899 0.47426605224609375 4.185084253549576e-05 1.8544495105743408e-05 0.0 0.0 0.0 0.0
2.595 -0.6968555450439453 0.4737984538078308 4.63239848613739e-05 2.9197894036769867e-05 0.0 0.0 0.0 0.0
2.596 -0.6963711977005005 0.4736778736114502 3.935210406780243e-05 -2.6710331439971924e-06 0.0 0.0 0.0 0.0
2.597 -0.6978192329406738 0.4736541509628296 5.0525180995464325e-05 1.1194497346878052e-05 0.0 0.0 0.0 0.0
2.598 -0.6963793635368347 0.47783133387565613 5.180574953556061e-05 2.8430484235286713e-05 0.0 0.0 0.0 0.0
2.599 -0.6981340646743774 0.4719211161136627 7.226504385471344e-05 7.711350917816162e-07 0.0 0.0 0.0 0.0
2.6 -0.6968017816543579 0.47629255056381226 2.782512456178665e-05 1.1495314538478851e-05 0.0 0.0 0.0 0.0
2.601 -0.6949614882469177 0.478035569190979 3.5068951547145844e-05 3.2627955079078674e-05 0.0 0.0 0.0 0.0
2.602 -0.697857141494751 0.4779428541660309 2.0677223801612854e-05 -2.230703830718994e-05 0.0 0.0 0.0 0.0
2.603 -0.6947824358940125 0.4788099527359009 6.129033863544464e-05 -2.559274435043335e-06 0.0 0.0 0.0 0.0
2.604 -0.6902573108673096 0.4827190935611725 5.3899362683296204e-05 2.2610649466514587e-05 0.0 0.0 0.0 0.0
2.605 -0.6945133209228516 0.48056724667549133 5.8356672525405884e-05 -1.2770295143127441e-05 0.0 0.0 0.0 0.0
2.606 -0.6943501830101013 0.4801146984100342 4.168320447206497e-05 3.367476165294647e-05 0.0 0.0 0.0 0.0
2.607 -0.6934381723403931 0.4838370978832245 2.7653761208057404e-05 3.732740879058838e-05 0.0 0.0 0.0 0.0
2.608 -0.6929286122322083 0.4803383946418762 6.654299795627594e-05 3.0712224543094635e-05 0.0 0.0 0.0 0.0
2.609 -0.6923090815544128 0.4836920201778412 1.4089047908782959e-05 -1.2182630598545074e-05 0.0 0.0 0.0 0.0
2.61 -0.6961761713027954 0.4814278781414032 5.7180412113666534e-05 -1.1706724762916565e-06 0.0 0.0 0.0 0.0
2.611 -0.6919940114021301 0.48649585247039795 2.4294480681419373e-05 3.607757389545441e-05 0.0 0.0 0.0 0.0
2.612 -0.6929672360420227 0.48306435346603394 5.705934017896652e-05 1.4454126358032227e-05 0.0 0.0 0.0 0.0
2.613 -0.6900699138641357 0.4882558286190033 2.6819296181201935e-05 -6.128102540969849e-07 0.0 0.0 0.0 0.0
2.614 -0.6912802457809448 0.4878283143043518 6.492156535387039e-05 6.570480763912201e-06 0.0 0.0 0.0 0.0
2.615 -0.6909120678901672 0.48768964409828186 4.70159575343132e-05 1.3257376849651337e-05 0.0 0.0 0.0 0.0
2.616 -0.6908212304115295 0.48588675260543823 1.728162169456482e-05 3.8504600524902344e-05 0.0 0.0 0.0 0.0
2.617 -0.6885725855827332 0.48789703845977783 5.397666245698929e-05 2.9170885682106018e-05 0.0 0.0 0.0 0.0
2.618 -0.6894458532333374 0.490008682012558 2.5729648768901825e-05 8.719973266124725e-06 0.0 0.0 0.0 0.0
2.619 -0.6891774535179138 0.49090081453323364 2.035684883594513e-05 1.0919757187366486e-05 0.0 0.0 0.0 0.0
2.62 -0.6888889670372009 0.492536723613739 3.887154161930084e-05 -7.472001016139984e-06 0.0 0.0 0.0 0.0
2.621 -0.6864326000213623 0.4947373867034912 4.87789511680603e-05 2.1561048924922943e-05 0.0 0.0 0.0 0.0
2.622 -0.6885566711425781 0.49167975783348083 4.8313289880752563e-05 1.6009435057640076e-05 0.0 0.0 0.0 0.0
2.623 -0.6890904903411865 0.4893333911895752 2.5280751287937164e-05 3.956258296966553e-05 0.0 0.0 0.0 0.0
2.624 -0.6894979476928711 0.49044615030288696 7.541105151176453e-05 -8.28038901090622e-06 0.0 0.0 0.0 0.0
2.625 -0.6891513466835022 0.4926491677761078 3.091339021921158e-05 8.977018296718597e-06 0.0 0.0 0.0 0.0
2.626 -0.6906120777130127 0.491744726896286 3.884080797433853e-05 2.7361325919628143e-05 0.0 0.0 0.0 0.0
2.627 -0.687123715877533 0.49669912457466125 3.3389776945114136e-05 -6.596557796001434e-06 0.0 0.0 0.0 0.0
2.628 -0.6836968660354614 0.4967716634273529 2.2337771952152252e-05 -1.1712312698364258e-05 0.0 0.0 0.0 0.0
2.629 -0.6832579374313354 0.4972217381000519 3.910530358552933e-05 -3.2819807529449463e-06 0.0 0.0 0.0 0.0
2.63 -0.6849376559257507 0.49976691603660583 6.917677819728851e-05 1.1154450476169586e-05 0.0 0.0 0.0 0.0
2.631 -0.6878523230552673 0.4975771903991699 2.3838132619857788e-05 -1.016072928905487e-05 0.0 0.0 0.0 0.0
2.632 -0.6854156255722046 0.4987224340438843 4.073046147823334e-05 2.3380853235721588e-05 0.0 0.0 0.0 0.0
2.633 -0.685916543006897 0.4982787072658539 4.11495566368103e-05 1.3290904462337494e-05 0.0 0.0 0.0 0.0
2.634 -0.6842004060745239 0.49785053730010986 2.608075737953186e-05 7.506459951400757e-07 0.0 0.0 0.0 0.0
2.635 -0.6851167678833008 0.5019810199737549 4.14382666349411e-05 1.2850388884544373e-05 0.0 0.0 0.0 0.0
2.636 -0.6843674182891846 0.5011544227600098 5.07524237036705e-05 1.2021511793136597e-05 0.0 0.0 0.0 0.0
2.637 -0.684924304485321 0.5000774264335632 1.687183976173401e-05 6.382353603839874e-06 0.0 0.0 0.0 0.0
2.638 -0.6888558268547058 0.5025644898414612 4.741735756397247e-05 3.597605973482132e-05 0.0 0.0 0.0 0.0
2.639 -0.6835212111473083 0.5032050013542175 2.781488001346588e-05 -1.543387770652771e-05 0.0 0.0 0.0 0.0
2.64 -0.6820328831672668 0.5046528577804565 6.12158328294754e-06 -1.9125640392303467e-05 0.0 0.0 0.0 0.0
2.641 -0.6802204251289368 0.5045192241668701 3.701262176036835e-05 2.2815540432929993e-05 0.0 0.0 0.0 0.0
2.642 -0.6822052001953125 0.505801796913147 5.662441253662109e-07 2.175569534301758e-06 0.0 0.0 0.0 0.0
2.643 -0.6839706301689148 0.5034218430519104 4.7905370593070984e-05 2.058129757642746e-05 0.0 0.0 0.0 0.0
2.644 -0.6817846894264221 0.5095698237419128 1.409929245710373e-05 1.4894641935825348e-05 0.0 0.0 0.0 0.0
2.645 -0.681921660900116 0.5062511563301086 2.0849518477916718e-05 1.8849968910217285e-05 0.0 0.0 0.0 0.0
2.646 -0.6820499897003174 0.5063527822494507 6.299465894699097e-05 2.6324763894081116e-05 0.0 0.0 0.0 0.0
2.647 -0.6821060180664062 0.5102770328521729 5.063321441411972e-05 2.7723610401153564e-05 0.0 0.0 0.0 0.0
2.648 -0.6815201640129089 0.5061288475990295 2.8439797461032867e-05 1.5389174222946167e-05 0.0 0.0 0.0 0.0
2.649 -0.6796260476112366 0.5098718404769897 2.9663555324077606e-05 2.8578564524650574e-05 0.0 0.0 0.0 0.0
2.65 -0.67967689037323 0.5124009251594543 5.6274235248565674e-05 3.139674663543701e-05 0.0 0.0 0.0 0.0
2.651 -0.6793007850646973 0.5097564458847046 5.1544979214668274e-05 3.0013732612133026e-05 0.0 0.0 0.0 0.0
2.652 -0.6770687699317932 0.5100268125534058 3.143772482872009e-05 -1.6335397958755493e-05 0.0 0.0 0.0 0.0
2.653 -0.6832958459854126 0.5103188753128052 5.491543561220169e-05 1.4096498489379883e-05 0.0 0.0 0.0 0.0
2.654 -0.6838707327842712 0.5054605007171631 3.6500394344329834e-05 -9.099021553993225e-06 0.0 0.0 0.0 0.0
2.655 -0.6780650019645691 0.5117104053497314 2.8065405786037445e-05 2.7827918529510498e-05 0.0 0.0 0.0 0.0
2.656 -0.67572021484375 0.5125802159309387 3.961287438869476e-05 -6.971880793571472e-06 0.0 0.0 0.0 0.0
2.657 -0.6803975105285645 0.5096055269241333 4.271604120731354e-05 1.6116537153720856e-05 0.0 0.0 0.0 0.0
2.658 -0.681706428527832 0.5110181570053101 3.894232213497162e-05 6.154179573059082e-06 0.0 0.0 0.0 0.0
2.659 -0.6779606938362122 0.5173178315162659 3.8465484976768494e-05 2.059340476989746e-05 0.0 0.0 0.0 0.0
2.66 -0.6805942058563232 0.5086587071418762 6.421469151973724e-06 3.036297857761383e-05 0.0 0.0 0.0 0.0
2.661 -0.6768818497657776 0.5138698220252991 3.984011709690094e-05 -3.641471266746521e-06 0.0 0.0 0.0 0.0
2.662 -0.6817523241043091 0.5165036916732788 1.4866702258586884e-05 4.073977470397949e-05 0.0 0.0 0.0 0.0
2.663 -0.6759315729141235 0.5168493986129761 2.1542422473430634e-05 -7.115304470062256e-07 0.0 0.0 0.0 0.0
2.664 -0.6769505739212036 0.5130534172058105 5.429796874523163e-05 2.1661631762981415e-05 0.0 0.0 0.0 0.0
2.665 -0.680109441280365 0.5151987075805664 5.5246055126190186e-05 1.7850659787654877e-05 0.0 0.0 0.0 0.0
2.666 -0.6763103604316711 0.5164127349853516 2.0519830286502838e-05 1.475401222705841e-05 0.0 0.0 0.0 0.0
2.667 -0.6756156086921692 0.5169751644134521 2.7948059141635895e-05 1.4469027519226074e-05 0.0 0.0 0.0 0.0
2.668 -0.6755914688110352 0.5152737498283386 2.4701468646526337e-05 1.881830394268036e-05 0.0 0.0 0.0 0.0
2.669 -0.6730254292488098 0.5191646218299866 1.5003606677055359e-05 3.342330455780029e-05 0.0 0.0 0.0 0.0
2.67 -0.6725916266441345 0.5197633504867554 3.248918801546097e-05 4.264619201421738e-05 0.0 0.0 0.0 0.0
2.671 -0.6746174097061157 0.5184483528137207 2.2642314434051514e-05 3.071874380111694e-05 0.0 0.0 0.0 0.0
2.672 -0.6724833846092224 0.5176103711128235 2.0949169993400574e-05 2.5289133191108704e-05 0.0 0.0 0.0 0.0
2.673 -0.6735235452651978 0.5165228247642517 2.883467823266983e-05 5.173124372959137e-05 0.0 0.0 0.0 0.0
2.674 -0.6769613027572632 0.511674702167511 2.3010186851024628e-05 4.2139552533626556e-05 0.0 0.0 0.0 0.0
2.675 -0.6709437370300293 0.5202237367630005 3.2588839530944824e-05 4.777684807777405e-07 0.0 0.0 0.0 0.0
2.676 -0.6721226572990417 0.5169479846954346 3.391969949007034e-05 5.606282502412796e-05 0.0 0.0 0.0 0.0
2.677 -0.675790011882782 0.5150253772735596 2.9006972908973694e-05 6.331130862236023e-06 0.0 0.0 0.0 0.0
2.678 -0.6694734692573547 0.5212803483009338 3.0219554901123047e-05 2.6458874344825745e-05 0.0 0.0 0.0 0.0
2.679 -0.6712931394577026 0.519560694694519 7.003452628850937e-05 6.51748850941658e-05 0.0 0.0 0.0 0.0
2.68 -0.6748713254928589 0.5160130262374878 4.770047962665558e-05 3.2735057175159454e-05 0.0 0.0 0.0 0.0
2.681 -0.671454906463623 0.5221961736679077 9.594950824975967e-05 2.4763867259025574e-05 0.0 0.0 0.0 0.0
2.682 -0.6715332269668579 0.5230377912521362 8.022505789995193e-05 2.7251429855823517e-05 0.0 0.0 0.0 0.0
2.683 -0.6699712872505188 0.5187513828277588 5.290750414133072e-05 3.565475344657898e-05 0.0 0.0 0.0 0.0
2.684 -0.671723484992981 0.5218135714530945 2.4809502065181732e-05 4.146993160247803e-05 0.0 0.0 0.0 0.0
2.685 -0.6722940802574158 0.5214164853096008 8.322484791278839e-05 1.6963109374046326e-05 0.0 0.0 0.0 0.0
2.686 -0.6649803519248962 0.5221469402313232 5.678832530975342e-05 3.106147050857544e-05 0.0 0.0 0.0 0.0
2.687 -0.6713008880615234 0.5223857164382935 8.681323379278183e-05 5.2206218242645264e-05 0.0 0.0 0.0 0.0
2.688 -0.6721638441085815 0.5202451348304749 9.112153202295303e-05 5.107559263706207e-05 0.0 0.0 0.0 0.0
2.689 -0.6744629740715027 0.519192636013031 8.633174002170563e-05 1.1497177183628082e-05 0.0 0.0 0.0 0.0
2.69 -0.674921452999115 0.520126223564148 7.918570190668106e-05 4.480406641960144e-05 0.0 0.0 0.0 0.0
2.691 -0.6732833385467529 0.5244377255439758 8.162297308444977e-05 4.090089350938797e-05 0.0 0.0 0.0 0.0
2.692 -0.672106146812439 0.5292206406593323 6.735231727361679e-05 4.1522085666656494e-05 0.0 0.0 0.0 0.0
2.693 -0.674738883972168 0.5226960182189941 5.544349551200867e-05 1.5622004866600037e-05 0.0 0.0 0.0 0.0
2.694 -0.6730241179466248 0.5273805260658264 6.606709212064743e-05 5.48921525478363e-06 0.0 0.0 0.0 0.0
2.695 -0.6705948710441589 0.5338690876960754 6.09448179602623e-05 -1.8076971173286438e-06 0.0 0.0 0.0 0.0
2.696 -0.6736002564430237 0.5256973505020142 5.559530109167099e-05 -9.192153811454773e-07 0.0 0.0 0.0 0.0
2.697 -0.6739811301231384 0.5288642644882202 0.00010638590902090073 2.9161572456359863e-05 0.0 0.0 0.0 0.0
2.698 -0.6790257096290588 0.5249951481819153 9.923055768013e-05 1.8802471458911896e-05 0.0 0.0 0.0 0.0
2.699 -0.6739676594734192 0.5272523164749146 0.0001039113849401474 5.614757537841797e-05 0.0 0.0 0.0 0.0
2.7 -0.6727738380432129 0.5272018313407898 7.263291627168655e-05 1.8705613911151886e-05 0.0 0.0 0.0 0.0
2.701 -0.6759670972824097 0.531714916229248 8.905492722988129e-05 1.926906406879425e-06 0.0 0.0 0.0 0.0
2.702 -0.6728456616401672 0.5318227410316467 4.047714173793793e-05 -1.0944902896881104e-05 0.0 0.0 0.0 0.0
2.703 -0.6719201803207397 0.537086546421051 7.745251059532166e-05 7.910653948783875e-06 0.0 0.0 0.0 0.0
2.704 -0.676080584526062 0.527472734451294 8.556339889764786e-05 3.1637027859687805e-05 0.0 0.0 0.0 0.0
2.705 -0.6773779392242432 0.5287486910820007 5.068443715572357e-05 -1.56378373503685e-05 0.0 0.0 0.0 0.0
2.706 -0.6726762056350708 0.53581303358078 6.360560655593872e-05 2.96812504529953e-06 0.0 0.0 0.0 0.0
2.707 -0.6768210530281067 0.5295826196670532 9.525846689939499e-05 2.0992010831832886e-06 0.0 0.0 0.0 0.0
2.708 -0.6728323101997375 0.5364915132522583 3.922358155250549e-05 1.8686987459659576e-05 0.0 0.0 0.0 0.0
2.709 -0.6735122203826904 0.5353326201438904 7.887836545705795e-05 3.823079168796539e-06 0.0 0.0 0.0 0.0
2.71 -0.6712816953659058 0.5391451120376587 7.063336670398712e-05 1.7534010112285614e-05 0.0 0.0 0.0 0.0
2.711 -0.6752419471740723 0.535491406917572 4.1777268052101135e-05 -1.9552186131477356e-05 0.0 0.0 0.0 0.0
2.712 -0.6721317172050476 0.5388509035110474 6.019324064254761e-05 -1.671724021434784e-06 0.0 0.0 0.0 0.0
2.713 -0.6799478530883789 0.5347755551338196 5.58244064450264e-05 -3.0926428735256195e-05 0.0 0.0 0.0 0.0
2.714 -0.6729218363761902 0.5386836528778076 4.703551530838013e-05 -7.121823728084564e-06 0.0 0.0 0.0 0.0
2.715 -0.6752042174339294 0.53969806432724 5.175173282623291e-05 1.9443221390247345e-05 0.0 0.0 0.0 0.0
2.716 -0.6759317517280579 0.5395380854606628 4.96692955493927e-05 1.8685124814510345e-05 0.0 0.0 0.0 0.0
2.717 -0.6727529168128967 0.5409485101699829 4.400871694087982e-05 4.344247281551361e-05 0.0 0.0 0.0 0.0
2.718 -0.6715848445892334 0.5385867357254028 1.7412006855010986e-05 -2.418551594018936e-05 0.0 0.0 0.0 0.0
2.719 -0.6723002791404724 0.5440593361854553 9.208358824253082e-05 1.4044344425201416e-05 0.0 0.0 0.0 0.0
2.72 -0.6732239127159119 0.5405575037002563 3.939960151910782e-05 4.103407263755798e-06 0.0 0.0 0.0 0.0
2.721 -0.6753720641136169 0.5399455428123474 4.911981523036957e-05 -8.937902748584747e-06 0.0 0.0 0.0 0.0
2.722 -0.6650516986846924 0.5469582676887512 4.474259912967682e-05 -2.005789428949356e-05 0.0 0.0 0.0 0.0
2.723 -0.6736710071563721 0.5430623292922974 5.7355500757694244e-05 1.5206634998321533e-05 0.0 0.0 0.0 0.0
2.724 -0.6717454195022583 0.5394975543022156 6.316695362329483e-05 -9.061768651008606e-07 0.0 0.0 0.0 0.0
2.725 -0.6672608852386475 0.5442685484886169 4.6321190893650055e-05 1.2355856597423553e-05 0.0 0.0 0.0 0.0
2.726 -0.6739776134490967 0.5448634624481201 5.554966628551483e-05 8.5439532995224e-06 0.0 0.0 0.0 0.0
2.727 -0.6713338494300842 0.5486584901809692 3.79122793674469e-05 6.235577166080475e-05 0.0 0.0 0.0 0.0
2.728 -0.6760643124580383 0.547502875328064 3.9400532841682434e-05 -2.408493310213089e-05 0.0 0.0 0.0 0.0
2.729 -0.6732872128486633 0.547248363494873 7.931143045425415e-06 1.944601535797119e-06 0.0 0.0 0.0 0.0
2.73 -0.6708266735076904 0.5476602911949158 4.3861567974090576e-05 -2.25752592086792e-05 0.0 0.0 0.0 0.0
2.731 -0.6733061671257019 0.5493615865707397 2.5076791644096375e-05 -1.664739102125168e-05 0.0 0.0 0.0 0.0
2.732 -0.6716733574867249 0.5481724739074707 4.6907924115657806e-05 3.149360418319702e-05 0.0 0.0 0.0 0.0
2.733 -0.6759045720100403 0.5417740941047668 2.2693537175655365e-05 -2.2503547370433807e-05 0.0 0.0 0.0 0.0
2.734 -0.6610357761383057 0.5533056855201721 4.279520362615585e-05 4.653818905353546e-06 0.0 0.0 0.0 0.0
2.735 -0.6720815896987915 0.5501387715339661 2.9393471777439117e-05 -9.269453585147858e-06 0.0 0.0 0.0 0.0
2.736 -0.6723717451095581 0.5524008870124817 3.2728537917137146e-05 -5.095265805721283e-06 0.0 0.0 0.0 0.0
2.737 -0.6691408157348633 0.5581347942352295 6.307661533355713e-05 -2.8390437364578247e-05 0.0 0.0 0.0 0.0
2.738 -0.6708590984344482 0.5540759563446045 5.041901022195816e-05 -8.922070264816284e-07 0.0 0.0 0.0 0.0
2.739 -0.6741840243339539 0.5509434938430786 6.859563291072845e-05 3.4574419260025024e-05 0.0 0.0 0.0 0.0
2.74 -0.672872006893158 0.552332878112793 4.3596141040325165e-05 -6.90016895532608e-06 0.0 0.0 0.0 0.0
2.741 -0.6726789474487305 0.5527418851852417 3.6306679248809814e-05 1.612771302461624e-05 0.0 0.0 0.0 0.0
2.742 -0.6752873063087463 0.5508003234863281 5.01507893204689e-05 -1.6060657799243927e-05 0.0 0.0 0.0 0.0
2.743 -0.6758727431297302 0.5536479949951172 4.3365173041820526e-05 1.466553658246994e-05 0.0 0.0 0.0 0.0
2.744 -0.6704159379005432 0.5542603731155396 1.018960028886795e-05 2.2046267986297607e-05 0.0 0.0 0.0 0.0
2.745 -0.6708805561065674 0.5565875768661499 8.219853043556213e-06 3.144051879644394e-05 0.0 0.0 0.0 0.0
2.746 -0.6695579290390015 0.5573779940605164 6.650201976299286e-05 2.055242657661438e-05 0.0 0.0 0.0 0.0
2.747 -0.6701620817184448 0.5579221248626709 2.3982487618923187e-05 -8.18539410829544e-06 0.0 0.0 0.0 0.0
2.748 -0.6685946583747864 0.5567516088485718 2.8592534363269806e-05 4.2586587369441986e-05 0.0 0.0 0.0 0.0
2.749 -0.671975314617157 0.5595892071723938 6.771460175514221e-05 1.5134923160076141e-05 0.0 0.0 0.0 0.0
2.75 -0.6717881560325623 0.5581163763999939 2.8247013688087463e-05 9.676441550254822e-07 0.0 0.0 0.0 0.0
2.751 -0.6714118719100952 0.5604784488677979 2.3838132619857788e-05 -1.3403594493865967e-05 0.0 0.0 0.0 0.0
2.752 -0.6651290059089661 0.5585230588912964 -8.538365364074707e-06 2.1938234567642212e-05 0.0 0.0 0.0 0.0
2.753 -0.6704521775245667 0.5621389746665955 3.9529986679553986e-05 3.073364496231079e-07 0.0 0.0 0.0 0.0
2.754 -0.6681491732597351 0.5600468516349792 2.7350150048732758e-05 2.4682842195034027e-05 0.0 0.0 0.0 0.0
2.755 -0.6725883483886719 0.560128927230835 5.69978728890419e-05 1.8728896975517273e-06 0.0 0.0 0.0 0.0
2.756 -0.6708811521530151 0.5602533221244812 5.890801548957825e-05 5.42663037776947e-05 0.0 0.0 0.0 0.0
2.757 -0.6667075753211975 0.563286304473877 4.759989678859711e-06 -2.1988525986671448e-06 0.0 0.0 0.0 0.0
2.758 -0.6699044704437256 0.5630372166633606 4.993099719285965e-05 -9.04034823179245e-06 0.0 0.0 0.0 0.0
2.759 -0.6687248349189758 0.5655413269996643 2.847425639629364e-05 4.528462886810303e-05 0.0 0.0 0.0 0.0
2.76 -0.6712723970413208 0.5633111000061035 2.6652589440345764e-05 -1.1444091796875e-05 0.0 0.0 0.0 0.0
2.761 -0.6673729419708252 0.5694174766540527 4.843343049287796e-05 3.093574196100235e-05 0.0 0.0 0.0 0.0
2.762 -0.6720454096794128 0.5635507702827454 5.770381540060043e-05 8.624047040939331e-07 0.0 0.0 0.0 0.0
2.763 -0.6689371466636658 0.565601110458374 1.2019649147987366e-05 4.319287836551666e-05 0.0 0.0 0.0 0.0
2.764 -0.6677122116088867 0.5665513873100281 7.83279538154602e-05 2.7543865144252777e-05 0.0 0.0 0.0 0.0
2.765 -0.6718487739562988 0.5628505349159241 4.7567300498485565e-05 4.018563777208328e-05 0.0 0.0 0.0 0.0
2.766 -0.6706238985061646 0.5671805739402771 6.506964564323425e-05 2.1389685571193695e-05 0.0 0.0 0.0 0.0
2.767 -0.6735091805458069 0.5631757378578186 3.868713974952698e-05 2.9550865292549133e-06 0.0 0.0 0.0 0.0
2.768 -0.6702058911323547 0.5660291910171509 3.6871060729026794e-05 3.8217753171920776e-05 0.0 0.0 0.0 0.0
2.769 -0.6710756421089172 0.5697075724601746 3.824103623628616e-05 3.544799983501434e-05 0.0 0.0 0.0 0.0
2.77 -0.6640030145645142 0.5715197324752808 5.894061177968979e-05 2.037733793258667e-05 0.0 0.0 0.0 0.0
2.771 -0.6690873503684998 0.570048451423645 5.434360355138779e-05 6.247777491807938e-05 0.0 0.0 0.0 0.0
2.772 -0.6701510548591614 0.5699159502983093 7.390975952148438e-05 5.492009222507477e-06 0.0 0.0 0.0 0.0
2.773 -0.6722930073738098 0.5660141110420227 6.2539242208004e-05 4.2168423533439636e-05 0.0 0.0 0.0 0.0
2.774 -0.67115318775177 0.5705562233924866 5.176197737455368e-05 -2.6141293346881866e-05 0.0 0.0 0.0 0.0
2.775 -0.6656914353370667 0.573419988155365 4.792027175426483e-05 1.3503246009349823e-05 0.0 0.0 0.0 0.0
2.776 -0.6725212931632996 0.5690965056419373 3.925058990716934e-05 3.193411976099014e-05 0.0 0.0 0.0 0.0
2.777 -0.6690208911895752 0.5730193257331848 6.342306733131409e-05 3.7836842238903046e-05 0.0 0.0 0.0 0.0
2.778 -0.6678236722946167 0.5741976499557495 6.493087857961655e-05 2.039968967437744e-05 0.0 0.0 0.0 0.0
2.779 -0.6705465316772461 0.5752323269844055 2.64681875705719e-05 4.7497451305389404e-08 0.0 0.0 0.0 0.0
2.78 -0.6674541234970093 0.5730420351028442 2.7406960725784302e-05 3.7219375371932983e-05 0.0 0.0 0.0 0.0
2.781 -0.6717642545700073 0.5717576742172241 5.2492134273052216e-05 4.02648001909256e-05 0.0 0.0 0.0 0.0
2.782 -0.6735543012619019 0.5821406245231628 7.359683513641357e-05 3.8183294236660004e-05 0.0 0.0 0.0 0.0
2.783 -0.6683128476142883 0.5764915347099304 4.640687257051468e-05 -7.385388016700745e-06 0.0 0.0 0.0 0.0
2.784 -0.6703909635543823 0.5795484185218811 2.817995846271515e-05 -1.848209649324417e-05 0.0 0.0 0.0 0.0
2.785 -0.6681158542633057 0.5783398747444153 4.385877400636673e-05 1.1947005987167358e-05 0.0 0.0 0.0 0.0
2.786 -0.6655317544937134 0.579421877861023 1.0713934898376465e-05 7.923692464828491e-06 0.0 0.0 0.0 0.0
2.787 -0.6712006330490112 0.5739563703536987 5.073379725217819e-05 4.446785897016525e-05 0.0 0.0 0.0 0.0
2.788 -0.6640656590461731 0.5794681906700134 6.146635860204697e-05 2.9653310775756836e-05 0.0 0.0 0.0 0.0
2.789 -0.6671907901763916 0.581581175327301 3.293342888355255e-05 1.6469508409500122e-05 0.0 0.0 0.0 0.0
2.79 -0.6692753434181213 0.5781498551368713 4.424434155225754e-05 5.317758768796921e-05 0.0 0.0 0.0 0.0
2.791 -0.6668617129325867 0.5805227756500244 3.2483600080013275e-05 7.801689207553864e-06 0.0 0.0 0.0 0.0
2.792 -0.6683469414710999 0.5807647705078125 7.405970245599747e-05 -3.3676624298095703e-06 0.0 0.0 0.0 0.0
2.793 -0.6721358895301819 0.5801316499710083 3.800075501203537e-05 -4.675239324569702e-07 0.0 0.0 0.0 0.0
2.794 -0.6686186194419861 0.583752453327179 4.346109926700592e-05 2.5148503482341766e-05 0.0 0.0 0.0 0.0
2.795 -0.6703477501869202 0.5805456638336182 2.979487180709839e-05 4.220474511384964e-05 0.0 0.0 0.0 0.0
2.796 -0.669161856174469 0.5805782079696655 4.3029896914958954e-05 1.374073326587677e-05 0.0 0.0 0.0 0.0
2.797 -0.6708477139472961 0.583924412727356 5.697179585695267e-05 -1.3339333236217499e-05 0.0 0.0 0.0 0.0
2.798 -0.6676088571548462 0.5841370820999146 3.749784082174301e-05 -2.494826912879944e-05 0.0 0.0 0.0 0.0
2.799 -0.6686170697212219 0.5846552848815918 4.918128252029419e-05 5.573779344558716e-05 0.0 0.0 0.0 0.0
2.8 -0.6749489903450012 0.5840139985084534 5.6500546634197235e-05 3.710482269525528e-05 0.0 0.0 0.0 0.0
2.801 -0.6662017107009888 0.5858677625656128 2.5760382413864136e-06 2.7021393179893494e-05 0.0 0.0 0.0 0.0
2.802 -0.6684053540229797 0.5872752666473389 3.161933273077011e-05 7.329508662223816e-06 0.0 0.0 0.0 0.0
2.803 -0.6665741205215454 0.5836251974105835 9.373482316732407e-05 -2.9886141419410706e-06 0.0 0.0 0.0 0.0
2.804 -0.6687760949134827 0.5883513689041138 1.771841198205948e-05 2.8454698622226715e-05 0.0 0.0 0.0 0.0
2.805 -0.6692060828208923 0.5873705148696899 2.9614195227622986e-05 3.910064697265625e-05 0.0 0.0 0.0 0.0
2.806 -0.6637045741081238 0.5851207971572876 1.5228986740112305e-05 -2.5056302547454834e-05 0.0 0.0 0.0 0.0
2.807 -0.6676453948020935 0.5889816284179688 4.1828490793704987e-05 3.8582831621170044e-05 0.0 0.0 0.0 0.0
2.808 -0.6707449555397034 0.5884796977043152 2.5357119739055634e-05 -2.1276995539665222e-05 0.0 0.0 0.0 0.0
2.809 -0.6685033440589905 0.5873783230781555 6.164610385894775e-05 1.6067177057266235e-05 0.0 0.0 0.0 0.0
2.81 -0.6693159341812134 0.5887330770492554 7.27018341422081e-05 1.915358006954193e-05 0.0 0.0 0.0 0.0
2.811 -0.6714272499084473 0.5885050296783447 2.5577843189239502e-05 2.4349428713321686e-05 0.0 0.0 0.0 0.0
2.812 -0.6653991341590881 0.5921853184700012 1.959223300218582e-05 7.586553692817688e-06 0.0 0.0 0.0 0.0
2.813 -0.6669997572898865 0.5929280519485474 5.3048133850097656e-05 -1.0998919606208801e-06 0.0 0.0 0.0 0.0
2.814 -0.6673495769500732 0.5918118953704834 3.957841545343399e-05 2.390798181295395e-05 0.0 0.0 0.0 0.0
2.815 -0.6689148545265198 0.5913365483283997 2.0194798707962036e-05 3.691669553518295e-05 0.0 0.0 0.0 0.0
2.816 -0.667877197265625 0.5943312048912048 1.1905096471309662e-05 1.2083910405635834e-05 0.0 0.0 0.0 0.0
2.817 -0.6671680212020874 0.5914685130119324 1.7634592950344086e-05 -8.216127753257751e-06 0.0 0.0 0.0 0.0
2.818 -0.6635926961898804 0.6006662845611572 3.7204474210739136e-05 2.3934990167617798e-05 0.0 0.0 0.0 0.0
2.819 -0.6696354746818542 0.5919475555419922 3.246404230594635e-05 5.399622023105621e-05 0.0 0.0 0.0 0.0
2.82 -0.6719783544540405 0.5912055373191833 3.032572567462921e-05 2.903863787651062e-05 0.0 0.0 0.0 0.0
2.821 -0.6650699377059937 0.5973031520843506 2.3101456463336945e-05 2.7263537049293518e-05 0.0 0.0 0.0 0.0
2.822 -0.6667530536651611 0.5963821411132812 -9.977258741855621e-06 5.423743277788162e-05 0.0 0.0 0.0 0.0
2.823 -0.667990505695343 0.5932686924934387 6.919261068105698e-05 2.2122636437416077e-05 0.0 0.0 0.0 0.0
2.824 -0.6660971641540527 0.5957810878753662 2.675410360097885e-05 5.118269473314285e-05 0.0 0.0 0.0 0.0
2.825 -0.6661725044250488 0.5977593064308167 7.505808025598526e-05 5.169026553630829e-05 0.0 0.0 0.0 0.0
2.826 -0.6701485514640808 0.5962693691253662 6.8247318267822266e-06 4.800036549568176e-05 0.0 0.0 0.0 0.0
2.827 -0.6718305945396423 0.5980324745178223 1.0584481060504913e-05 3.2816082239151e-05 0.0 0.0 0.0 0.0
2.828 -0.6695214509963989 0.5995365381240845 5.656760185956955e-05 4.1637569665908813e-05 0.0 0.0 0.0 0.0
2.829 -0.6664445400238037 0.6035537719726562 3.869645297527313e-06 5.342811346054077e-05 0.0 0.0 0.0 0.0
2.83 -0.6653764247894287 0.6023754477500916 2.302229404449463e-06 6.056483834981918e-05 0.0 0.0 0.0 0.0
2.831 -0.6692790389060974 0.6001961827278137 4.2494386434555054e-05 -8.724629878997803e-06 0.0 0.0 0.0 0.0
2.832 -0.6681662201881409 0.6015108227729797 1.9976869225502014e-05 1.43442302942276e-05 0.0 0.0 0.0 0.0
2.833 -0.6686122417449951 0.5989696979522705 2.6724301278591156e-05 -9.424053132534027e-06 0.0 0.0 0.0 0.0
2.834 -0.6694656014442444 0.6018846035003662 4.8413872718811035e-05 5.589239299297333e-05 0.0 0.0 0.0 0.0
2.835 -0.6669698357582092 0.6022701859474182 7.1302056312561035e-06 2.2734515368938446e-05 0.0 0.0 0.0 0.0
2.836 -0.6677183508872986 0.6037848591804504 1.5399418771266937e-05 6.215646862983704e-05 0.0 0.0 0.0 0.0
2.837 -0.6663020849227905 0.6052718758583069 1.5163794159889221e-05 -8.804723620414734e-06 0.0 0.0 0.0 0.0
2.838 -0.6688728928565979 0.6022641062736511 3.604032099246979e-05 3.9548613131046295e-05 0.0 0.0 0.0 0.0
2.839 -0.6741258502006531 0.6037973165512085 2.7912668883800507e-05 4.801526665687561e-05 0.0 0.0 0.0 0.0
2.84 -0.6698203682899475 0.6027877330780029 6.140023469924927e-05 2.0549632608890533e-05 0.0 0.0 0.0 0.0
2.841 -0.6714128255844116 0.6050118207931519 5.611218512058258e-06 5.253404378890991e-05 0.0 0.0 0.0 0.0
2.842 -0.666144847869873 0.6058349609375 -1.3372860848903656e-05 2.841465175151825e-05 0.0 0.0 0.0 0.0
2.843 -0.6684147119522095 0.605246365070343 -3.8314610719680786e-05 3.641005605459213e-05 0.0 0.0 0.0 0.0
2.844 -0.6697114109992981 0.6069598197937012 1.473352313041687e-05 4.724878817796707e-05 0.0 0.0 0.0 0.0
2.845 -0.6661160588264465 0.6118351817131042 5.050189793109894e-05 -1.2353062629699707e-05 0.0 0.0 0.0 0.0
2.846 -0.6683462262153625 0.6083104014396667 -9.592622518539429e-07 6.667152047157288e-05 0.0 0.0 0.0 0.0
2.847 -0.6676520705223083 0.6064976453781128 -2.54996120929718e-06 5.8813951909542084e-05 0.0 0.0 0.0 0.0
2.848 -0.6694155335426331 0.6085892915725708 1.2985430657863617e-05 3.5511329770088196e-05 0.0 0.0 0.0 0.0
2.849 -0.6710742712020874 0.605499267578125 4.079565405845642e-05 3.230571746826172e-05 0.0 0.0 0.0 0.0
2.85 -0.6714875102043152 0.6065011620521545 -6.495974957942963e-06 3.3496879041194916e-05 0.0 0.0 0.0 0.0
2.851 -0.6624913811683655 0.6176679134368896 4.872120916843414e-05 2.354104071855545e-05 0.0 0.0 0.0 0.0
2.852 -0.6690882444381714 0.6087501049041748 2.9956921935081482e-05 8.156988769769669e-05 0.0 0.0 0.0 0.0
2.853 -0.6693647503852844 0.6119778156280518 4.251115024089813e-05 4.64143231511116e-05 0.0 0.0 0.0 0.0
2.854 -0.673011302947998 0.6125909686088562 -1.6304664313793182e-05 2.6234425604343414e-05 0.0 0.0 0.0 0.0
2.855 -0.667547345161438 0.6125400066375732 3.5404227674007416e-05 6.621796637773514e-05 0.0 0.0 0.0 0.0
2.856 -0.6690706014633179 0.6103540062904358 2.2863037884235382e-05 3.6796554923057556e-05 0.0 0.0 0.0 0.0
2.857 -0.6655121445655823 0.6105196475982666 1.552421599626541e-05 4.77377325296402e-05 0.0 0.0 0.0 0.0
2.858 -0.668813943862915 0.612760603427887 1.7066486179828644e-05 4.952121526002884e-05 0.0 0.0 0.0 0.0
2.859 -0.6683672070503235 0.6117181777954102 8.444301784038544e-06 0.00010339263826608658 0.0 0.0 0.0 0.0
2.86 -0.6680790781974792 0.614719808101654 2.1675601601600647e-05 9.499769657850266e-05 0.0 0.0 0.0 0.0
2.861 -0.6664315462112427 0.6138217449188232 2.118665724992752e-05 6.802380084991455e-05 0.0 0.0 0.0 0.0
2.862 -0.6665353775024414 0.6155828237533569 7.242616266012192e-05 4.719756543636322e-05 0.0 0.0 0.0 0.0
2.863 -0.6669720411300659 0.6150782704353333 5.912221968173981e-05 6.393622606992722e-05 0.0 0.0 0.0 0.0
2.864 -0.6680620312690735 0.6153792142868042 4.1501596570014954e-05 8.273962885141373e-05 0.0 0.0 0.0 0.0
2.865 -0.6661804914474487 0.6134332418441772 3.2354146242141724e-06 6.386544555425644e-05 0.0 0.0 0.0 0.0
2.866 -0.664242684841156 0.6163563132286072 5.4708682000637054e-05 9.801425039768219e-05 0.0 0.0 0.0 0.0
2.867 -0.6677291989326477 0.6157902479171753 7.810071110725403e-06 4.391279071569443e-05 0.0 0.0 0.0 0.0
2.868 -0.6653650403022766 0.624671995639801 7.526669651269913e-05 0.00013027992099523544 0.0 0.0 0.0 0.0
2.869 -0.6652071475982666 0.6149860620498657 8.518807590007782e-05 6.076600402593613e-05 0.0 0.0 0.0 0.0
2.87 -0.6663037538528442 0.6183594465255737 9.024422615766525e-05 6.46030530333519e-05 0.0 0.0 0.0 0.0
2.871 -0.6652801632881165 0.6180408000946045 4.908256232738495e-05 0.00011191610246896744 0.0 0.0 0.0 0.0
2.872 -0.6661357283592224 0.6177544593811035 8.271727710962296e-05 0.00011864118278026581 0.0 0.0 0.0 0.0
2.873 -0.6638299822807312 0.6177839040756226 7.294584065675735e-05 0.00010065361857414246 0.0 0.0 0.0 0.0
2.874 -0.6662225127220154 0.6190534234046936 6.940960884094238e-05 9.394530206918716e-05 0.0 0.0 0.0 0.0
2.875 -0.6649352312088013 0.6180223822593689 7.371697574853897e-05 5.376432090997696e-05 0.0 0.0 0.0 0.0
2.876 -0.6651172637939453 0.6188759207725525 2.0242296159267426e-05 7.40978866815567e-05 0.0 0.0 0.0 0.0
2.877 -0.6659740805625916 0.6156370639801025 5.801394581794739e-05 4.838034510612488e-05 0.0 0.0 0.0 0.0
2.878 -0.6590426564216614 0.6182488203048706 5.975179374217987e-05 4.4354237616062164e-05 0.0 0.0 0.0 0.0
2.879 -0.6649541258811951 0.6195656061172485 3.0221417546272278e-05 7.892213761806488e-05 0.0 0.0 0.0 0.0
2.88 -0.6672235727310181 0.6148759126663208 9.268335998058319e-05 4.25213947892189e-05 0.0 0.0 0.0 0.0
2.881 -0.669417142868042 0.6158392429351807 4.1940249502658844e-05 7.66245648264885e-05 0.0 0.0 0.0 0.0
2.882 -0.6653388142585754 0.620759904384613 8.519180119037628e-05 8.242577314376831e-05 0.0 0.0 0.0 0.0
2.883 -0.6695201396942139 0.6151866316795349 3.310851752758026e-05 8.318200707435608e-05 0.0 0.0 0.0 0.0
2.884 -0.6690853834152222 0.6156991124153137 7.334724068641663e-05 1.9780360162258148e-05 0.0 0.0 0.0 0.0
2.885 -0.6690303683280945 0.6187471747398376 9.008310735225677e-05 7.43623822927475e-05 0.0 0.0 0.0 0.0
2.886 -0.6693904399871826 0.6176854968070984 3.934744745492935e-05 8.485279977321625e-05 0.0 0.0 0.0 0.0
2.887 -0.6652133464813232 0.6222749352455139 6.492715328931808e-05 2.1037645637989044e-05 0.0 0.0 0.0 0.0
2.888 -0.6720242500305176 0.618878185749054 5.844980478286743e-05 3.8829632103443146e-05 0.0 0.0 0.0 0.0
2.889 -0.6685197353363037 0.6205678582191467 8.832011371850967e-05 6.98678195476532e-06 0.0 0.0 0.0 0.0
2.89 -0.6737406253814697 0.6156058311462402 1.8728896975517273e-05 5.33275306224823e-05 0.0 0.0 0.0 0.0
2.891 -0.6707353591918945 0.6195005774497986 4.3993815779685974e-05 6.364565342664719e-05 0.0 0.0 0.0 0.0
2.892 -0.674054741859436 0.6260001063346863 4.756171256303787e-05 6.187334656715393e-05 0.0 0.0 0.0 0.0
2.893 -0.6692979335784912 0.6232315897941589 9.542331099510193e-06 4.345923662185669e-05 0.0 0.0 0.0 0.0
2.894 -0.6753714084625244 0.6195958256721497 5.102623254060745e-05 8.232425898313522e-05 0.0 0.0 0.0 0.0
2.895 -0.6732749938964844 0.6227471232414246 7.653888314962387e-05 3.340281546115875e-05 0.0 0.0 0.0 0.0
2.896 -0.67430579662323 0.6232165098190308 7.0445239543914795e-06 5.204696208238602e-05 0.0 0.0 0.0 0.0
2.897 -0.675487756729126 0.6215457320213318 2.6755034923553467e-05 2.7023255825042725e-05 0.0 0.0 0.0 0.0
2.898 -0.674127995967865 0.6252050399780273 6.111804395914078e-05 7.075630128383636e-05 0.0 0.0 0.0 0.0
2.899 -0.6750085949897766 0.6224871277809143 6.337836384773254e-05 8.686352521181107e-05 0.0 0.0 0.0 0.0
2.9 -0.6766049861907959 0.6240052580833435 8.817855268716812e-05 8.031446486711502e-05 0.0 0.0 0.0 0.0
2.901 -0.6753805875778198 0.6260802745819092 8.135009557008743e-05 2.221018075942993e-05 0.0 0.0 0.0 0.0
2.902 -0.6750608682632446 0.6286731958389282 0.0001303199678659439 7.178448140621185e-05 0.0 0.0 0.0 0.0
2.903 -0.6777539253234863 0.626634955406189 6.501656025648117e-05 2.2545456886291504e-05 0.0 0.0 0.0 0.0
2.904 -0.6746830940246582 0.628142774105072 9.515229612588882e-05 3.970973193645477e-05 0.0 0.0 0.0 0.0
2.905 -0.6740350723266602 0.6285941004753113 4.9241818487644196e-05 5.65163791179657e-05 0.0 0.0 0.0 0.0
2.906 -0.6799575090408325 0.6263997554779053 9.339116513729095e-05 6.435904651880264e-05 0.0 0.0 0.0 0.0
2.907 -0.6771028637886047 0.6317150592803955 0.00010270066559314728 5.49759715795517e-05 0.0 0.0 0.0 0.0
2.908 -0.675793468952179 0.6315402984619141 3.1011179089546204e-05 5.6442804634571075e-05 0.0 0.0 0.0 0.0
2.909 -0.6786081194877625 0.6304193735122681 7.54939392209053e-05 7.317028939723969e-05 0.0 0.0 0.0 0.0
2.91 -0.6769511103630066 0.6341644525527954 5.906540900468826e-05 4.0288083255290985e-05 0.0 0.0 0.0 0.0
2.911 -0.6771881580352783 0.6327061653137207 7.952377200126648e-05 5.712825804948807e-05 0.0 0.0 0.0 0.0
2.912 -0.6766698360443115 0.6344385743141174 8.706096559762955e-05 2.0607374608516693e-05 0.0 0.0 0.0 0.0
2.913 -0.6759686470031738 0.6309035420417786 8.811894804239273e-05 7.10831955075264e-05 0.0 0.0 0.0 0.0
2.914 -0.6824517250061035 0.6315675377845764 8.503906428813934e-05 4.5501627027988434e-05 0.0 0.0 0.0 0.0
2.915 -0.6791471242904663 0.63242107629776 6.60829246044159e-05 6.943102926015854e-05 0.0 0.0 0.0 0.0
2.916 -0.6704567670822144 0.6397050619125366 6.274692714214325e-05 6.225798279047012e-05 0.0 0.0 0.0 0.0
2.917 -0.675102710723877 0.643356204032898 9.656138718128204e-05 2.6584602892398834e-05 0.0 0.0 0.0 0.0
2.918 -0.679472804069519 0.6348291635513306 0.00010334048420190811 5.455315113067627e-05 0.0 0.0 0.0 0.0
2.919 -0.6786940693855286 0.6360502243041992 4.9637630581855774e-05 6.202887743711472e-05 0.0 0.0 0.0 0.0
2.92 -0.6730074286460876 0.6434239149093628 8.198339492082596e-05 4.736706614494324e-05 0.0 0.0 0.0 0.0
2.921 -0.6810304522514343 0.6357660889625549 8.629914373159409e-05 0.00010032299906015396 0.0 0.0 0.0 0.0
2.922 -0.6793105006217957 0.6378808617591858 4.647672176361084e-05 4.990026354789734e-05 0.0 0.0 0.0 0.0
2.923 -0.6765008568763733 0.6449963450431824 4.5765191316604614e-05 8.522626012563705e-05 0.0 0.0 0.0 0.0
2.924 -0.6794631481170654 0.6389120221138 8.482765406370163e-05 4.715193063020706e-05 0.0 0.0 0.0 0.0
2.925 -0.6806779503822327 0.6400326490402222 6.566476076841354e-05 4.663784056901932e-05 0.0 0.0 0.0 0.0
2.926 -0.68398118019104 0.643622875213623 6.989110261201859e-05 6.845314055681229e-05 0.0 0.0 0.0 0.0
2.927 -0.6778122186660767 0.6421524286270142 4.881434142589569e-05 9.647943079471588e-05 0.0 0.0 0.0 0.0
2.928 -0.6761535406112671 0.6458113193511963 6.069708615541458e-05 2.47294083237648e-05 0.0 0.0 0.0 0.0
2.929 -0.6782450079917908 0.6425851583480835 3.78340482711792e-05 3.18111851811409e-05 0.0 0.0 0.0 0.0
2.93 -0.6788541674613953 0.6426582932472229 2.9668211936950684e-05 4.73707914352417e-05 0.0 0.0 0.0 0.0
2.931 -0.6792862415313721 0.6460843682289124 7.644016295671463e-05 8.74130055308342e-05 0.0 0.0 0.0 0.0
2.932 -0.6792788505554199 0.6464244723320007 9.692832827568054e-05 5.178060382604599e-05 0.0 0.0 0.0 0.0
2.933 -0.6787886619567871 0.6450531482696533 3.9375387132167816e-05 3.025773912668228e-05 0.0 0.0 0.0 0.0
2.934 -0.6756742000579834 0.6494519710540771 6.967224180698395e-05 8.108094334602356e-06 0.0 0.0 0.0 0.0
2.935 -0.6766656637191772 0.6475763916969299 3.8613565266132355e-05 3.116019070148468e-05 0.0 0.0 0.0 0.0
2.936 -0.6764734983444214 0.648147463798523 6.56498596072197e-05 1.5818513929843903e-05 0.0 0.0 0.0 0.0
2.937 -0.6787631511688232 0.6494765877723694 3.98075208067894e-05 7.020868360996246e-05 0.0 0.0 0.0 0.0
2.938 -0.6793543696403503 0.6438142657279968 9.452365338802338e-05 5.0134025514125824e-05 0.0 0.0 0.0 0.0
2.939 -0.6802975535392761 0.6478245854377747 8.793268352746964e-05 6.061047315597534e-05 0.0 0.0 0.0 0.0
2.94 -0.6840060353279114 0.6454627513885498 4.258565604686737e-05 5.732942372560501e-05 0.0 0.0 0.0 0.0
2.941 -0.6809592247009277 0.6493803262710571 7.330067455768585e-05 5.606841295957565e-05 0.0 0.0 0.0 0.0
2.942 -0.6786645650863647 0.651971161365509 4.2378902435302734e-05 -6.536021828651428e-06 0.0 0.0 0.0 0.0
2.943 -0.6803141236305237 0.6500042676925659 5.035288631916046e-05 5.9645622968673706e-05 0.0 0.0 0.0 0.0
2.944 -0.6799620389938354 0.6531668305397034 6.685778498649597e-05 2.616085112094879e-06 0.0 0.0 0.0 0.0
2.945 -0.6789828538894653 0.6539303660392761 6.514042615890503e-05 1.4993362128734589e-05 0.0 0.0 0.0 0.0
2.946 -0.6762212514877319 0.6555196046829224 7.379800081253052e-05 5.662534385919571e-05 0.0 0.0 0.0 0.0
2.947 -0.6780287027359009 0.6525083780288696 8.29603523015976e-05 -1.530814915895462e-05 0.0 0.0 0.0 0.0
2.948 -0.6828942894935608 0.65221107006073 6.171874701976776e-06 3.305729478597641e-05 0.0 0.0 0.0 0.0
2.949 -0.6808902621269226 0.6554443836212158 9.406916797161102e-05 2.8111040592193604e-05 0.0 0.0 0.0 0.0
2.95 -0.6851255893707275 0.6537591218948364 2.238340675830841e-05 4.038866609334946e-05 0.0 0.0 0.0 0.0
2.951 -0.6758716702461243 0.6605173945426941 0.00010860804468393326 4.536285996437073e-05 0.0 0.0 0.0 0.0
2.952 -0.6828872561454773 0.6522178053855896 0.00012618303298950195 -5.913898348808289e-07 0.0 0.0 0.0 0.0
2.953 -0.6813747882843018 0.6602370142936707 9.238999336957932e-05 5.3272582590579987e-05 0.0 0.0 0.0 0.0
2.954 -0.6851992607116699 0.6532107591629028 5.411170423030853e-05 5.729496479034424e-05 0.0 0.0 0.0 0.0
2.955 -0.6811622977256775 0.6543736457824707 4.959758371114731e-05 2.9911287128925323e-05 0.0 0.0 0.0 0.0
2.956 -0.6782754063606262 0.6633027791976929 4.667509347200394e-05 3.2611191272735596e-05 0.0 0.0 0.0 0.0
2.957 -0.6837339997291565 0.655634880065918 5.092192441225052e-05 2.9530376195907593e-05 0.0 0.0 0.0 0.0
2.958 -0.6818108558654785 0.659339189529419 5.497131496667862e-05 2.6036053895950317e-05 0.0 0.0 0.0 0.0
2.959 -0.6833706498146057 0.6555930376052856 0.00010652001947164536 4.1326507925987244e-05 0.0 0.0 0.0 0.0
2.96 -0.6797515749931335 0.660990834236145 8.390657603740692e-05 8.83452594280243e-06 0.0 0.0 0.0 0.0
2.961 -0.6827878952026367 0.6592512130737305 7.940828800201416e-05 6.405636668205261e-05 0.0 0.0 0.0 0.0
2.962 -0.6764785647392273 0.6641889214515686 4.9379654228687286e-05 -6.6552311182022095e-06 0.0 0.0 0.0 0.0
2.963 -0.6800305247306824 0.6628982424736023 2.8979964554309845e-05 6.326474249362946e-05 0.0 0.0 0.0 0.0
2.964 -0.6756321787834167 0.6642935276031494 3.967992961406708e-05 8.166767656803131e-06 0.0 0.0 0.0 0.0
2.965 -0.6838244795799255 0.6631609201431274 3.981497138738632e-05 8.498318493366241e-05 0.0 0.0 0.0 0.0
2.966 -0.6824183464050293 0.6635028123855591 7.767044007778168e-05 2.308003604412079e-05 0.0 0.0 0.0 0.0
2.967 -0.6813285946846008 0.663131058216095 4.4235959649086e-05 4.727393388748169e-06 0.0 0.0 0.0 0.0
2.968 -0.6799435615539551 0.6657311916351318 9.854044765233994e-05 5.041714757680893e-05 0.0 0.0 0.0 0.0
2.969 -0.6825650334358215 0.6641961336135864 7.734168320894241e-05 4.473049193620682e-05 0.0 0.0 0.0 0.0
2.97 -0.6816028356552124 0.6659477353096008 9.310059249401093e-05 9.22447070479393e-05 0.0 0.0 0.0 0.0
2.971 -0.6806339621543884 0.6633884906768799 5.0965696573257446e-05 3.683008253574371e-05 0.0 0.0 0.0 0.0
2.972 -0.6851409077644348 0.6639866232872009 5.580484867095947e-05 5.061272531747818e-05 0.0 0.0 0.0 0.0
2.973 -0.6820068359375 0.6680993437767029 7.185246795415878e-05 5.852431058883667e-05 0.0 0.0 0.0 0.0
2.974 -0.6800971627235413 0.6622481346130371 0.00010123848915100098 5.9371814131736755e-05 0.0 0.0 0.0 0.0
2.975 -0.6821662783622742 0.6669526100158691 3.8032419979572296e-05 2.4351291358470917e-05 0.0 0.0 0.0 0.0
2.976 -0.6815739870071411 0.6695017218589783 3.298278898000717e-05 5.009584128856659e-06 0.0 0.0 0.0 0.0
2.977 -0.6859481930732727 0.6659590601921082 9.170826524496078e-05 4.1851773858070374e-05 0.0 0.0 0.0 0.0
2.978 -0.684086799621582 0.6665810346603394 4.387460649013519e-05 5.485117435455322e-05 0.0 0.0 0.0 0.0
2.979 -0.6791832447052002 0.6743946075439453 2.8209760785102844e-05 8.188653737306595e-05 0.0 0.0 0.0 0.0
2.98 -0.6849357485771179 0.6713075637817383 3.0798837542533875e-05 3.5068951547145844e-05 0.0 0.0 0.0 0.0
2.981 -0.6842972636222839 0.6685473918914795 2.142973244190216e-05 4.892516881227493e-05 0.0 0.0 0.0 0.0
2.982 -0.6822481155395508 0.6701194047927856 3.87728214263916e-05 6.208289414644241e-05 0.0 0.0 0.0 0.0
2.983 -0.6790140867233276 0.672019362449646 3.281980752944946e-05 4.241429269313812e-05 0.0 0.0 0.0 0.0
2.984 -0.6807830929756165 0.6746724247932434 8.019525557756424e-05 3.7797726690769196e-05 0.0 0.0 0.0 0.0
2.985 -0.6830822229385376 0.673143208026886 1.0197050869464874e-05 8.233916014432907e-05 0.0 0.0 0.0 0.0
2.986 -0.6857942342758179 0.6685066819190979 8.477363735437393e-05 -9.471550583839417e-06 0.0 0.0 0.0 0.0
2.987 -0.68051677942276 0.6743951439857483 7.134862244129181e-06 2.0205974578857422e-05 0.0 0.0 0.0 0.0
2.988 -0.6889722943305969 0.6687650084495544 0.00010202545672655106 8.029770106077194e-05 0.0 0.0 0.0 0.0
2.989 -0.6782979965209961 0.678206741809845 5.9670768678188324e-05 -1.648813486099243e-05 0.0 0.0 0.0 0.0
2.99 -0.6851284503936768 0.6724050045013428 4.4615939259529114e-05 7.726158946752548e-05 0.0 0.0 0.0 0.0
2.991 -0.6810886263847351 0.6764417290687561 3.552529960870743e-05 5.5577605962753296e-05 0.0 0.0 0.0 0.0
2.992 -0.6825665235519409 0.6731341481208801 4.536658525466919e-05 3.826431930065155e-05 0.0 0.0 0.0 0.0
2.993 -0.6829966902732849 0.6762929558753967 4.643108695745468e-05 5.743466317653656e-06 0.0 0.0 0.0 0.0
2.994 -0.683731198310852 0.6767116189002991 6.695371121168137e-05 9.394250810146332e-05 0.0 0.0 0.0 0.0
2.995 -0.6778119206428528 0.6808030009269714 7.449090480804443e-05 8.117873221635818e-05 0.0 0.0 0.0 0.0
2.996 -0.6833392381668091 0.6775561571121216 4.217773675918579e-05 3.4294091165065765e-05 0.0 0.0 0.0 0.0
2.997 -0.6838038563728333 0.6781602501869202 3.836583346128464e-05 -2.305954694747925e-06 0.0 0.0 0.0 0.0
2.998 -0.6864643096923828 0.6807612776756287 5.242135375738144e-05 7.275119423866272e-05 0.0 0.0 0.0 0.0
2.999 -0.681586503982544 0.6821446418762207 1.5933997929096222e-05 2.707168459892273e-05 0.0 0.0 0.0 0.0
3.0 -0.6849237084388733 0.6789931654930115 6.834510713815689e-05 4.750397056341171e-05 0.0 0.0 0.0 0.0
3.001 -0.6825627684593201 0.6847960948944092 3.194715827703476e-05 1.2150034308433533e-05 0.0 0.0 0.0 0.0
3.002 -0.6816872954368591 0.6816594004631042 5.4202042520046234e-05 6.679631769657135e-05 0.0 0.0 0.0 0.0
3.003 -0.6816226243972778 0.683807373046875 5.552079528570175e-05 5.595572292804718e-05 0.0 0.0 0.0 0.0
3.004 -0.6829838156700134 0.685771644115448 4.9522146582603455e-05 1.1594034731388092e-05 0.0 0.0 0.0 0.0
3.005 -0.6838898062705994 0.6831492781639099 -2.064276486635208e-05 5.034636706113815e-05 0.0 0.0 0.0 0.0
3.006 -0.6813430786132812 0.6866940855979919 3.2481737434864044e-05 2.4859793484210968e-05 0.0 0.0 0.0 0.0
3.007 -0.6834430694580078 0.683738112449646 2.8335489332675934e-05 2.9668211936950684e-05 0.0 0.0 0.0 0.0
3.008 -0.6823357939720154 0.6840868592262268 6.776954978704453e-05 -7.08363950252533e-06 0.0 0.0 0.0 0.0
3.009 -0.6790345311164856 0.6866450309753418 3.5682693123817444e-05 7.644668221473694e-05 0.0 0.0 0.0 0.0
3.01 -0.6808274388313293 0.6839107275009155 7.08671286702156e-05 4.613026976585388e-05 0.0 0.0 0.0 0.0
3.011 -0.6831508278846741 0.6857621073722839 6.806012243032455e-05 5.831010639667511e-05 0.0 0.0 0.0 0.0
3.012 -0.6852921843528748 0.6950194835662842 5.592871457338333e-05 -7.5893476605415344e-06 0.0 0.0 0.0 0.0
3.013 -0.6807000637054443 0.6846258640289307 2.933759242296219e-05 1.9470229744911194e-05 0.0 0.0 0.0 0.0
3.014 -0.6817989945411682 0.6881784200668335 4.16729599237442e-05 -2.232380211353302e-05 0.0 0.0 0.0 0.0
3.015 -0.6852094531059265 0.6902377605438232 6.014946848154068e-05 1.4852732419967651e-05 0.0 0.0 0.0 0.0
3.016 -0.6840962767601013 0.6888713836669922 8.747819811105728e-05 1.6178004443645477e-05 0.0 0.0 0.0 0.0
3.017 -0.6843887567520142 0.6871663928031921 2.9480084776878357e-05 -7.0659443736076355e-06 0.0 0.0 0.0 0.0
3.018 -0.6806104183197021 0.6933181881904602 2.64802947640419e-05 3.913789987564087e-05 0.0 0.0 0.0 0.0
3.019 -0.6845807433128357 0.6911649703979492 4.2467378079891205e-05 9.696930646896362e-06 0.0 0.0 0.0 0.0
3.02 -0.6806018352508545 0.6931424736976624 2.7206726372241974e-05 6.509572267532349e-05 0.0 0.0 0.0 0.0
3.021 -0.6858808994293213 0.6893340945243835 8.183810859918594e-05 3.640633076429367e-05 0.0 0.0 0.0 0.0
3.022 -0.681693971157074 0.687436580657959 3.812182694673538e-05 3.874488174915314e-05 0.0 0.0 0.0 0.0
3.023 -0.6808657646179199 0.6948198676109314 7.865764200687408e-05 4.507135599851608e-05 0.0 0.0 0.0 0.0
3.024 -0.6868410706520081 0.6924976110458374 -4.195608198642731e-06 4.030950367450714e-05 0.0 0.0 0.0 0.0
3.025 -0.6828132271766663 0.6935899257659912 6.584357470273972e-05 4.700198769569397e-05 0.0 0.0 0.0 0.0
3.026 -0.681492269039154 0.6949527859687805 5.3476542234420776e-05 3.4142285585403442e-06 0.0 0.0 0.0 0.0
3.027 -0.6840249300003052 0.6946294903755188 5.4448843002319336e-05 8.044019341468811e-05 0.0 0.0 0.0 0.0
3.028 -0.6855287551879883 0.6916319131851196 5.226209759712219e-05 7.615331560373306e-05 0.0 0.0 0.0 0.0
3.029 -0.6801448464393616 0.6994156837463379 2.9735267162322998e-05 4.70457598567009e-05 0.0 0.0 0.0 0.0
3.03 -0.6862397193908691 0.6929669380187988 3.0022114515304565e-05 4.356447607278824e-05 0.0 0.0 0.0 0.0
3.031 -0.6806011199951172 0.6952844262123108 3.8887374103069305e-05 1.7809681594371796e-05 0.0 0.0 0.0 0.0
3.032 -0.6819996237754822 0.6978228688240051 6.098765879869461e-05 5.328003317117691e-05 0.0 0.0 0.0 0.0
3.033 -0.684556782245636 0.6974186301231384 3.482867032289505e-05 2.5602057576179504e-05 0.0 0.0 0.0 0.0
3.034 -0.6846987009048462 0.6946894526481628 2.0973384380340576e-05 2.6796013116836548e-05 0.0 0.0 0.0 0.0
3.035 -0.6830922365188599 0.6998270750045776 6.669200956821442e-05 4.313141107559204e-05 0.0 0.0 0.0 0.0
3.036 -0.6878928542137146 0.7037571668624878 5.889125168323517e-05 5.880184471607208e-05 0.0 0.0 0.0 0.0
3.037 -0.6810066103935242 0.7004851698875427 2.684909850358963e-05 5.270913243293762e-05 0.0 0.0 0.0 0.0
3.038 -0.6829215884208679 0.7010501027107239 3.591645509004593e-05 9.723939001560211e-06 0.0 0.0 0.0 0.0
3.039 -0.6815799474716187 0.7029242515563965 3.692973405122757e-05 -6.203539669513702e-06 0.0 0.0 0.0 0.0
3.04 -0.6848344802856445 0.6951372027397156 8.167233318090439e-05 8.014868944883347e-05 0.0 0.0 0.0 0.0
3.041 -0.6825942397117615 0.7012999057769775 3.11732292175293e-05 4.394166171550751e-05 0.0 0.0 0.0 0.0
3.042 -0.6828176975250244 0.7018647193908691 4.564505070447922e-05 4.147179424762726e-06 0.0 0.0 0.0 0.0
3.043 -0.684173047542572 0.7026965022087097 8.399784564971924e-05 2.1140091121196747e-05 0.0 0.0 0.0 0.0
3.044 -0.6822190880775452 0.7041133046150208 3.708619624376297e-05 3.152340650558472e-05 0.0 0.0 0.0 0.0
3.045 -0.6813255548477173 0.7056399583816528 9.614508599042892e-05 5.082227289676666e-05 0.0 0.0 0.0 0.0
3.046 -0.6868341565132141 0.7039236426353455 5.360785871744156e-05 2.0938925445079803e-05 0.0 0.0 0.0 0.0
3.047 -0.6795706152915955 0.7074150443077087 1.3682059943675995e-05 3.364495933055878e-05 0.0 0.0 0.0 0.0
3.048 -0.68470299243927 0.7042911648750305 2.073962241411209e-05 1.3747252523899078e-05 0.0 0.0 0.0 0.0
3.049 -0.6787551641464233 0.7057021260261536 2.762768417596817e-05 1.6079284250736237e-05 0.0 0.0 0.0 0.0
3.05 -0.6787344217300415 0.707734227180481 4.3830834329128265e-05 1.708976924419403e-05 0.0 0.0 0.0 0.0
3.051 -0.6811158657073975 0.7092894315719604 7.027015089988708e-05 2.7249567210674286e-05 0.0 0.0 0.0 0.0
3.052 -0.6819819808006287 0.7073923349380493 6.944779306650162e-05 -1.9593164324760437e-05 0.0 0.0 0.0 0.0
3.053 -0.6811321377754211 0.7088865041732788 3.1949952244758606e-05 7.981434464454651e-07 0.0 0.0 0.0 0.0
3.054 -0.6810615658760071 0.7096048593521118 1.9019469618797302e-05 -6.919726729393005e-07 0.0 0.0 0.0 0.0
3.055 -0.6802290678024292 0.7079920768737793 7.148180156946182e-05 -1.2228265404701233e-06 0.0 0.0 0.0 0.0
3.056 -0.6806874871253967 0.7106310725212097 1.3056211173534393e-05 -3.110431134700775e-05 0.0 0.0 0.0 0.0
3.057 -0.6832093596458435 0.7078536748886108 -1.5385448932647705e-06 -1.8943101167678833e-06 0.0 0.0 0.0 0.0
3.058 -0.6757733821868896 0.7097395658493042 3.401655703783035e-05 -3.11313197016716e-05 0.0 0.0 0.0 0.0
3.059 -0.6809248924255371 0.7094827890396118 1.6380101442337036e-05 -2.8981827199459076e-05 0.0 0.0 0.0 0.0
3.06 -0.6776224374771118 0.7075538039207458 1.5965662896633148e-05 -2.658739686012268e-05 0.0 0.0 0.0 0.0
3.061 -0.6754829287528992 0.7175291776657104 2.2042542695999146e-05 3.596581518650055e-05 0.0 0.0 0.0 0.0
3.062 -0.6771308183670044 0.713748574256897 2.1327286958694458e-07 -1.897290349006653e-05 0.0 0.0 0.0 0.0
3.063 -0.680561363697052 0.7077798843383789 5.494058132171631e-05 8.522532880306244e-06 0.0 0.0 0.0 0.0
3.064 -0.6794768571853638 0.714235246181488 -1.2631528079509735e-05 -4.4065527617931366e-05 0.0 0.0 0.0 0.0
3.065 -0.6766965389251709 0.7138770818710327 -4.772096872329712e-06 -1.820456236600876e-05 0.0 0.0 0.0 0.0
3.066 -0.6790993809700012 0.7108883857727051 2.5756657123565674e-05 -2.1206215023994446e-06 0.0 0.0 0.0 0.0
3.067 -0.6752764582633972 0.7124989032745361 3.541167825460434e-05 -3.4295953810214996e-05 0.0 0.0 0.0 0.0
3.068 -0.679232120513916 0.7128604650497437 -4.817824810743332e-05 2.115964889526367e-06 0.0 0.0 0.0 0.0
3.069 -0.6784570813179016 0.712428092956543 -4.29004430770874e-05 3.041885793209076e-05 0.0 0.0 0.0 0.0
3.07 -0.6751447916030884 0.7166836261749268 -2.4335458874702454e-05 5.4426491260528564e-05 0.0 0.0 0.0 0.0
3.071 -0.6780020594596863 0.7141838669776917 -4.930421710014343e-05 8.736737072467804e-06 0.0 0.0 0.0 0.0
3.072 -0.6840372681617737 0.710466206073761 -4.7715380787849426e-05 8.027814328670502e-05 0.0 0.0 0.0 0.0
3.073 -0.6757501363754272 0.7114442586898804 -1.8851831555366516e-05 7.528532296419144e-05 0.0 0.0 0.0 0.0
3.074 -0.6781538724899292 0.7121532559394836 -5.522184073925018e-05 6.127730011940002e-05 0.0 0.0 0.0 0.0
3.075 -0.6791170835494995 0.7138618230819702 -2.2292137145996094e-05 3.3799558877944946e-05 0.0 0.0 0.0 0.0
3.076 -0.679519534111023 0.7141714692115784 -5.089864134788513e-05 5.550868809223175e-05 0.0 0.0 0.0 0.0
3.077 -0.6749200820922852 0.7168242335319519 -7.06017017364502e-05 4.4533051550388336e-05 0.0 0.0 0.0 0.0
3.078 -0.680392324924469 0.7118547558784485 -1.0489486157894135e-05 2.8407201170921326e-05 0.0 0.0 0.0 0.0
3.079 -0.679690420627594 0.7147642970085144 -2.6609748601913452e-05 7.147341966629028e-05 0.0 0.0 0.0 0.0
3.08 -0.6798310279846191 0.7137647867202759 3.6722049117088318e-06 0.00010718498378992081 0.0 0.0 0.0 0.0
3.081 -0.6810587048530579 0.7130820155143738 -4.21842560172081e-05 8.484814316034317e-05 0.0 0.0 0.0 0.0
3.082 -0.6772352457046509 0.7170943021774292 -8.09933990240097e-05 7.070880383253098e-05 0.0 0.0 0.0 0.0
3.083 -0.6805121302604675 0.7137972712516785 -4.338100552558899e-06 7.776264101266861e-05 0.0 0.0 0.0 0.0
3.084 -0.6802090406417847 0.7157997488975525 -2.098269760608673e-05 7.582269608974457e-05 0.0 0.0 0.0 0.0
3.085 -0.6794849634170532 0.7173635959625244 -1.0727904736995697e-05 9.59569588303566e-05 0.0 0.0 0.0 0.0
3.086 -0.6822500824928284 0.7159606218338013 -2.083461731672287e-05 0.00010291766375303268 0.0 0.0 0.0 0.0
3.087 -0.6827883720397949 0.7140271067619324 -1.3358891010284424e-05 7.070507854223251e-05 0.0 0.0 0.0 0.0
3.088 -0.678669810295105 0.715425968170166 1.6847625374794006e-05 8.167978376150131e-05 0.0 0.0 0.0 0.0
3.089 -0.6873676776885986 0.7128428220748901 -2.816971391439438e-05 0.00016063358634710312 0.0 0.0 0.0 0.0
3.09 -0.6830510497093201 0.717156708240509 -3.2070092856884e-05 0.00013190601021051407 0.0 0.0 0.0 0.0
3.091 -0.6803392171859741 0.7213295102119446 1.4774501323699951e-05 5.6838616728782654e-05 0.0 0.0 0.0 0.0
3.092 -0.6817836165428162 0.7210757732391357 -3.628525882959366e-05 8.154194802045822e-05 0.0 0.0 0.0 0.0
3.093 -0.684162437915802 0.7179976105690002 1.1805444955825806e-05 0.00012305285781621933 0.0 0.0 0.0 0.0
3.094 -0.6849463582038879 0.7188330888748169 1.8132850527763367e-06 8.714571595191956e-05 0.0 0.0 0.0 0.0
3.095 -0.6820473074913025 0.7238580584526062 -3.0889175832271576e-05 0.00010663922876119614 0.0 0.0 0.0 0.0
3.096 -0.6860848069190979 0.7183619141578674 1.5252269804477692e-05 9.625498205423355e-05 0.0 0.0 0.0 0.0
3.097 -0.6821125745773315 0.7234405279159546 4.174932837486267e-05 9.234156459569931e-05 0.0 0.0 0.0 0.0
3.098 -0.6846927404403687 0.7232427000999451 1.1393800377845764e-05 8.552521467208862e-05 0.0 0.0 0.0 0.0
3.099 -0.6878713965415955 0.7209745049476624 -1.4928169548511505e-05 0.00012835580855607986 0.0 0.0 0.0 0.0
3.1 -0.6839048862457275 0.724538266658783 -2.6699155569076538e-05 6.99339434504509e-05 0.0 0.0 0.0 0.0
3.101 -0.6835703253746033 0.7265142798423767 -6.261281669139862e-06 0.0001783035695552826 0.0 0.0 0.0 0.0
3.102 -0.685950517654419 0.7234331369400024 6.743054836988449e-05 0.00017612893134355545 0.0 0.0 0.0 0.0
3.103 -0.6864752769470215 0.7238081693649292 4.953518509864807e-05 0.0001857234165072441 0.0 0.0 0.0 0.0
3.104 -0.6832523345947266 0.7283561825752258 -2.7108006179332733e-05 0.0001237122341990471 0.0 0.0 0.0 0.0
3.105 -0.6877180337905884 0.7244592308998108 1.1039897799491882e-05 0.0001235390082001686 0.0 0.0 0.0 0.0
3.106 -0.6859027147293091 0.7267888784408569 2.8817914426326752e-05 0.00010414700955152512 0.0 0.0 0.0 0.0
3.107 -0.6855639815330505 0.728946328163147 2.5432556867599487e-05 0.00017043668776750565 0.0 0.0 0.0 0.0
3.108 -0.691936194896698 0.7290536761283875 5.870312452316284e-05 6.128102540969849e-05 0.0 0.0 0.0 0.0
3.109 -0.6862414479255676 0.7290830612182617 1.7078593373298645e-05 0.00017007626593112946 0.0 0.0 0.0 0.0
3.11 -0.6853949427604675 0.7303524613380432 9.319838136434555e-05 3.6724843084812164e-05 0.0 0.0 0.0 0.0
3.111 -0.6857925057411194 0.7277546525001526 4.786718636751175e-05 9.889155626296997e-05 0.0 0.0 0.0 0.0
3.112 -0.6865988969802856 0.7310078144073486 6.48321583867073e-05 3.9354898035526276e-05 0.0 0.0 0.0 0.0
3.113 -0.6905467510223389 0.7267141938209534 8.93445685505867e-05 0.00010399799793958664 0.0 0.0 0.0 0.0
3.114 -0.6831880807876587 0.7334000468254089 2.2086314857006073e-05 8.339155465364456e-05 0.0 0.0 0.0 0.0
3.115 -0.6854390501976013 0.7327748537063599 -5.841907113790512e-05 0.00012662168592214584 0.0 0.0 0.0 0.0
3.116 -0.6886394023895264 0.7302006483078003 6.024353206157684e-05 3.8205645978450775e-05 0.0 0.0 0.0 0.0
3.117 -0.683729350566864 0.7344265580177307 8.25691968202591e-05 7.798336446285248e-05 0.0 0.0 0.0 0.0
3.118 -0.6859937310218811 0.7349385619163513 8.263997733592987e-05 0.000101432204246521 0.0 0.0 0.0 0.0
3.119 -0.6875954866409302 0.732903242111206 1.0536983609199524e-05 6.414111703634262e-05 0.0 0.0 0.0 0.0
3.12 -0.6860511898994446 0.7388935685157776 6.728339940309525e-05 9.132083505392075e-05 0.0 0.0 0.0 0.0
3.121 -0.6852601170539856 0.7361571192741394 6.581097841262817e-05 6.670039147138596e-05 0.0 0.0 0.0 0.0
3.122 -0.6858922839164734 0.7350265979766846 2.10469588637352e-05 0.00011785421520471573 0.0 0.0 0.0 0.0
3.123 -0.6836492419242859 0.7392362952232361 4.164408892393112e-05 5.719996988773346e-05 0.0 0.0 0.0 0.0
3.124 -0.6847206354141235 0.7391798496246338 7.401034235954285e-05 5.245581269264221e-05 0.0 0.0 0.0 0.0
3.125 -0.6874272227287292 0.7352083921432495 1.6991980373859406e-05 0.00011471845209598541 0.0 0.0 0.0 0.0
3.126 -0.6840887665748596 0.7391827702522278 -4.402361810207367e-06 4.001520574092865e-05 0.0 0.0 0.0 0.0
3.127 -0.686420202255249 0.7383015155792236 3.2242387533187866e-05 7.707253098487854e-05 0.0 0.0 0.0 0.0
3.128 -0.6870587468147278 0.737502932548523 9.209197014570236e-05 0.00011005718261003494 0.0 0.0 0.0 0.0
3.129 -0.6851623058319092 0.7400565147399902 5.224719643592834e-07 3.652181476354599e-05 0.0 0.0 0.0 0.0
3.13 -0.6844828724861145 0.7416574358940125 5.292147397994995e-05 5.7240016758441925e-05 0.0 0.0 0.0 0.0
3.131 -0.6872579455375671 0.7396888732910156 7.754750549793243e-05 0.00012754276394844055 0.0 0.0 0.0 0.0
3.132 -0.6810187697410583 0.7445229291915894 1.6473233699798584e-05 0.00014111772179603577 0.0 0.0 0.0 0.0
3.133 -0.6866469383239746 0.7419142723083496 1.772865653038025e-05 2.2605061531066895e-05 0.0 0.0 0.0 0.0
3.134 -0.6853650808334351 0.7414981126785278 5.0405971705913544e-05 8.652172982692719e-05 0.0 0.0 0.0 0.0
3.135 -0.6855442523956299 0.7402032613754272 -1.374073326587677e-05 0.00010371487587690353 0.0 0.0 0.0 0.0
3.136 -0.6807098984718323 0.7455472350120544 6.156042218208313e-06 3.069639205932617e-05 0.0 0.0 0.0 0.0
3.137 -0.6847578883171082 0.742477297782898 5.677342414855957e-05 6.916094571352005e-05 0.0 0.0 0.0 0.0
3.138 -0.6835952401161194 0.745944619178772 7.364246994256973e-05 0.00012523308396339417 0.0 0.0 0.0 0.0
3.139 -0.6833711266517639 0.7453721761703491 4.715379327535629e-05 0.00013914890587329865 0.0 0.0 0.0 0.0
3.14 -0.6849765777587891 0.7447717785835266 1.805834472179413e-05 2.3208558559417725e-06 0.0 0.0 0.0 0.0
3.141 -0.6841144561767578 0.7482115030288696 -1.4972873032093048e-05 0.00011834409087896347 0.0 0.0 0.0 0.0
3.142 -0.6841614842414856 0.7469357252120972 1.2905336916446686e-05 0.00010546017438173294 0.0 0.0 0.0 0.0
3.143 -0.6842970848083496 0.7463929057121277 7.292255759239197e-07 4.3188221752643585e-05 0.0 0.0 0.0 0.0
3.144 -0.6821063756942749 0.7497010827064514 5.3262338042259216e-05 4.496891051530838e-05 0.0 0.0 0.0 0.0
3.145 -0.6838458180427551 0.7486440539360046 8.908193558454514e-05 5.5291689932346344e-05 0.0 0.0 0.0 0.0
3.146 -0.6848781108856201 0.7473955154418945 -3.310106694698334e-05 4.362966865301132e-05 0.0 0.0 0.0 0.0
3.147 -0.682727575302124 0.749652624130249 2.4384818971157074e-05 0.00012193527072668076 0.0 0.0 0.0 0.0
3.148 -0.686913013458252 0.7482202053070068 6.594322621822357e-05 0.00012913253158330917 0.0 0.0 0.0 0.0
3.149 -0.6850510835647583 0.7482619881629944 3.4543685615062714e-05 1.630745828151703e-05 0.0 0.0 0.0 0.0
3.15 -0.6835007667541504 0.7504602670669556 -2.1124258637428284e-05 3.9460137486457825e-05 0.0 0.0 0.0 0.0
3.151 -0.6829192638397217 0.7516282200813293 3.640912473201752e-05 3.0154362320899963e-05 0.0 0.0 0.0 0.0
3.152 -0.680329442024231 0.7544698715209961 3.21241095662117e-05 0.00013720616698265076 0.0 0.0 0.0 0.0
3.153 -0.6861172914505005 0.7497221827507019 6.702914834022522e-05 4.7305598855018616e-05 0.0 0.0 0.0 0.0
3.154 -0.6814871430397034 0.7537601590156555 -2.1812506020069122e-05 5.4406002163887024e-05 0.0 0.0 0.0 0.0
3.155 -0.6846882104873657 0.7523422837257385 2.482626587152481e-05 0.00013124383985996246 0.0 0.0 0.0 0.0
3.156 -0.67939692735672 0.7470359206199646 -2.4264678359031677e-05 6.818678230047226e-05 0.0 0.0 0.0 0.0
3.157 -0.6789180636405945 0.7572044134140015 -9.385868906974792e-06 0.00013450346887111664 0.0 0.0 0.0 0.0
3.158 -0.6838743090629578 0.7541784048080444 -2.4915672838687897e-05 3.579258918762207e-05 0.0 0.0 0.0 0.0
3.159 -0.6843041181564331 0.7526658773422241 -8.372589945793152e-06 5.7470984756946564e-05 0.0 0.0 0.0 0.0
3.16 -0.6796092987060547 0.7596370577812195 9.610317647457123e-05 8.774828165769577e-05 0.0 0.0 0.0 0.0
3.161 -0.6812346577644348 0.7574306726455688 1.4991499483585358e-05 0.0001107947900891304 0.0 0.0 0.0 0.0
3.162 -0.6875049471855164 0.7518077492713928 -7.680617272853851e-06 3.813486546278e-05 0.0 0.0 0.0 0.0
3.163 -0.6820396780967712 0.7563960552215576 -2.2892840206623077e-05 8.067861199378967e-05 0.0 0.0 0.0 0.0
3.164 -0.6799312829971313 0.7589495778083801 2.73045152425766e-05 0.00011399947106838226 0.0 0.0 0.0 0.0
3.165 -0.6817009449005127 0.7568932771682739 -5.0710514187812805e-05 0.0001385146751999855 0.0 0.0 0.0 0.0
3.166 -0.6817688345909119 0.7578778266906738 -2.7876347303390503e-05 8.140411227941513e-05 0.0 0.0 0.0 0.0
3.167 -0.6822736263275146 0.7590339779853821 7.507298141717911e-05 0.00010826811194419861 0.0 0.0 0.0 0.0
3.168 -0.6837248802185059 0.7552701234817505 7.39656388759613e-06 0.00012925639748573303 0.0 0.0 0.0 0.0
3.169 -0.682403564453125 0.7592676877975464 1.123826950788498e-05 0.00010456889867782593 0.0 0.0 0.0 0.0
3.17 -0.6830025911331177 0.760535478591919 -2.5389716029167175e-05 5.31589612364769e-05 0.0 0.0 0.0 0.0
3.171 -0.6842818260192871 0.7592166662216187 6.053224205970764e-05 9.335391223430634e-05 0.0 0.0 0.0 0.0
3.172 -0.6806522607803345 0.759545087814331 4.666391760110855e-05 0.00010398030281066895 0.0 0.0 0.0 0.0
3.173 -0.6787943840026855 0.7644326090812683 -4.571676254272461e-05 5.241110920906067e-05 0.0 0.0 0.0 0.0
3.174 -0.6863642930984497 0.7586228251457214 2.8572045266628265e-05 0.00010257493704557419 0.0 0.0 0.0 0.0
3.175 -0.6798710823059082 0.7635312080383301 4.1705556213855743e-05 4.799850285053253e-05 0.0 0.0 0.0 0.0
3.176 -0.6827077865600586 0.7627553939819336 7.263384759426117e-06 3.8403086364269257e-05 0.0 0.0 0.0 0.0
3.177 -0.6830765008926392 0.7613734006881714 2.1402724087238312e-05 5.160178989171982e-05 0.0 0.0 0.0 0.0
3.178 -0.6810506582260132 0.7645108103752136 -2.8815120458602905e-06 9.441561996936798e-05 0.0 0.0 0.0 0.0
3.179 -0.6772717237472534 0.7678167223930359 3.5227276384830475e-05 0.00010262615978717804 0.0 0.0 0.0 0.0
3.18 -0.6859692335128784 0.7670033574104309 -7.384642958641052e-05 7.700081914663315e-05 0.0 0.0 0.0 0.0
3.181 -0.6801905035972595 0.7659458518028259 -3.738701343536377e-05 8.86227935552597e-05 0.0 0.0 0.0 0.0
3.182 -0.6802019476890564 0.7674160599708557 5.2140094339847565e-05 0.00010404922068119049 0.0 0.0 0.0 0.0
3.183 -0.6842247843742371 0.7624797224998474 -5.414523184299469e-05 0.00014700833708047867 0.0 0.0 0.0 0.0
3.184 -0.6810635328292847 0.7670443058013916 -6.592739373445511e-05 0.00013142917305231094 0.0 0.0 0.0 0.0
3.185 -0.6798848509788513 0.7687072157859802 -1.0691583156585693e-06 5.055777728557587e-05 0.0 0.0 0.0 0.0
3.186 -0.682127058506012 0.7653377652168274 2.4907290935516357e-05 0.00012252852320671082 0.0 0.0 0.0 0.0
3.187 -0.681206226348877 0.7668551206588745 1.0711140930652618e-05 0.0001505836844444275 0.0 0.0 0.0 0.0
3.188 -0.6770617961883545 0.7704148888587952 -4.104245454072952e-05 0.00013679079711437225 0.0 0.0 0.0 0.0
3.189 -0.6789612770080566 0.7707934975624084 3.8710422813892365e-05 0.00011730194091796875 0.0 0.0 0.0 0.0
3.19 -0.6810058355331421 0.7681136131286621 -3.39532271027565e-05 4.8879534006118774e-05 0.0 0.0 0.0 0.0
3.191 -0.6786492466926575 0.7715136408805847 -4.34238463640213e-05 7.29188323020935e-05 0.0 0.0 0.0 0.0
3.192 -0.6785658597946167 0.7697570323944092 -2.805236726999283e-05 0.00018000323325395584 0.0 0.0 0.0 0.0
3.193 -0.6809569001197815 0.7688496112823486 -6.28102570772171e-05 6.553716957569122e-05 0.0 0.0 0.0 0.0
3.194 -0.6781343221664429 0.7722119092941284 -4.452187567949295e-05 0.0001584123820066452 0.0 0.0 0.0 0.0
3.195 -0.67619389295578 0.7740989327430725 -4.2387284338474274e-05 8.484814316034317e-05 0.0 0.0 0.0 0.0
3.196 -0.6783596277236938 0.7721334099769592 3.9332546293735504e-05 0.00012646429240703583 0.0 0.0 0.0 0.0
3.197 -0.67924964427948 0.7737276554107666 -2.277083694934845e-05 6.510317325592041e-05 0.0 0.0 0.0 0.0
3.198 -0.6806507706642151 0.7727025747299194 2.7301721274852753e-05 0.0001230863854289055 0.0 0.0 0.0 0.0
3.199 -0.6803157925605774 0.7727885842323303 -1.8710270524024963e-05 6.975885480642319e-05 0.0 0.0 0.0 0.0
3.2 -0.677891731262207 0.7750256061553955 2.4763867259025574e-06 7.34180212020874e-05 0.0 0.0 0.0 0.0
3.201 -0.6790247559547424 0.7736274600028992 1.6963109374046326e-05 0.00016194116324186325 0.0 0.0 0.0 0.0
3.202 -0.6793223023414612 0.7732325792312622 1.4677643775939941e-06 0.00012771226465702057 0.0 0.0 0.0 0.0
3.203 -0.6743931770324707 0.7793130874633789 -5.271006375551224e-05 0.00011202506721019745 0.0 0.0 0.0 0.0
3.204 -0.6721230149269104 0.7757654786109924 -3.1599774956703186e-05 0.00016072485595941544 0.0 0.0 0.0 0.0
3.205 -0.6768816709518433 0.7773590683937073 1.0536983609199524e-05 0.0001373467966914177 0.0 0.0 0.0 0.0
3.206 -0.6788681149482727 0.7760910391807556 -1.543201506137848e-05 0.00014139339327812195 0.0 0.0 0.0 0.0
3.207 -0.6801764965057373 0.7778574824333191 7.727835327386856e-05 0.00010828115046024323 0.0 0.0 0.0 0.0
3.208 -0.6748762130737305 0.7808822989463806 8.7665393948555e-06 6.511621177196503e-05 0.0 0.0 0.0 0.0
3.209 -0.6781729459762573 0.7784455418586731 -5.17992302775383e-05 0.00013151299208402634 0.0 0.0 0.0 0.0
3.21 -0.6783002018928528 0.7794975638389587 2.9306858777999878e-05 7.666274905204773e-05 0.0 0.0 0.0 0.0
3.211 -0.6711567044258118 0.7851659059524536 2.4667009711265564e-05 0.0001405654475092888 0.0 0.0 0.0 0.0
3.212 -0.677754819393158 0.7808758020401001 -6.65523111820221e-05 8.536316454410553e-05 0.0 0.0 0.0 0.0
3.213 -0.6765425801277161 0.7799844741821289 -3.1519681215286255e-05 9.856931865215302e-05 0.0 0.0 0.0 0.0
3.214 -0.6773087978363037 0.7802899479866028 -6.1802566051483154e-06 8.101947605609894e-05 0.0 0.0 0.0 0.0
3.215 -0.6735561490058899 0.7847686409950256 2.0852312445640564e-05 9.509362280368805e-05 0.0 0.0 0.0 0.0
3.216 -0.677769124507904 0.7823668122291565 3.130827099084854e-05 0.00016330089420080185 0.0 0.0 0.0 0.0
3.217 -0.678045928478241 0.7810960412025452 3.947783261537552e-05 0.00010928884148597717 0.0 0.0 0.0 0.0
3.218 -0.6744535565376282 0.7851748466491699 -4.3019652366638184e-05 0.00013030972331762314 0.0 0.0 0.0 0.0
3.219 -0.6794690489768982 0.7815470099449158 4.572141915559769e-05 5.978532135486603e-05 0.0 0.0 0.0 0.0
3.22 -0.6732218861579895 0.7863813042640686 4.901457577943802e-05 0.000101529061794281 0.0 0.0 0.0 0.0
3.221 -0.6740116477012634 0.7875875234603882 1.8455088138580322e-05 4.3478794395923615e-05 0.0 0.0 0.0 0.0
3.222 -0.6745162606239319 0.7871555685997009 4.5027583837509155e-05 8.984282612800598e-05 0.0 0.0 0.0 0.0
3.223 -0.6795833706855774 0.7824692130088806 3.1953677535057068e-06 7.415749132633209e-05 0.0 0.0 0.0 0.0
3.224 -0.6737848520278931 0.7887929081916809 -1.9798986613750458e-05 0.00011033937335014343 0.0 0.0 0.0 0.0
3.225 -0.6757696866989136 0.7879943251609802 -7.568486034870148e-05 0.00013165827840566635 0.0 0.0 0.0 0.0
3.226 -0.6761335134506226 0.7873330116271973 2.5029294192790985e-05 5.388818681240082e-05 0.0 0.0 0.0 0.0
3.227 -0.6701818704605103 0.792334794998169 -1.6009435057640076e-06 4.5386143028736115e-05 0.0 0.0 0.0 0.0
3.228 -0.6673840284347534 0.7889603972434998 3.7754885852336884e-05 0.0001586470752954483 0.0 0.0 0.0 0.0
3.229 -0.6758452653884888 0.7879274487495422 2.826657146215439e-05 0.00013126246631145477 0.0 0.0 0.0 0.0
3.23 -0.6729744672775269 0.792405366897583 2.7793459594249725e-05 5.0310976803302765e-05 0.0 0.0 0.0 0.0
3.231 -0.6731686592102051 0.7904895544052124 -4.032813012599945e-05 0.00013050157576799393 0.0 0.0 0.0 0.0
3.232 -0.6748166680335999 0.792350172996521 5.067884922027588e-05 6.062071770429611e-05 0.0 0.0 0.0 0.0
3.233 -0.6700482964515686 0.7953252792358398 -2.3315660655498505e-05 4.854705184698105e-05 0.0 0.0 0.0 0.0
3.234 -0.6745002269744873 0.7920141220092773 3.343448042869568e-06 5.041714757680893e-05 0.0 0.0 0.0 0.0
3.235 -0.674439013004303 0.7907457947731018 -4.4539570808410645e-05 8.229166269302368e-05 0.0 0.0 0.0 0.0
3.236 -0.6722911596298218 0.793111264705658 6.906688213348389e-06 0.00010462850332260132 0.0 0.0 0.0 0.0
3.237 -0.6742276549339294 0.7923046946525574 4.66909259557724e-05 0.00012215878814458847 0.0 0.0 0.0 0.0
3.238 -0.6721300482749939 0.7936380505561829 -2.2348016500473022e-05 9.959470480680466e-05 0.0 0.0 0.0 0.0
3.239 -0.6717046499252319 0.7953280210494995 -3.4401193261146545e-05 9.841844439506531e-05 0.0 0.0 0.0 0.0
3.24 -0.6712445616722107 0.7941300868988037 -1.2852251529693604e-05 3.0244700610637665e-05 0.0 0.0 0.0 0.0
3.241 -0.6720036268234253 0.7963322401046753 -2.345070242881775e-05 0.00012214295566082 0.0 0.0 0.0 0.0
3.242 -0.6705353856086731 0.7971269488334656 4.5503489673137665e-05 3.518350422382355e-05 0.0 0.0 0.0 0.0
3.243 -0.6696043014526367 0.7998962998390198 -2.0582228899002075e-06 0.00011550728231668472 0.0 0.0 0.0 0.0
3.244 -0.6703109741210938 0.7970044016838074 3.115460276603699e-05 0.00012147333472967148 0.0 0.0 0.0 0.0
3.245 -0.6675605773925781 0.8001160621643066 -6.652344018220901e-05 5.846936255693436e-05 0.0 0.0 0.0 0.0
3.246 -0.6676855087280273 0.800887405872345 -5.4047442972660065e-05 0.00010493490844964981 0.0 0.0 0.0 0.0
3.247 -0.667768120765686 0.8006644248962402 -5.824770778417587e-05 3.540795296430588e-05 0.0 0.0 0.0 0.0
3.248 -0.669496476650238 0.7999691963195801 4.6253204345703125e-05 6.404612213373184e-05 0.0 0.0 0.0 0.0
3.249 -0.6715925335884094 0.7998199462890625 3.0222348868846893e-05 0.00013645831495523453 0.0 0.0 0.0 0.0
3.25 -0.6676530241966248 0.8014794588088989 -2.256501466035843e-05 0.00012192875146865845 0.0 0.0 0.0 0.0
3.251 -0.6655198931694031 0.8039885759353638 1.4028511941432953e-05 0.00010699406266212463 0.0 0.0 0.0 0.0
3.252 -0.6641196608543396 0.8053792119026184 3.797374665737152e-05 5.955621600151062e-05 0.0 0.0 0.0 0.0
3.253 -0.6698386669158936 0.8005455136299133 8.738599717617035e-06 0.00013885553926229477 0.0 0.0 0.0 0.0
3.254 -0.6631122827529907 0.8054893016815186 4.147924482822418e-05 6.480515003204346e-05 0.0 0.0 0.0 0.0
3.255 -0.6648279428482056 0.8054471611976624 -4.909280687570572e-05 3.232434391975403e-05 0.0 0.0 0.0 0.0
3.256 -0.6658763289451599 0.8034870028495789 2.606026828289032e-05 9.206216782331467e-05 0.0 0.0 0.0 0.0
3.257 -0.661826491355896 0.8076091408729553 -5.440041422843933e-05 6.341096013784409e-05 0.0 0.0 0.0 0.0
3.258 -0.6651753783226013 0.8057038187980652 -2.8760172426700592e-05 7.716380059719086e-05 0.0 0.0 0.0 0.0
3.259 -0.666146457195282 0.8052648305892944 8.142367005348206e-05 0.00010147783905267715 0.0 0.0 0.0 0.0
3.26 -0.6653633117675781 0.8046755790710449 6.744638085365295e-06 0.00010287575423717499 0.0 0.0 0.0 0.0
3.261 -0.6616001129150391 0.8082621693611145 -3.123655915260315e-05 5.382392555475235e-05 0.0 0.0 0.0 0.0
3.262 -0.6657429337501526 0.8057574033737183 -4.25996258854866e-05 3.5812146961688995e-05 0.0 0.0 0.0 0.0
3.263 -0.6609662175178528 0.8081436157226562 3.6988407373428345e-05 9.706150740385056e-05 0.0 0.0 0.0 0.0
3.264 -0.6582620739936829 0.8094906210899353 -5.453824996948242e-06 0.00014210399240255356 0.0 0.0 0.0 0.0
3.265 -0.6660553812980652 0.8036710619926453 -4.214327782392502e-05 8.658785372972488e-05 0.0 0.0 0.0 0.0
3.266 -0.6575597524642944 0.8114845752716064 -8.304603397846222e-06 2.4097971618175507e-05 0.0 0.0 0.0 0.0
3.267 -0.6652093529701233 0.804524838924408 6.691552698612213e-06 7.22743570804596e-05 0.0 0.0 0.0 0.0
3.268 -0.6640994548797607 0.8071211576461792 3.972090780735016e-06 9.468011558055878e-05 0.0 0.0 0.0 0.0
3.269 -0.662406861782074 0.8062285780906677 -4.171393811702728e-06 -2.5480985641479492e-06 0.0 0.0 0.0 0.0
3.27 -0.6572802662849426 0.8120898604393005 -4.639662802219391e-05 -1.0360963642597198e-05 0.0 0.0 0.0 0.0
3.271 -0.6668880581855774 0.8034747838973999 -3.589317202568054e-05 9.634345769882202e-05 0.0 0.0 0.0 0.0
3.272 -0.6540620923042297 0.8135558366775513 -9.288080036640167e-06 9.103678166866302e-05 0.0 0.0 0.0 0.0
3.273 -0.6640883684158325 0.8068865537643433 -3.247614949941635e-05 -2.767890691757202e-05 0.0 0.0 0.0 0.0
3.274 -0.6612712144851685 0.8090602159500122 1.0868534445762634e-06 -1.996755599975586e-05 0.0 0.0 0.0 0.0
3.275 -0.6610425710678101 0.8087138533592224 4.360172897577286e-05 4.4354237616062164e-05 0.0 0.0 0.0 0.0
3.276 -0.6609607338905334 0.810987114906311 1.2814067304134369e-05 -8.365139365196228e-06 0.0 0.0 0.0 0.0
3.277 -0.6604490876197815 0.8087201714515686 2.8654932975769043e-05 8.785538375377655e-05 0.0 0.0 0.0 0.0
3.278 -0.6611995100975037 0.8100647926330566 -6.663240492343903e-05 5.481019616127014e-05 0.0 0.0 0.0 0.0
3.279 -0.6616232395172119 0.8110053539276123 -3.5869888961315155e-05 1.3792887330055237e-06 0.0 0.0 0.0 0.0
3.28 -0.6607882380485535 0.8095107078552246 -7.68294557929039e-05 6.842799484729767e-05 0.0 0.0 0.0 0.0
3.281 -0.664460301399231 0.8087990880012512 -4.730839282274246e-05 -4.1697174310684204e-05 0.0 0.0 0.0 0.0
3.282 -0.6609843969345093 0.8120825290679932 -3.296229988336563e-05 7.941201329231262e-05 0.0 0.0 0.0 0.0
3.283 -0.6598184108734131 0.8132973909378052 -9.248033165931702e-05 6.338022649288177e-05 0.0 0.0 0.0 0.0
3.284 -0.6610350012779236 0.8142911195755005 -9.65408980846405e-06 6.256252527236938e-05 0.0 0.0 0.0 0.0
3.285 -0.6643088459968567 0.812534749507904 -1.7144717276096344e-05 -1.7809681594371796e-05 0.0 0.0 0.0 0.0
3.286 -0.6575143337249756 0.8174528479576111 -9.614601731300354e-05 -4.94709238409996e-05 0.0 0.0 0.0 0.0
3.287 -0.664465606212616 0.8149630427360535 -2.8682872653007507e-05 6.930064409971237e-05 0.0 0.0 0.0 0.0
3.288 -0.6616533398628235 0.8144740462303162 -6.446428596973419e-05 5.292799323797226e-05 0.0 0.0 0.0 0.0
3.289 -0.6626036167144775 0.8166558146476746 -9.517651051282883e-05 8.512195199728012e-05 0.0 0.0 0.0 0.0
3.29 -0.6642643213272095 0.8173094391822815 -1.4699064195156097e-05 -7.562339305877686e-07 0.0 0.0 0.0 0.0
3.291 -0.664646327495575 0.8188648819923401 -4.0864571928977966e-05 2.7378089725971222e-05 0.0 0.0 0.0 0.0
3.292 -0.6610565185546875 0.8213045001029968 -3.0064024031162262e-05 5.862582474946976e-05 0.0 0.0 0.0 0.0
3.293 -0.6638553738594055 0.8196908831596375 -0.0001233825460076332 2.5199726223945618e-05 0.0 0.0 0.0 0.0
3.294 -0.6625406742095947 0.8204742670059204 -9.80570912361145e-05 4.446413367986679e-05 0.0 0.0 0.0 0.0
3.295 -0.661088764667511 0.8229394555091858 1.6091391444206238e-05 0.00010378658771514893 0.0 0.0 0.0 0.0
3.296 -0.661965012550354 0.8241628408432007 -5.619600415229797e-06 1.2071803212165833e-05 0.0 0.0 0.0 0.0
3.297 -0.6662746667861938 0.821096658706665 -0.00016186945140361786 6.416626274585724e-05 0.0 0.0 0.0 0.0
3.298 -0.6597111821174622 0.8260811567306519 -0.00011573638767004013 7.859524339437485e-05 0.0 0.0 0.0 0.0
3.299 -0.6606108546257019 0.8268712162971497 -0.00013533513993024826 2.1931715309619904e-05 0.0 0.0 0.0 0.0
3.3 -0.6653494834899902 0.8184236884117126 -7.784925401210785e-05 8.768122643232346e-05 0.0 0.0 0.0 0.0
3.301 -0.6599068641662598 0.8286088109016418 -1.1616386473178864e-05 5.2537769079208374e-05 0.0 0.0 0.0 0.0
3.302 -0.6612752079963684 0.8281430602073669 -7.155630737543106e-05 0.00010613072663545609 0.0 0.0 0.0 0.0
3.303 -0.6602412462234497 0.8276680707931519 -0.00014330074191093445 4.752073436975479e-05 0.0 0.0 0.0 0.0
3.304 -0.6582379937171936 0.8301165699958801 -0.00011369213461875916 -1.7723068594932556e-06 0.0 0.0 0.0 0.0
3.305 -0.6611574292182922 0.8305208683013916 -8.58306884765625e-06 0.00010837242007255554 0.0 0.0 0.0 0.0
3.306 -0.6598226428031921 0.8303959965705872 -0.00011083390563726425 6.570667028427124e-05 0.0 0.0 0.0 0.0
3.307 -0.65843665599823 0.8324750661849976 -9.338371455669403e-05 0.00011862162500619888 0.0 0.0 0.0 0.0
3.308 -0.662085771560669 0.8304605484008789 -9.10172238945961e-05 6.076879799365997e-06 0.0 0.0 0.0 0.0
3.309 -0.6563685536384583 0.835785448551178 -5.271565169095993e-05 1.415889710187912e-05 0.0 0.0 0.0 0.0
3.31 -0.6572664976119995 0.8352809548377991 -5.303695797920227e-05 -3.402121365070343e-06 0.0 0.0 0.0 0.0
3.311 -0.6585568189620972 0.8341321349143982 -0.00010703597217798233 9.596534073352814e-05 0.0 0.0 0.0 0.0
3.312 -0.6521909236907959 0.8375142216682434 -0.00011628679931163788 1.94525346159935e-05 0.0 0.0 0.0 0.0
3.313 -0.65901118516922 0.8351204991340637 -0.00013108644634485245 6.559677422046661e-05 0.0 0.0 0.0 0.0
3.314 -0.6577388644218445 0.8375706076622009 -0.00010493025183677673 2.290681004524231e-05 0.0 0.0 0.0 0.0
3.315 -0.6552649736404419 0.8391416668891907 -3.819819539785385e-05 9.17930155992508e-05 0.0 0.0 0.0 0.0
3.316 -0.6563199758529663 0.8410470485687256 -2.3256056010723114e-05 0.0001079970970749855 0.0 0.0 0.0 0.0
3.317 -0.6541857123374939 0.840420126914978 -0.00010701268911361694 1.0886229574680328e-05 0.0 0.0 0.0 0.0
3.318 -0.6533458232879639 0.8418745398521423 -6.576906889677048e-05 3.385636955499649e-05 0.0 0.0 0.0 0.0
3.319 -0.6566328406333923 0.8396246433258057 -5.125999450683594e-05 -1.1806376278400421e-05 0.0 0.0 0.0 0.0
3.32 -0.6520677208900452 0.8440703749656677 -0.0001299167051911354 4.3315812945365906e-05 0.0 0.0 0.0 0.0
3.321 -0.6527891755104065 0.8434756994247437 -0.00017871428281068802 7.140729576349258e-05 0.0 0.0 0.0 0.0
3.322 -0.6526920795440674 0.844040036201477 -7.79964029788971e-05 0.00011219549924135208 0.0 0.0 0.0 0.0
3.323 -0.651420533657074 0.845183789730072 -8.08248296380043e-05 0.00010271184146404266 0.0 0.0 0.0 0.0
3.324 -0.6541563868522644 0.84686678647995 -0.00012429151684045792 7.421523332595825e-05 0.0 0.0 0.0 0.0
3.325 -0.6522820591926575 0.8459843993186951 -0.00017801951617002487 8.064694702625275e-05 0.0 0.0 0.0 0.0
3.326 -0.651384711265564 0.8462448120117188 -0.00010028854012489319 5.697924643754959e-05 0.0 0.0 0.0 0.0
3.327 -0.6499098539352417 0.8500537872314453 -8.220970630645752e-05 2.2503547370433807e-05 0.0 0.0 0.0 0.0
3.328 -0.6498867869377136 0.8481540679931641 -5.750078707933426e-05 1.9770115613937378e-05 0.0 0.0 0.0 0.0
3.329 -0.6469073295593262 0.8514102101325989 -9.560305625200272e-05 -2.93683260679245e-05 0.0 0.0 0.0 0.0
3.33 -0.6421545147895813 0.8553972840309143 -0.00015899259597063065 -1.8952414393424988e-06 0.0 0.0 0.0 0.0
3.331 -0.6521645784378052 0.8488441109657288 -0.00017992127686738968 6.0296617448329926e-05 0.0 0.0 0.0 0.0
3.332 -0.6441391110420227 0.8540652990341187 -0.00013244710862636566 9.771343320608139e-05 0.0 0.0 0.0 0.0
3.333 -0.6444757580757141 0.8552613258361816 -0.00016764365136623383 0.00010483339428901672 0.0 0.0 0.0 0.0
3.334 -0.6507899761199951 0.8517611622810364 -0.00014358479529619217 -3.308337181806564e-05 0.0 0.0 0.0 0.0
3.335 -0.6433225870132446 0.8561775088310242 -9.836070239543915e-05 8.365791290998459e-05 0.0 0.0 0.0 0.0
3.336 -0.644911527633667 0.8529673218727112 -0.0001709209755063057 7.778499275445938e-05 0.0 0.0 0.0 0.0
3.337 -0.6411350965499878 0.8566741347312927 -0.0001438325271010399 0.00010966416448354721 0.0 0.0 0.0 0.0
3.338 -0.6438226699829102 0.8571001887321472 -9.388662874698639e-05 0.00011716876178979874 0.0 0.0 0.0 0.0
3.339 -0.6433575749397278 0.8575639128684998 -8.615292608737946e-05 8.933991193771362e-05 0.0 0.0 0.0 0.0
3.34 -0.6450479030609131 0.8571847677230835 -0.00010067876428365707 0.00012132897973060608 0.0 0.0 0.0 0.0
3.341 -0.642266571521759 0.8578113317489624 -0.00014101620763540268 -2.7482397854328156e-05 0.0 0.0 0.0 0.0
3.342 -0.6376866102218628 0.8620992302894592 -0.00019631534814834595 9.505916386842728e-05 0.0 0.0 0.0 0.0
3.343 -0.6396481394767761 0.8616609573364258 -5.463790148496628e-05 5.847029387950897e-05 0.0 0.0 0.0 0.0
3.344 -0.6411331295967102 0.8607900738716125 -9.02414321899414e-05 -4.236586391925812e-06 0.0 0.0 0.0 0.0
3.345 -0.6362823843955994 0.8650317788124084 -0.0001812698319554329 4.097353667020798e-05 0.0 0.0 0.0 0.0
3.346 -0.6400575041770935 0.8614583015441895 -4.3244101107120514e-05 1.7558224499225616e-05 0.0 0.0 0.0 0.0
3.347 -0.6396041512489319 0.8610190153121948 -9.249988943338394e-05 9.123235940933228e-05 0.0 0.0 0.0 0.0
3.348 -0.6385881304740906 0.8685662746429443 -0.0002179183065891266 0.00010470487177371979 0.0 0.0 0.0 0.0
3.349 -0.6365097761154175 0.8668161630630493 -0.0001379186287522316 -1.1897645890712738e-05 0.0 0.0 0.0 0.0
3.35 -0.6403217911720276 0.861274778842926 -9.264610707759857e-05 6.263237446546555e-05 0.0 0.0 0.0 0.0
3.351 -0.6343444585800171 0.8668559789657593 -9.934604167938232e-05 -3.727152943611145e-06 0.0 0.0 0.0 0.0
3.352 -0.63714599609375 0.866873025894165 -0.00011764094233512878 7.253605872392654e-05 0.0 0.0 0.0 0.0
3.353 -0.6350575089454651 0.8654199838638306 -0.00014975201338529587 4.612468183040619e-05 0.0 0.0 0.0 0.0
3.354 -0.6327745914459229 0.8696469068527222 -0.00011913012713193893 2.7171336114406586e-05 0.0 0.0 0.0 0.0
3.355 -0.6320683360099792 0.8698291182518005 -0.00012468080967664719 3.2893382012844086e-05 0.0 0.0 0.0 0.0
3.356 -0.6349083781242371 0.8670316338539124 -0.00020917877554893494 1.4234334230422974e-05 0.0 0.0 0.0 0.0
3.357 -0.631321370601654 0.8693318963050842 -0.0001856684684753418 4.968792200088501e-05 0.0 0.0 0.0 0.0
3.358 -0.6311537027359009 0.8718121647834778 -0.00023016426712274551 6.173364818096161e-05 0.0 0.0 0.0 0.0
3.359 -0.6312053203582764 0.8701087236404419 -0.00011378340423107147 9.004771709442139e-05 0.0 0.0 0.0 0.0
3.36 -0.6273996233940125 0.876124918460846 -0.00013623293489217758 0.00011866632848978043 0.0 0.0 0.0 0.0
3.361 -0.6281594634056091 0.8726241588592529 -0.00010652933269739151 8.950848132371902e-05 0.0 0.0 0.0 0.0
3.362 -0.6273679137229919 0.8733848333358765 -0.00021434854716062546 4.894845187664032e-05 0.0 0.0 0.0 0.0
3.363 -0.6300317645072937 0.8734161257743835 -0.00016274023801088333 1.2684613466262817e-06 0.0 0.0 0.0 0.0
3.364 -0.6288014054298401 0.8755921721458435 -0.00013456400483846664 4.432257264852524e-05 0.0 0.0 0.0 0.0
3.365 -0.6247917413711548 0.8769327402114868 -0.00018031615763902664 9.648222476243973e-05 0.0 0.0 0.0 0.0
3.366 -0.6275727152824402 0.8750774264335632 -0.00011921674013137817 -1.683644950389862e-05 0.0 0.0 0.0 0.0
3.367 -0.6224372386932373 0.8774287104606628 -0.0001231711357831955 6.748177111148834e-05 0.0 0.0 0.0 0.0
3.368 -0.6215015649795532 0.8806205987930298 -0.00014947354793548584 7.062219083309174e-06 0.0 0.0 0.0 0.0
3.369 -0.6240383386611938 0.8795834183692932 -0.00013547949492931366 9.74973663687706e-05 0.0 0.0 0.0 0.0
3.37 -0.6217276453971863 0.8777843117713928 -0.00020013563334941864 0.0001235026866197586 0.0 0.0 0.0 0.0
3.371 -0.6191520094871521 0.8828794360160828 -7.639173418283463e-05 5.1877461373806e-05 0.0 0.0 0.0 0.0
3.372 -0.6290823817253113 0.8817931413650513 -0.00013851188123226166 9.954161942005157e-05 0.0 0.0 0.0 0.0
3.373 -0.6202617287635803 0.8811465501785278 -0.00013616401702165604 3.1694769859313965e-05 0.0 0.0 0.0 0.0
3.374 -0.6202664375305176 0.8827288150787354 -0.00011188630014657974 3.435276448726654e-05 0.0 0.0 0.0 0.0
3.375 -0.6193923354148865 0.8817012310028076 -0.0001135682687163353 9.488407522439957e-05 0.0 0.0 0.0 0.0
3.376 -0.6156428456306458 0.8840440511703491 -0.00024526380002498627 -1.206621527671814e-05 0.0 0.0 0.0 0.0
3.377 -0.6156536340713501 0.8848370909690857 -0.0002491576597094536 1.3978220522403717e-05 0.0 0.0 0.0 0.0
3.378 -0.6198095679283142 0.8821849822998047 -0.0001348378136754036 0.00011651404201984406 0.0 0.0 0.0 0.0
3.379 -0.6168829798698425 0.8828001022338867 -0.0001678038388490677 0.00014102552086114883 0.0 0.0 0.0 0.0
3.38 -0.6126201748847961 0.8867794871330261 -0.00020577199757099152 9.265169501304626e-05 0.0 0.0 0.0 0.0
3.381 -0.612230122089386 0.8892260789871216 -0.00021311920136213303 8.314847946166992e-05 0.0 0.0 0.0 0.0
3.382 -0.6142529845237732 0.8860947489738464 -0.00013796798884868622 1.929979771375656e-05 0.0 0.0 0.0 0.0
3.383 -0.6096009016036987 0.8898667693138123 -0.0001821601763367653 8.551590144634247e-05 0.0 0.0 0.0 0.0
3.384 -0.6112251281738281 0.8890506625175476 -0.0001630326732993126 4.277750849723816e-05 0.0 0.0 0.0 0.0
3.385 -0.6096236705780029 0.88907390832901 -0.00014974921941757202 4.848465323448181e-05 0.0 0.0 0.0 0.0
3.386 -0.6071828007698059 0.8929370641708374 -0.0001764744520187378 -2.1632760763168335e-05 0.0 0.0 0.0 0.0
3.387 -0.6101118326187134 0.8903186917304993 -0.00015190336853265762 0.00010051857680082321 0.0 0.0 0.0 0.0
3.388 -0.6062163710594177 0.8904781341552734 -0.00020962301641702652 8.196104317903519e-05 0.0 0.0 0.0 0.0
3.389 -0.6075456738471985 0.8915800452232361 -0.00021688919514417648 7.36461952328682e-05 0.0 0.0 0.0 0.0
3.39 -0.608418345451355 0.8914388418197632 -0.00015889853239059448 5.343090742826462e-05 0.0 0.0 0.0 0.0
3.391 -0.6022456288337708 0.895272433757782 -0.00021617114543914795 3.273226320743561e-05 0.0 0.0 0.0 0.0
3.392 -0.6013200879096985 0.8963309526443481 -0.00018706358969211578 8.561555296182632e-05 0.0 0.0 0.0 0.0
3.393 -0.6027863025665283 0.8954424858093262 -0.0002447487786412239 5.253683775663376e-05 0.0 0.0 0.0 0.0
3.394 -0.6021741032600403 0.8956368565559387 -0.00014269258826971054 5.9232115745544434e-05 0.0 0.0 0.0 0.0
3.395 -0.6009019017219543 0.8986949920654297 -0.00017532240599393845 -1.0244548320770264e-05 0.0 0.0 0.0 0.0
3.396 -0.6023462414741516 0.8937138319015503 -0.0001558903604745865 8.73468816280365e-05 0.0 0.0 0.0 0.0
3.397 -0.6020267009735107 0.8956965804100037 -0.00016811955720186234 0.00011472497135400772 0.0 0.0 0.0 0.0
3.398 -0.5946261286735535 0.9002601504325867 -0.0002795252948999405 8.312985301017761e-05 0.0 0.0 0.0 0.0
3.399 -0.6016484498977661 0.8978495597839355 -0.0002506077289581299 -4.438590258359909e-05 0.0 0.0 0.0 0.0
3.4 -0.5983799695968628 0.8984258770942688 -0.0002463655546307564 -3.316905349493027e-05 0.0 0.0 0.0 0.0
3.401 -0.5954277515411377 0.9008814692497253 -0.00020347628742456436 0.00015318114310503006 0.0 0.0 0.0 0.0
3.402 -0.5969849824905396 0.8986679315567017 -0.0003164950758218765 1.615285873413086e-05 0.0 0.0 0.0 0.0
3.403 -0.5934057831764221 0.9009504318237305 -0.00031702034175395966 8.329562842845917e-05 0.0 0.0 0.0 0.0
3.404 -0.589947521686554 0.9039251804351807 -0.00019294768571853638 -1.5402212738990784e-05 0.0 0.0 0.0 0.0
3.405 -0.5942676067352295 0.8997465968132019 -0.00017540901899337769 0.00011357106268405914 0.0 0.0 0.0 0.0
3.406 -0.589695930480957 0.9030290842056274 -0.00015275552868843079 7.686018943786621e-05 0.0 0.0 0.0 0.0
3.407 -0.5913819670677185 0.9031320214271545 -0.00023043807595968246 -4.353933036327362e-05 0.0 0.0 0.0 0.0
3.408 -0.5914462804794312 0.907340943813324 -0.00017762836068868637 8.973293006420135e-06 0.0 0.0 0.0 0.0
3.409 -0.588463306427002 0.9037382006645203 -0.000135115347802639 3.9245933294296265e-06 0.0 0.0 0.0 0.0
3.41 -0.5874437093734741 0.9057634472846985 -0.00020277593284845352 0.00013930350542068481 0.0 0.0 0.0 0.0
3.411 -0.5897724032402039 0.9035971760749817 -0.000283549539744854 0.00010284595191478729 0.0 0.0 0.0 0.0
3.412 -0.5833112001419067 0.9083484411239624 -0.00030061230063438416 7.603690028190613e-05 0.0 0.0 0.0 0.0
3.413 -0.5834813714027405 0.9089859127998352 -0.00014215707778930664 2.234429121017456e-05 0.0 0.0 0.0 0.0
3.414 -0.587306797504425 0.90555340051651 -0.00018402934074401855 0.00013441592454910278 0.0 0.0 0.0 0.0
3.415 -0.5855125784873962 0.9051960110664368 -0.00015938002616167068 -3.935955464839935e-05 0.0 0.0 0.0 0.0
3.416 -0.5803695321083069 0.9101722240447998 -0.00030232593417167664 5.503930151462555e-05 0.0 0.0 0.0 0.0
3.417 -0.582287073135376 0.9084804058074951 -0.00025304313749074936 -4.902482032775879e-05 0.0 0.0 0.0 0.0
3.418 -0.5790731906890869 0.908261239528656 -0.00031345896422863007 2.12155282497406e-05 0.0 0.0 0.0 0.0
3.419 -0.5796583890914917 0.9106761813163757 -0.0001864265650510788 8.367747068405151e-05 0.0 0.0 0.0 0.0
3.42 -0.5817882418632507 0.9098666310310364 -0.00023187324404716492 8.213706314563751e-05 0.0 0.0 0.0 0.0
3.421 -0.5760989189147949 0.9118114113807678 -0.00020361319184303284 0.00017797108739614487 0.0 0.0 0.0 0.0
3.422 -0.5820868015289307 0.9019490480422974 -0.00016668997704982758 -4.5573338866233826e-05 0.0 0.0 0.0 0.0
3.423 -0.5799122452735901 0.900916337966919 -0.00034761708229780197 5.947239696979523e-05 0.0 0.0 0.0 0.0
3.424 -0.5805103778839111 0.9005451798439026 -0.00035892240703105927 6.969179958105087e-05 0.0 0.0 0.0 0.0
3.425 -0.5756611824035645 0.9058500528335571 -0.0001879427582025528 6.692763417959213e-05 0.0 0.0 0.0 0.0
3.426 -0.5786168575286865 0.9039625525474548 -0.00021411385387182236 4.377681761980057e-05 0.0 0.0 0.0 0.0
3.427 -0.577375590801239 0.9049727320671082 -0.0002825222909450531 -3.30265611410141e-05 0.0 0.0 0.0 0.0
3.428 -0.5721133351325989 0.9064452648162842 -0.0003598323091864586 -1.5692785382270813e-06 0.0 0.0 0.0 0.0
3.429 -0.571446418762207 0.9064735174179077 -0.00030301231890916824 0.00010837428271770477 0.0 0.0 0.0 0.0
3.43 -0.5780765414237976 0.9033377766609192 -0.00028583407402038574 8.267909288406372e-05 0.0 0.0 0.0 0.0
3.431 -0.5721518397331238 0.9057467579841614 -0.000250902958214283 9.724590927362442e-05 0.0 0.0 0.0 0.0
3.432 -0.5760472416877747 0.9089068174362183 -0.0002344110980629921 -4.995334893465042e-05 0.0 0.0 0.0 0.0
3.433 -0.5699845552444458 0.9049681425094604 -0.00036147236824035645 5.311518907546997e-05 0.0 0.0 0.0 0.0
3.434 -0.5676173567771912 0.9100611805915833 -0.00016646459698677063 -8.945073932409286e-05 0.0 0.0 0.0 0.0
3.435 -0.5640321373939514 0.9114055037498474 -0.00025075022131204605 8.605513721704483e-05 0.0 0.0 0.0 0.0
3.436 -0.5672890543937683 0.9087865948677063 -0.0003448398783802986 -2.089422196149826e-05 0.0 0.0 0.0 0.0
3.437 -0.566382884979248 0.911548912525177 -0.00027175992727279663 -8.330028504133224e-05 0.0 0.0 0.0 0.0
3.438 -0.566034734249115 0.9099944233894348 -0.00030990876257419586 -6.0335732996463776e-05 0.0 0.0 0.0 0.0
3.439 -0.5611225962638855 0.9116862416267395 -0.0002863602712750435 6.187893450260162e-05 0.0 0.0 0.0 0.0
3.44 -0.565138041973114 0.9102895855903625 -0.0002223178744316101 -6.744451820850372e-05 0.0 0.0 0.0 0.0
3.441 -0.5586299300193787 0.9153768420219421 -0.0003427257761359215 -5.769450217485428e-05 0.0 0.0 0.0 0.0
3.442 -0.5629515051841736 0.9100956916809082 -0.0002905316650867462 5.521997809410095e-05 0.0 0.0 0.0 0.0
3.443 -0.5614802241325378 0.9117187857627869 -0.00042066723108291626 1.6869045794010162e-05 0.0 0.0 0.0 0.0
3.444 -0.5619252920150757 0.9124451875686646 -0.000313321128487587 -9.093340486288071e-05 0.0 0.0 0.0 0.0
3.445 -0.5617198348045349 0.9119943976402283 -0.00021420884877443314 -4.688091576099396e-05 0.0 0.0 0.0 0.0
3.446 -0.5533019304275513 0.9153358340263367 -0.00029306765645742416 8.153356611728668e-05 0.0 0.0 0.0 0.0
3.447 -0.5583255290985107 0.9122264385223389 -0.0003751702606678009 8.89115035533905e-05 0.0 0.0 0.0 0.0
3.448 -0.5547434687614441 0.9122400283813477 -0.00034767016768455505 4.4415704905986786e-05 0.0 0.0 0.0 0.0
3.449 -0.552437961101532 0.914380669593811 -0.0004235580563545227 -7.454492151737213e-05 0.0 0.0 0.0 0.0
3.45 -0.5516202449798584 0.9154024124145508 -0.00022737588733434677 -3.273226320743561e-05 0.0 0.0 0.0 0.0
3.451 -0.5520780086517334 0.9166043400764465 -0.00028709322214126587 -4.4140033423900604e-05 0.0 0.0 0.0 0.0
3.452 -0.5476416945457458 0.9158766865730286 -0.00034102704375982285 5.3064897656440735e-05 0.0 0.0 0.0 0.0
3.453 -0.5448520183563232 0.9159227013587952 -0.00040399376302957535 6.152037531137466e-05 0.0 0.0 0.0 0.0
3.454 -0.548117458820343 0.9154278039932251 -0.00042306724935770035 2.718903124332428e-05 0.0 0.0 0.0 0.0
3.455 -0.545861542224884 0.9171296954154968 -0.000317583791911602 -2.4984590709209442e-05 0.0 0.0 0.0 0.0
3.456 -0.5434032082557678 0.920185387134552 -0.00030323397368192673 5.889683961868286e-06 0.0 0.0 0.0 0.0
3.457 -0.5444198846817017 0.9166936278343201 -0.00037263426929712296 6.548408418893814e-05 0.0 0.0 0.0 0.0
3.458 -0.542267918586731 0.9158607125282288 -0.00046024564653635025 5.3064897656440735e-05 0.0 0.0 0.0 0.0
3.459 -0.5392286777496338 0.920333981513977 -0.0004615494981408119 -2.424325793981552e-05 0.0 0.0 0.0 0.0
3.46 -0.5417044162750244 0.9162139892578125 -0.0004209838807582855 -0.00013085734099149704 0.0 0.0 0.0 0.0
3.461 -0.5365501046180725 0.91928631067276 -0.0003148801624774933 3.355555236339569e-06 0.0 0.0 0.0 0.0
3.462 -0.5364201068878174 0.9178377985954285 -0.0004437500610947609 7.021520286798477e-05 0.0 0.0 0.0 0.0
3.463 -0.5383379459381104 0.9166215658187866 -0.00027085188776254654 0.00010286178439855576 0.0 0.0 0.0 0.0
3.464 -0.5332406759262085 0.9193214774131775 -0.0004721079021692276 -9.148754179477692e-05 0.0 0.0 0.0 0.0
3.465 -0.537543773651123 0.9169541001319885 -0.00042442046105861664 -5.554594099521637e-05 0.0 0.0 0.0 0.0
3.466 -0.5366910696029663 0.9172544479370117 -0.0003597065806388855 0.00011249072849750519 0.0 0.0 0.0 0.0
3.467 -0.5315490961074829 0.918229877948761 -0.0003765253350138664 7.446762174367905e-05 0.0 0.0 0.0 0.0
3.468 -0.5330490469932556 0.915290892124176 -0.0005280952900648117 -4.803575575351715e-05 0.0 0.0 0.0 0.0
3.469 -0.5315612554550171 0.9180225133895874 -0.0004607532173395157 9.66312363743782e-05 0.0 0.0 0.0 0.0
3.47 -0.5288876891136169 0.9204302430152893 -0.0004675108939409256 -8.546561002731323e-05 0.0 0.0 0.0 0.0
3.471 -0.5252503156661987 0.9209412336349487 -0.00046020373702049255 9.320490062236786e-05 0.0 0.0 0.0 0.0
3.472 -0.5291140675544739 0.9154647588729858 -0.00033546332269907 4.911143332719803e-05 0.0 0.0 0.0 0.0
3.473 -0.5247436761856079 0.9190202355384827 -0.0004483340308070183 -6.385240703821182e-05 0.0 0.0 0.0 0.0
3.474 -0.5286301970481873 0.918022632598877 -0.0004890123382210732 2.374313771724701e-05 0.0 0.0 0.0 0.0
3.475 -0.5271276831626892 0.9167273044586182 -0.0003919703885912895 5.824211984872818e-05 0.0 0.0 0.0 0.0
3.476 -0.5218084454536438 0.9203738570213318 -0.0005760015919804573 6.89532607793808e-05 0.0 0.0 0.0 0.0
3.477 -0.5229629278182983 0.9199790358543396 -0.00045933667570352554 -1.3757497072219849e-05 0.0 0.0 0.0 0.0
3.478 -0.5213444232940674 0.9186896681785583 -0.0005147755146026611 0.00014720484614372253 0.0 0.0 0.0 0.0
3.479 -0.5216275453567505 0.9182077646255493 -0.0004148520529270172 0.00010780245065689087 0.0 0.0 0.0 0.0
3.48 -0.5249122381210327 0.9217020869255066 -0.0004893559962511063 -2.2180378437042236e-05 0.0 0.0 0.0 0.0
3.481 -0.521640956401825 0.919169545173645 -0.00039641279727220535 3.864988684654236e-07 0.0 0.0 0.0 0.0
3.482 -0.5186827182769775 0.9210408926010132 -0.00042200367897748947 4.756264388561249e-06 0.0 0.0 0.0 0.0
3.483 -0.5169234871864319 0.9222583174705505 -0.0005142129957675934 4.7184526920318604e-05 0.0 0.0 0.0 0.0
3.484 -0.521735429763794 0.9186056852340698 -0.0003957590088248253 9.117182344198227e-05 0.0 0.0 0.0 0.0
3.485 -0.5182160139083862 0.9199522733688354 -0.0005415715277194977 2.282019704580307e-05 0.0 0.0 0.0 0.0
3.486 -0.519500732421875 0.9216706156730652 -0.00040611717849969864 0.00014266744256019592 0.0 0.0 0.0 0.0
3.487 -0.518041729927063 0.9222224950790405 -0.00040575675666332245 -5.39412721991539e-05 0.0 0.0 0.0 0.0
3.488 -0.5170285701751709 0.9219911098480225 -0.0005332017317414284 3.703869879245758e-06 0.0 0.0 0.0 0.0
3.489 -0.5128947496414185 0.9259808659553528 -0.0005821306258440018 -4.250369966030121e-05 0.0 0.0 0.0 0.0
3.49 -0.5180500745773315 0.9221905469894409 -0.0004565892741084099 0.00011990033090114594 0.0 0.0 0.0 0.0
3.491 -0.5132579207420349 0.9244204163551331 -0.0004561031237244606 0.00017630867660045624 0.0 0.0 0.0 0.0
3.492 -0.5148579478263855 0.9194883108139038 -0.0004018079489469528 6.622914224863052e-05 0.0 0.0 0.0 0.0
3.493 -0.5120765566825867 0.9264447093009949 -0.0004811091348528862 0.00014723092317581177 0.0 0.0 0.0 0.0
3.494 -0.5107980370521545 0.9278010725975037 -0.00048768892884254456 -4.8228539526462555e-05 0.0 0.0 0.0 0.0
3.495 -0.5080984234809875 0.9292502999305725 -0.00043125543743371964 0.00010102801024913788 0.0 0.0 0.0 0.0
3.496 -0.5127630829811096 0.9257339239120483 -0.00040259677916765213 3.857724368572235e-05 0.0 0.0 0.0 0.0
3.497 -0.5085970759391785 0.9282072186470032 -0.000564240850508213 0.00023573730140924454 0.0 0.0 0.0 0.0
3.498 -0.5077443718910217 0.9282450079917908 -0.0006657065823674202 7.799547165632248e-05 0.0 0.0 0.0 0.0
3.499 -0.5049853324890137 0.9305108785629272 -0.0006309589371085167 6.923824548721313e-05 0.0 0.0 0.0 0.0
3.5 -0.5047274827957153 0.929335355758667 -0.0004703616723418236 0.00015516765415668488 0.0 0.0 0.0 0.0
3.501 -0.5076144933700562 0.9303207993507385 -0.0004796106368303299 1.9667670130729675e-05 0.0 0.0 0.0 0.0
3.502 -0.5042228698730469 0.9304001331329346 -0.0005106879398226738 8.434988558292389e-06 0.0 0.0 0.0 0.0
3.503 -0.5025628209114075 0.9315156936645508 -0.0005714837461709976 0.00014833081513643265 0.0 0.0 0.0 0.0
3.504 -0.5025882124900818 0.9317752122879028 -0.0007470753043889999 2.148933708667755e-05 0.0 0.0 0.0 0.0
3.505 -0.5001493096351624 0.9325426816940308 -0.0007407525554299355 -2.5326386094093323e-05 0.0 0.0 0.0 0.0
3.506 -0.5022889375686646 0.9335434436798096 -0.00057273730635643 3.787688910961151e-05 0.0 0.0 0.0 0.0
3.507 -0.49702775478363037 0.9339624047279358 -0.0005197133868932724 6.763171404600143e-05 0.0 0.0 0.0 0.0
3.508 -0.4940837323665619 0.9370839595794678 -0.0005324250087141991 0.0002612089738249779 0.0 0.0 0.0 0.0
3.509 -0.49275699257850647 0.9372918605804443 -0.0005243401974439621 8.968356996774673e-05 0.0 0.0 0.0 0.0
3.51 -0.49398472905158997 0.9364598989486694 -0.0006019510328769684 0.00023220572620630264 0.0 0.0 0.0 0.0
3.511 -0.4877013862133026 0.9403343200683594 -0.0007471144199371338 0.00014137383550405502 0.0 0.0 0.0 0.0
3.512 -0.49375486373901367 0.9349276423454285 -0.0005139485001564026 0.00013739708811044693 0.0 0.0 0.0 0.0
3.513 -0.49167484045028687 0.9353922605514526 -0.0005519771948456764 0.00013493932783603668 0.0 0.0 0.0 0.0
3.514 -0.4872860908508301 0.9379424452781677 -0.0006868289783596992 8.969567716121674e-05 0.0 0.0 0.0 0.0
3.515 -0.48415759205818176 0.9411195516586304 -0.0007882555946707726 0.0002886420115828514 0.0 0.0 0.0 0.0
3.516 -0.48953408002853394 0.9342753887176514 -0.0005881469696760178 4.2963773012161255e-05 0.0 0.0 0.0 0.0
3.517 -0.48231664299964905 0.9418232440948486 -0.000627090223133564 0.0003013415262103081 0.0 0.0 0.0 0.0
3.518 -0.48484548926353455 0.9413999319076538 -0.0007194848731160164 0.00011038500815629959 0.0 0.0 0.0 0.0
3.519 -0.48091238737106323 0.9401595592498779 -0.0007630987092852592 0.00031185615807771683 0.0 0.0 0.0 0.0
3.52 -0.47594308853149414 0.9418430924415588 -0.0008115042001008987 0.00017306022346019745 0.0 0.0 0.0 0.0
3.521 -0.4810474216938019 0.9417809247970581 -0.0006640786305069923 0.00017599482089281082 0.0 0.0 0.0 0.0
3.522 -0.4798460006713867 0.9418089389801025 -0.0006608348339796066 0.0002645151689648628 0.0 0.0 0.0 0.0
3.523 -0.4748215973377228 0.9455152750015259 -0.000897393561899662 0.00024492572993040085 0.0 0.0 0.0 0.0
3.524 -0.47623294591903687 0.9451619386672974 -0.000818188302218914 0.00013369787484407425 0.0 0.0 0.0 0.0
3.525 -0.47812312841415405 0.9438150525093079 -0.0007288027554750443 0.00028803106397390366 0.0 0.0 0.0 0.0
3.526 -0.47246888279914856 0.9465712904930115 -0.0008845822885632515 0.00022617541253566742 0.0 0.0 0.0 0.0
3.527 -0.4721229374408722 0.9462729692459106 -0.0009381426498293877 0.0002758027985692024 0.0 0.0 0.0 0.0
3.528 -0.4725949466228485 0.9433897137641907 -0.0007678773254156113 0.00016817264258861542 0.0 0.0 0.0 0.0
3.529 -0.47063586115837097 0.9451777338981628 -0.0007474301382899284 0.00026735663414001465 0.0 0.0 0.0 0.0
3.53 -0.47088685631752014 0.9463871717453003 -0.0008958056569099426 0.0002882452681660652 0.0 0.0 0.0 0.0
3.531 -0.46544957160949707 0.9483782052993774 -0.0007728142663836479 0.00021878350526094437 0.0 0.0 0.0 0.0
3.532 -0.4652740955352783 0.9480232000350952 -0.0007960116490721703 0.00035055913031101227 0.0 0.0 0.0 0.0
3.533 -0.46710190176963806 0.9462578892707825 -0.0007963394746184349 0.0002294527366757393 0.0 0.0 0.0 0.0
3.534 -0.4636988341808319 0.9471741318702698 -0.0009277788922190666 0.00025783851742744446 0.0 0.0 0.0 0.0
3.535 -0.462643563747406 0.9498751759529114 -0.0009383028373122215 0.00023193657398223877 0.0 0.0 0.0 0.0
3.536 -0.4640067517757416 0.9481382369995117 -0.000734780915081501 0.00024517159909009933 0.0 0.0 0.0 0.0
3.537 -0.4560708999633789 0.9492910504341125 -0.000932241789996624 0.0003179972991347313 0.0 0.0 0.0 0.0
3.538 -0.46539321541786194 0.947866678237915 -0.0010084491223096848 0.00035576894879341125 0.0 0.0 0.0 0.0
3.539 -0.4609508514404297 0.9468699097633362 -0.0008889371529221535 0.0005171522498130798 0.0 0.0 0.0 0.0
3.54 -0.4652140438556671 0.9500481486320496 -0.0008707139641046524 0.0002212878316640854 0.0 0.0 0.0 0.0
3.541 -0.45325249433517456 0.9502549171447754 -0.000888618640601635 0.0003284486010670662 0.0 0.0 0.0 0.0
3.542 -0.4567313492298126 0.9482071399688721 -0.0008833669126033783 0.0004542740061879158 0.0 0.0 0.0 0.0
3.543 -0.4496930241584778 0.9507654905319214 -0.0009495140984654427 0.00034244731068611145 0.0 0.0 0.0 0.0
3.544 -0.4547465145587921 0.9512447118759155 -0.0009261863306164742 0.0005219103768467903 0.0 0.0 0.0 0.0
3.545 -0.4549769461154938 0.9476551413536072 -0.0007324554026126862 0.00034220051020383835 0.0 0.0 0.0 0.0
3.546 -0.44803860783576965 0.951880156993866 -0.0008593043312430382 0.0005488824099302292 0.0 0.0 0.0 0.0
3.547 -0.44608673453330994 0.951770007610321 -0.0010000132024288177 0.0004969192668795586 0.0 0.0 0.0 0.0
3.548 -0.45027846097946167 0.9494251012802124 -0.000804610550403595 0.0004430413246154785 0.0 0.0 0.0 0.0
3.549 -0.44803982973098755 0.9506673812866211 -0.0007734699174761772 0.0005007181316614151 0.0 0.0 0.0 0.0
3.55 -0.44525763392448425 0.9509408473968506 -0.0007879110053181648 0.0005082301795482635 0.0 0.0 0.0 0.0
3.551 -0.444128155708313 0.9510669708251953 -0.0010688817128539085 0.00032153259962797165 0.0 0.0 0.0 0.0
3.552 -0.4391244351863861 0.9491477012634277 -0.0008107218891382217 0.00038402434438467026 0.0 0.0 0.0 0.0
3.553 -0.4410809278488159 0.9532172083854675 -0.0007452797144651413 0.0004216916859149933 0.0 0.0 0.0 0.0
3.554 -0.44086864590644836 0.9522888660430908 -0.0010415958240628242 0.0004978515207767487 0.0 0.0 0.0 0.0
3.555 -0.4400135278701782 0.9534162878990173 -0.0009998129680752754 0.0003252597525715828 0.0 0.0 0.0 0.0
3.556 -0.4324842691421509 0.9530333876609802 -0.0010120784863829613 0.00043652113527059555 0.0 0.0 0.0 0.0
3.557 -0.43584516644477844 0.9538037776947021 -0.0008374135941267014 0.00045557040721178055 0.0 0.0 0.0 0.0
3.558 -0.43747037649154663 0.9517449140548706 -0.0008954247459769249 0.0006675980985164642 0.0 0.0 0.0 0.0
3.559 -0.4354502558708191 0.9510147571563721 -0.0008427770808339119 0.0004606219008564949 0.0 0.0 0.0 0.0
3.56 -0.42708078026771545 0.9557440280914307 -0.0010177530348300934 0.0003715828061103821 0.0 0.0 0.0 0.0
3.561 -0.4317966103553772 0.9539505839347839 -0.0009891893714666367 0.00037755072116851807 0.0 0.0 0.0 0.0
3.562 -0.4300897419452667 0.953752338886261 -0.0009720511734485626 0.00040741078555583954 0.0 0.0 0.0 0.0
3.563 -0.4254765510559082 0.9555106163024902 -0.0009754439815878868 0.0004927664995193481 0.0 0.0 0.0 0.0
3.564 -0.4191736578941345 0.9536287188529968 -0.0009706895798444748 0.000446355901658535 0.0 0.0 0.0 0.0
3.565 -0.43802693486213684 0.9489688277244568 -0.0009007221087813377 0.0006309924647212029 0.0 0.0 0.0 0.0
3.566 -0.4209759831428528 0.9571993947029114 -0.0007763039320707321 0.00047666020691394806 0.0 0.0 0.0 0.0
3.567 -0.4270423650741577 0.9549030661582947 -0.0007663043215870857 0.0006844587624073029 0.0 0.0 0.0 0.0
3.568 -0.4197366535663605 0.9578285217285156 -0.0009624287486076355 0.00045187678188085556 0.0 0.0 0.0 0.0
3.569 -0.41873592138290405 0.9530577659606934 -0.0009614573791623116 0.0006488021463155746 0.0 0.0 0.0 0.0
3.57 -0.4226430356502533 0.9546911716461182 -0.0008496064692735672 0.0005030203610658646 0.0 0.0 0.0 0.0
3.571 -0.41482776403427124 0.955254852771759 -0.0009853513911366463 0.0006470410153269768 0.0 0.0 0.0 0.0
3.572 -0.41718989610671997 0.9547446966171265 -0.0010056747123599052 0.0005582896992564201 0.0 0.0 0.0 0.0
3.573 -0.4223875105381012 0.9555273056030273 -0.0008421018719673157 0.0005222493782639503 0.0 0.0 0.0 0.0
3.574 -0.4143606424331665 0.9549643397331238 -0.0010315701365470886 0.0005355468019843102 0.0 0.0 0.0 0.0
3.575 -0.4155822694301605 0.9549521803855896 -0.0008070413023233414 0.0006646215915679932 0.0 0.0 0.0 0.0
3.576 -0.41299548745155334 0.9518557786941528 -0.0009163590148091316 0.0007342007011175156 0.0 0.0 0.0 0.0
3.577 -0.41487187147140503 0.9529051184654236 -0.0008928384631872177 0.0004771426320075989 0.0 0.0 0.0 0.0
3.578 -0.40525153279304504 0.9592141509056091 -0.0009367940947413445 0.0007063737139105797 0.0 0.0 0.0 0.0
3.579 -0.41033676266670227 0.9565855860710144 -0.0008755233138799667 0.00063337292522192 0.0 0.0 0.0 0.0
3.58 -0.41236382722854614 0.9547449350357056 -0.0009314771741628647 0.0007674451917409897 0.0 0.0 0.0 0.0
3.581 -0.4054039418697357 0.956015944480896 -0.0008354997262358665 0.000540497712790966 0.0 0.0 0.0 0.0
3.582 -0.4071200489997864 0.9562515020370483 -0.0008464418351650238 0.0005584629252552986 0.0 0.0 0.0 0.0
3.583 -0.4045056402683258 0.9572191834449768 -0.0010161735117435455 0.0005915127694606781 0.0 0.0 0.0 0.0
3.584 -0.4008101224899292 0.9559741616249084 -0.0010944660753011703 0.0006887707859277725 0.0 0.0 0.0 0.0
3.585 -0.4013381898403168 0.9575940370559692 -0.0009218621999025345 0.0005964040756225586 0.0 0.0 0.0 0.0
3.586 -0.39556828141212463 0.9572277069091797 -0.0008006393909454346 0.0007780585438013077 0.0 0.0 0.0 0.0
3.587 -0.3961586356163025 0.9570339322090149 -0.0008570970967411995 0.0007890891283750534 0.0 0.0 0.0 0.0
3.588 -0.39660781621932983 0.9628767967224121 -0.0008913241326808929 0.0006084032356739044 0.0 0.0 0.0 0.0
3.589 -0.3942623436450958 0.9575204253196716 -0.0007761549204587936 0.0008037779480218887 0.0 0.0 0.0 0.0
3.59 -0.39396414160728455 0.9573035836219788 -0.0010833600535988808 0.0006684968248009682 0.0 0.0 0.0 0.0
3.591 -0.39472195506095886 0.9592011570930481 -0.0008500376716256142 0.0006058495491743088 0.0 0.0 0.0 0.0
3.592 -0.389870822429657 0.9605772495269775 -0.001051105558872223 0.0005692644044756889 0.0 0.0 0.0 0.0
3.593 -0.3879646956920624 0.9592500329017639 -0.000924987718462944 0.0007984228432178497 0.0 0.0 0.0 0.0
3.594 -0.39050886034965515 0.9567699432373047 -0.000988163985311985 0.000729619525372982 0.0 0.0 0.0 0.0
3.595 -0.38005271553993225 0.959454357624054 -0.000885973684489727 0.0008979188278317451 0.0 0.0 0.0 0.0
3.596 -0.3901461362838745 0.9565106630325317 -0.0008957143872976303 0.0008609620854258537 0.0 0.0 0.0 0.0
3.597 -0.3898158371448517 0.9536813497543335 -0.0010243169963359833 0.0008029211312532425 0.0 0.0 0.0 0.0
3.598 -0.3835771679878235 0.9580318927764893 -0.0010426947847008705 0.0007587438449263573 0.0 0.0 0.0 0.0
3.599 -0.38259604573249817 0.9586431384086609 -0.000771726481616497 0.0009107422083616257 0.0 0.0 0.0 0.0
3.6 -0.3772619664669037 0.9603680968284607 -0.0009471690282225609 0.0007643355056643486 0.0 0.0 0.0 0.0
3.601 -0.36798420548439026 0.9682432413101196 -0.0008002948015928268 0.0006975056603550911 0.0 0.0 0.0 0.0
3.602 -0.3723895847797394 0.964728593826294 -0.0009709559381008148 0.0007728450000286102 0.0 0.0 0.0 0.0
3.603 -0.3699203431606293 0.9667024612426758 -0.0008799023926258087 0.0007123183459043503 0.0 0.0 0.0 0.0
3.604 -0.36909711360931396 0.9673265814781189 -0.0009583001956343651 0.0007496736943721771 0.0 0.0 0.0 0.0
3.605 -0.37119144201278687 0.9646368026733398 -0.0008223168551921844 0.000764911063015461 0.0 0.0 0.0 0.0
3.606 -0.36635589599609375 0.9668694734573364 -0.000979606993496418 0.0006979284808039665 0.0 0.0 0.0 0.0
3.607 -0.36660993099212646 0.9655818343162537 -0.0009343530982732773 0.0008368520066142082 0.0 0.0 0.0 0.0
3.608 -0.3652488887310028 0.9652474522590637 -0.00090829748660326 0.0008526332676410675 0.0 0.0 0.0 0.0
3.609 -0.3630417585372925 0.9676326513290405 -0.0009289029985666275 0.0007868800312280655 0.0 0.0 0.0 0.0
3.61 -0.3699546158313751 0.9631331562995911 -0.0010665589943528175 0.0008181817829608917 0.0 0.0 0.0 0.0
3.611 -0.3597930371761322 0.9652144908905029 -0.0009092250838875771 0.0007240166887640953 0.0 0.0 0.0 0.0
3.612 -0.3481566905975342 0.9681399464607239 -0.0008907942101359367 0.0010182075202465057 0.0 0.0 0.0 0.0
3.613 -0.3679242432117462 0.9613825678825378 -0.0009196633473038673 0.0009536473080515862 0.0 0.0 0.0 0.0
3.614 -0.3539377748966217 0.9672179818153381 -0.0008838241919875145 0.0007336260750889778 0.0 0.0 0.0 0.0
3.615 -0.35489463806152344 0.9666316509246826 -0.0008321460336446762 0.0009388038888573647 0.0 0.0 0.0 0.0
3.616 -0.3583151698112488 0.9663938283920288 -0.000944335013628006 0.0008517550304532051 0.0 0.0 0.0 0.0
3.617 -0.35086220502853394 0.9645829796791077 -0.0009387722238898277 0.0009818552061915398 0.0 0.0 0.0 0.0
3.618 -0.35133370757102966 0.9660377502441406 -0.0010355478152632713 0.0010065045207738876 0.0 0.0 0.0 0.0
3.619 -0.3491046130657196 0.9660049080848694 -0.0009076502174139023 0.0009350217878818512 0.0 0.0 0.0 0.0
3.62 -0.34733760356903076 0.9662398099899292 -0.0009255697950720787 0.0010503865778446198 0.0 0.0 0.0 0.0
3.621 -0.34819966554641724 0.9672272205352783 -0.000987607054412365 0.0009399289265275002 0.0 0.0 0.0 0.0
3.622 -0.34594208002090454 0.9643794894218445 -0.0007716407999396324 0.0010115476325154305 0.0 0.0 0.0 0.0
3.623 -0.34425079822540283 0.9673028588294983 -0.0008797310292720795 0.0008809883147478104 0.0 0.0 0.0 0.0
3.624 -0.34434786438941956 0.9616831541061401 -0.0008601164445281029 0.0010509109124541283 0.0 0.0 0.0 0.0
3.625 -0.3395881950855255 0.9663404822349548 -0.0009545506909489632 0.0010696444660425186 0.0 0.0 0.0 0.0
3.626 -0.34210652112960815 0.9662668108940125 -0.0008722571656107903 0.0009091868996620178 0.0 0.0 0.0 0.0
3.627 -0.3427395820617676 0.9646731615066528 -0.0008920272812247276 0.0010073119774460793 0.0 0.0 0.0 0.0
3.628 -0.334553599357605 0.9654536843299866 -0.000826503150165081 0.0010970626026391983 0.0 0.0 0.0 0.0
3.629 -0.3384327292442322 0.9649153351783752 -0.0007138475775718689 0.0009535010904073715 0.0 0.0 0.0 0.0
3.63 -0.335176944732666 0.9644640684127808 -0.0009365174919366837 0.0010810578241944313 0.0 0.0 0.0 0.0
3.631 -0.3365851640701294 0.9655457735061646 -0.0007875896990299225 0.0010074125602841377 0.0 0.0 0.0 0.0
3.632 -0.3341578245162964 0.9641563892364502 -0.0009384648874402046 0.0010653641074895859 0.0 0.0 0.0 0.0
3.633 -0.33227258920669556 0.965776264667511 -0.0007612463086843491 0.0010212576016783714 0.0 0.0 0.0 0.0
3.634 -0.3308579921722412 0.9652256965637207 -0.000869210809469223 0.0010102195665240288 0.0 0.0 0.0 0.0
3.635 -0.32833805680274963 0.9651383757591248 -0.0007037818431854248 0.0010749958455562592 0.0 0.0 0.0 0.0
3.636 -0.3223167061805725 0.9681050777435303 -0.0008894409984350204 0.001176333986222744 0.0 0.0 0.0 0.0
3.637 -0.3291606903076172 0.9640401005744934 -0.0008912412449717522 0.0011520246043801308 0.0 0.0 0.0 0.0
3.638 -0.3184608519077301 0.9667336344718933 -0.0007940325886011124 0.0010454868897795677 0.0 0.0 0.0 0.0
3.639 -0.3256426453590393 0.9638082385063171 -0.0008316086605191231 0.0012353518977761269 0.0 0.0 0.0 0.0
3.64 -0.32908403873443604 0.9598147869110107 -0.0007203957065939903 0.0011217398568987846 0.0 0.0 0.0 0.0
3.641 -0.3139593005180359 0.9676265120506287 -0.0006844876334071159 0.001029999926686287 0.0 0.0 0.0 0.0
3.642 -0.31560540199279785 0.9658044576644897 -0.0009080804884433746 0.0011579673737287521 0.0 0.0 0.0 0.0
3.643 -0.32222843170166016 0.9630267024040222 -0.0007432615384459496 0.001032993197441101 0.0 0.0 0.0 0.0
3.644 -0.3169279992580414 0.9634649753570557 -0.000909663736820221 0.0010666223242878914 0.0 0.0 0.0 0.0
3.645 -0.3038843870162964 0.9670546650886536 -0.0007392633706331253 0.0009907139465212822 0.0 0.0 0.0 0.0
3.646 -0.3145682215690613 0.9647130370140076 -0.0006279079243540764 0.0011638877913355827 0.0 0.0 0.0 0.0
3.647 -0.3105256259441376 0.9632356762886047 -0.0007944013923406601 0.0011687399819493294 0.0 0.0 0.0 0.0
3.648 -0.3117009997367859 0.9628257155418396 -0.0007830150425434113 0.0009644161909818649 0.0 0.0 0.0 0.0
3.649 -0.30786511301994324 0.9638761281967163 -0.000773310661315918 0.0010666083544492722 0.0 0.0 0.0 0.0
3.65 -0.31004798412323 0.9615733027458191 -0.0006707878783345222 0.0012543927878141403 0.0 0.0 0.0 0.0
3.651 -0.3075055778026581 0.9620487093925476 -0.0008352715522050858 0.0012173289433121681 0.0 0.0 0.0 0.0
3.652 -0.31014496088027954 0.9607193470001221 -0.0007931431755423546 0.0010569235309958458 0.0 0.0 0.0 0.0
3.653 -0.2977941036224365 0.9641724228858948 -0.0007495200261473656 0.0010757064446806908 0.0 0.0 0.0 0.0
3.654 -0.30046746134757996 0.9627514481544495 -0.0006560180336236954 0.001168297603726387 0.0 0.0 0.0 0.0
3.655 -0.3028239905834198 0.9615044593811035 -0.0007932242006063461 0.0011678487062454224 0.0 0.0 0.0 0.0
3.656 -0.3086152672767639 0.9582728147506714 -0.000639425590634346 0.0012371586635708809 0.0 0.0 0.0 0.0
3.657 -0.2944602370262146 0.962791383266449 -0.0008230786770582199 0.0012406539171934128 0.0 0.0 0.0 0.0
3.658 -0.29605913162231445 0.962583065032959 -0.0007997918874025345 0.001129908487200737 0.0 0.0 0.0 0.0
3.659 -0.2895212471485138 0.9630913734436035 -0.0005620252341032028 0.0011619394645094872 0.0 0.0 0.0 0.0
3.66 -0.2913910746574402 0.9647595286369324 -0.0008236048743128777 0.001142827793955803 0.0 0.0 0.0 0.0
3.661 -0.2922334671020508 0.9602080583572388 -0.0005872109904885292 0.001271822489798069 0.0 0.0 0.0 0.0
3.662 -0.2879504859447479 0.9594834446907043 -0.0006983019411563873 0.0012936638668179512 0.0 0.0 0.0 0.0
3.663 -0.28690674901008606 0.9607539176940918 -0.0006340071558952332 0.001293964684009552 0.0 0.0 0.0 0.0
3.664 -0.28817251324653625 0.9595721960067749 -0.0005493396893143654 0.0012468090280890465 0.0 0.0 0.0 0.0
3.665 -0.2841596007347107 0.958517849445343 -0.0006555076688528061 0.0012180395424365997 0.0 0.0 0.0 0.0
3.666 -0.28148552775382996 0.9585040807723999 -0.0006595337763428688 0.0012666285037994385 0.0 0.0 0.0 0.0
3.667 -0.28464066982269287 0.957165002822876 -0.0006449669599533081 0.001238381490111351 0.0 0.0 0.0 0.0
3.668 -0.27998554706573486 0.9577489495277405 -0.0006963508203625679 0.0014082714915275574 0.0 0.0 0.0 0.0
3.669 -0.27884534001350403 0.958145797252655 -0.000740857794880867 0.0012763617560267448 0.0 0.0 0.0 0.0
3.67 -0.2806042730808258 0.9545331597328186 -0.0004761079326272011 0.0011727744713425636 0.0 0.0 0.0 0.0
3.671 -0.2742311954498291 0.956831157207489 -0.0005393084138631821 0.0011075017973780632 0.0 0.0 0.0 0.0
3.672 -0.2757030427455902 0.9551165699958801 -0.0004999041557312012 0.0011901604011654854 0.0 0.0 0.0 0.0
3.673 -0.2750647962093353 0.9532729387283325 -0.00069448072463274 0.0012950357049703598 0.0 0.0 0.0 0.0
3.674 -0.2761842906475067 0.9525262117385864 -0.00048389192670583725 0.0013556033372879028 0.0 0.0 0.0 0.0
3.675 -0.27305811643600464 0.9520052075386047 -0.000545453280210495 0.00138000026345253 0.0 0.0 0.0 0.0
3.676 -0.27444693446159363 0.9514093399047852 -0.0005001425743103027 0.001354939304292202 0.0 0.0 0.0 0.0
3.677 -0.26856470108032227 0.9521588683128357 -0.0005149561911821365 0.001421886496245861 0.0 0.0 0.0 0.0
3.678 -0.2702757716178894 0.948199987411499 -0.0005157021805644035 0.0013263504952192307 0.0 0.0 0.0 0.0
3.679 -0.27012819051742554 0.9478732347488403 -0.0005853213369846344 0.0013532601296901703 0.0 0.0 0.0 0.0
3.68 -0.27176353335380554 0.9473975896835327 -0.0005051000043749809 0.0012476444244384766 0.0 0.0 0.0 0.0
3.681 -0.2733294367790222 0.94766765832901 -0.0004804590716958046 0.0013039801269769669 0.0 0.0 0.0 0.0
3.682 -0.26633453369140625 0.9467164874076843 -0.0005322238430380821 0.001287040300667286 0.0 0.0 0.0 0.0
3.683 -0.27114516496658325 0.9457177519798279 -0.0005542607977986336 0.0014441395178437233 0.0 0.0 0.0 0.0
3.684 -0.26273760199546814 0.9495918154716492 -0.000580204650759697 0.0014603687450289726 0.0 0.0 0.0 0.0
3.685 -0.266666978597641 0.9464638829231262 -0.0005329698324203491 0.0012901285663247108 0.0 0.0 0.0 0.0
3.686 -0.2641574740409851 0.9479847550392151 -0.0004967367276549339 0.001444043591618538 0.0 0.0 0.0 0.0
3.687 -0.26773831248283386 0.9463028311729431 -0.000593121163547039 0.001390121877193451 0.0 0.0 0.0 0.0
3.688 -0.26834627985954285 0.9473615288734436 -0.0003682440146803856 0.001406894065439701 0.0 0.0 0.0 0.0
3.689 -0.2692636251449585 0.9464918375015259 -0.0005144290626049042 0.001453411765396595 0.0 0.0 0.0 0.0
3.69 -0.26338183879852295 0.9472543001174927 -0.0004305122420191765 0.0013962211087346077 0.0 0.0 0.0 0.0
3.691 -0.2680896520614624 0.946948230266571 -0.00039808545261621475 0.001438927836716175 0.0 0.0 0.0 0.0
3.692 -0.26574990153312683 0.9465588927268982 -0.0005253823474049568 0.0014329291880130768 0.0 0.0 0.0 0.0
3.693 -0.25834739208221436 0.9510401487350464 -0.0004579564556479454 0.001430407166481018 0.0 0.0 0.0 0.0
3.694 -0.26629430055618286 0.947208821773529 -0.00039710942655801773 0.0013851616531610489 0.0 0.0 0.0 0.0
3.695 -0.2628590762615204 0.949353039264679 -0.0005388539284467697 0.0014146137982606888 0.0 0.0 0.0 0.0
3.696 -0.256766140460968 0.9463348984718323 -0.00038155075162649155 0.0013902736827731133 0.0 0.0 0.0 0.0
3.697 -0.261578232049942 0.948075532913208 -0.00028588250279426575 0.0014679627493023872 0.0 0.0 0.0 0.0
3.698 -0.25608763098716736 0.9510746002197266 -0.00037466734647750854 0.0015784809365868568 0.0 0.0 0.0 0.0
3.699 -0.25877171754837036 0.9507231712341309 -0.0003483695909380913 0.0014141229912638664 0.0 0.0 0.0 0.0
3.7 -0.2602378726005554 0.9492628574371338 -0.0002721017226576805 0.0015644105151295662 0.0 0.0 0.0 0.0
3.701 -0.25245556235313416 0.9523268342018127 -0.000281299464404583 0.001474376767873764 0.0 0.0 0.0 0.0
3.702 -0.2550341486930847 0.9512339234352112 -0.00039433781057596207 0.0015021050348877907 0.0 0.0 0.0 0.0
3.703 -0.25646376609802246 0.9496442675590515 -0.0002463357523083687 0.0014790389686822891 0.0 0.0 0.0 0.0
3.704 -0.2502625584602356 0.9517632126808167 -0.00026675593107938766 0.001543947495520115 0.0 0.0 0.0 0.0
3.705 -0.25010761618614197 0.9515141248703003 -0.00028989277780056 0.0014785993844270706 0.0 0.0 0.0 0.0
3.706 -0.24862012267112732 0.9524896144866943 -0.00038064364343881607 0.0015588169917464256 0.0 0.0 0.0 0.0
3.707 -0.2466537207365036 0.9521701335906982 -0.0002832673490047455 0.0014532329514622688 0.0 0.0 0.0 0.0
3.708 -0.2483227252960205 0.9483470320701599 -0.00012721680104732513 0.001512167975306511 0.0 0.0 0.0 0.0
3.709 -0.2446773201227188 0.9507831931114197 -0.0003060586750507355 0.0014878269284963608 0.0 0.0 0.0 0.0
3.71 -0.24195164442062378 0.9528711438179016 -0.0002273106947541237 0.0015124715864658356 0.0 0.0 0.0 0.0
3.711 -0.2434626817703247 0.9507173895835876 -0.00014027021825313568 0.0015546930953860283 0.0 0.0 0.0 0.0
3.712 -0.23602551221847534 0.9531751871109009 -0.0002789618447422981 0.0014982782304286957 0.0 0.0 0.0 0.0
3.713 -0.24293647706508636 0.9498119354248047 -0.00018284562975168228 0.0015805792063474655 0.0 0.0 0.0 0.0
3.714 -0.23818504810333252 0.951549768447876 -0.00030151475220918655 0.0017021652311086655 0.0 0.0 0.0 0.0
3.715 -0.23995664715766907 0.9499752521514893 -0.00011686701327562332 0.0016556447371840477 0.0 0.0 0.0 0.0
3.716 -0.23832787573337555 0.9510533809661865 -1.2840144336223602e-05 0.0015440136194229126 0.0 0.0 0.0 0.0
3.717 -0.2317732274532318 0.9519168138504028 -2.8694048523902893e-06 0.0017578192055225372 0.0 0.0 0.0 0.0
3.718 -0.23224951326847076 0.9522014260292053 -0.0001024976372718811 0.0016253432258963585 0.0 0.0 0.0 0.0
3.719 -0.23242053389549255 0.9516297578811646 -0.0001250719651579857 0.0014859037473797798 0.0 0.0 0.0 0.0
3.72 -0.2242370843887329 0.9518206715583801 -0.0001802537590265274 0.0015590926632285118 0.0 0.0 0.0 0.0
3.721 -0.22463668882846832 0.9540406465530396 -0.00016171857714653015 0.0016601448878645897 0.0 0.0 0.0 0.0
3.722 -0.22965630888938904 0.9519829154014587 -0.00024340767413377762 0.0016046175733208656 0.0 0.0 0.0 0.0
3.723 -0.2226870208978653 0.9500395655632019 0.00014350656419992447 0.0016375714913010597 0.0 0.0 0.0 0.0
3.724 -0.22365039587020874 0.9506338834762573 -1.8613412976264954e-05 0.0016096383333206177 0.0 0.0 0.0 0.0
3.725 -0.22429159283638 0.9516527652740479 0.00021943636238574982 0.0016504572704434395 0.0 0.0 0.0 0.0
3.726 -0.2205405980348587 0.9489684104919434 0.0002052662894129753 0.001684020273387432 0.0 0.0 0.0 0.0
3.727 -0.21937516331672668 0.9520632028579712 1.3153068721294403e-05 0.0015651043504476547 0.0 0.0 0.0 0.0
3.728 -0.21860603988170624 0.9511524438858032 9.874813258647919e-05 0.001811537891626358 0.0 0.0 0.0 0.0
3.729 -0.2160794883966446 0.9501037001609802 0.00012293457984924316 0.0018398398533463478 0.0 0.0 0.0 0.0
3.73 -0.20949803292751312 0.9525723457336426 0.00012964662164449692 0.0016855373978614807 0.0 0.0 0.0 0.0
3.731 -0.21972905099391937 0.9495367407798767 -1.5149824321269989e-05 0.0016919756308197975 0.0 0.0 0.0 0.0
3.732 -0.21825389564037323 0.9458906054496765 0.0001269010826945305 0.0014745285734534264 0.0 0.0 0.0 0.0
3.733 -0.21191151440143585 0.9511606693267822 -3.884080797433853e-05 0.0015680957585573196 0.0 0.0 0.0 0.0
3.734 -0.21532393991947174 0.9473485350608826 0.0002662353217601776 0.0019172606989741325 0.0 0.0 0.0 0.0
3.735 -0.21055331826210022 0.9476386904716492 0.00019609369337558746 0.0019035208970308304 0.0 0.0 0.0 0.0
3.736 -0.203269362449646 0.951037585735321 0.0002573952078819275 0.0016344822943210602 0.0 0.0 0.0 0.0
3.737 -0.21067005395889282 0.9492192268371582 0.0001405365765094757 0.0017162961885333061 0.0 0.0 0.0 0.0
3.738 -0.20612391829490662 0.948417067527771 0.0002687321975827217 0.0016286782920360565 0.0 0.0 0.0 0.0
3.739 -0.2009933739900589 0.9494577646255493 0.0004880642518401146 0.0015886155888438225 0.0 0.0 0.0 0.0
3.74 -0.20497943460941315 0.9479626417160034 0.00028058048337697983 0.0017814729362726212 0.0 0.0 0.0 0.0
3.741 -0.20055358111858368 0.9474882483482361 0.00035427697002887726 0.0017717955633997917 0.0 0.0 0.0 0.0
3.742 -0.2019958347082138 0.9468363523483276 0.00034352391958236694 0.0017512692138552666 0.0 0.0 0.0 0.0
3.743 -0.2014203816652298 0.9470874071121216 0.00028738658875226974 0.0014408985152840614 0.0 0.0 0.0 0.0
3.744 -0.1974792331457138 0.9449198246002197 0.00017648003995418549 0.0014001429080963135 0.0 0.0 0.0 0.0
3.745 -0.19978481531143188 0.9456310868263245 0.0005559083074331284 0.0016235727816820145 0.0 0.0 0.0 0.0
3.746 -0.19130709767341614 0.946275532245636 0.0004571136087179184 0.0016940776258707047 0.0 0.0 0.0 0.0
3.747 -0.1960858255624771 0.9464833736419678 0.0003012577071785927 0.0016722427681088448 0.0 0.0 0.0 0.0
3.748 -0.19337798655033112 0.9469336867332458 0.00047953613102436066 0.00170124601572752 0.0 0.0 0.0 0.0
3.749 -0.19121408462524414 0.9449065327644348 0.0007768496870994568 0.0019616996869444847 0.0 0.0 0.0 0.0
3.75 -0.19308902323246002 0.9446672797203064 0.0005719112232327461 0.0018025971949100494 0.0 0.0 0.0 0.0
3.751 -0.18449562788009644 0.9445804953575134 0.0006492482498288155 0.0018154336139559746 0.0 0.0 0.0 0.0
3.752 -0.1817174255847931 0.9475799202919006 0.00047022290527820587 0.0016200309619307518 0.0 0.0 0.0 0.0
3.753 -0.18860919773578644 0.9446077942848206 0.0006690425798296928 0.0014152387157082558 0.0 0.0 0.0 0.0
3.754 -0.18085166811943054 0.946256697177887 0.0006119059398770332 0.001282060518860817 0.0 0.0 0.0 0.0
3.755 -0.18343304097652435 0.9446439146995544 0.0006755469366908073 0.0017507728189229965 0.0 0.0 0.0 0.0
3.756 -0.18297703564167023 0.9484545588493347 0.0008536037057638168 0.0017683915793895721 0.0 0.0 0.0 0.0
3.757 -0.1804279237985611 0.9425761103630066 0.0012502167373895645 0.00148833729326725 0.0 0.0 0.0 0.0
3.758 -0.18090508878231049 0.944006621837616 0.000999349169433117 0.0012891348451375961 0.0 0.0 0.0 0.0
3.759 -0.1758304238319397 0.9443761110305786 0.0007981136441230774 0.0012974664568901062 0.0 0.0 0.0 0.0
3.76 -0.17806561291217804 0.9455595016479492 0.0009701726958155632 0.0013285037130117416 0.0 0.0 0.0 0.0
3.761 -0.17891772091388702 0.9428683519363403 0.0012796102091670036 0.0015539554879069328 0.0 0.0 0.0 0.0
3.762 -0.17623832821846008 0.9413772821426392 0.0008411705493927002 0.0017558829858899117 0.0 0.0 0.0 0.0
3.763 -0.17277288436889648 0.9431353211402893 0.0013629179447889328 0.0018054591491818428 0.0 0.0 0.0 0.0
3.764 -0.1743621826171875 0.9433963894844055 0.0008527925238013268 0.0012433258816599846 0.0 0.0 0.0 0.0
3.765 -0.1699465960264206 0.9405404329299927 0.0013958318158984184 0.0011218022555112839 0.0 0.0 0.0 0.0
3.766 -0.16857267916202545 0.9418481588363647 0.001560867764055729 0.0014016469940543175 0.0 0.0 0.0 0.0
3.767 -0.16687864065170288 0.9417073130607605 0.0007768413051962852 0.0014855284243822098 0.0 0.0 0.0 0.0
3.768 -0.16296261548995972 0.944186806678772 0.0010347990319132805 0.0010776901617646217 0.0 0.0 0.0 0.0
3.769 -0.16406914591789246 0.9391023516654968 0.0013661859557032585 0.0016399119049310684 0.0 0.0 0.0 0.0
3.77 -0.16808633506298065 0.9364215731620789 0.0013923700898885727 0.0015049586072564125 0.0 0.0 0.0 0.0
3.771 -0.16223089396953583 0.9402965903282166 0.001425652764737606 0.0010225186124444008 0.0 0.0 0.0 0.0
3.772 -0.16501738131046295 0.9396355748176575 0.0013234857469797134 0.0008945586159825325 0.0 0.0 0.0 0.0
3.773 -0.16067370772361755 0.9374332427978516 0.0014870893210172653 0.0013677915558218956 0.0 0.0 0.0 0.0
3.774 -0.1543542444705963 0.9419695734977722 0.00135719683021307 0.0014729732647538185 0.0 0.0 0.0 0.0
3.775 -0.15690778195858002 0.938483476638794 0.0016820374876260757 0.0009338166564702988 0.0 0.0 0.0 0.0
3.776 -0.16000035405158997 0.9377809166908264 0.001560843549668789 0.0008462797850370407 0.0 0.0 0.0 0.0
3.777 -0.15894611179828644 0.9387425184249878 0.001675398088991642 0.0009398162364959717 0.0 0.0 0.0 0.0
3.778 -0.15616931021213531 0.938012957572937 0.0017890743911266327 0.0009507127106189728 0.0 0.0 0.0 0.0
3.779 -0.1525341123342514 0.9357972145080566 0.0017319684848189354 0.001523442566394806 0.0 0.0 0.0 0.0
3.78 -0.14592286944389343 0.9360526204109192 0.0013194726780056953 0.0011749807745218277 0.0 0.0 0.0 0.0
3.781 -0.1471027135848999 0.9362562894821167 0.001300577074289322 0.0012129228562116623 0.0 0.0 0.0 0.0
3.782 -0.1489189863204956 0.9361637830734253 0.0012938836589455605 0.0006077848374843597 0.0 0.0 0.0 0.0
3.783 -0.15022537112236023 0.9321361184120178 0.0013314010575413704 0.0014339694753289223 0.0 0.0 0.0 0.0
3.784 -0.15268704295158386 0.9324043989181519 0.0016659889370203018 0.0011007506400346756 0.0 0.0 0.0 0.0
3.785 -0.14052611589431763 0.9345195293426514 0.001957288011908531 0.0011051874607801437 0.0 0.0 0.0 0.0
3.786 -0.14007221162319183 0.9334632158279419 0.0016879169270396233 0.0013313423842191696 0.0 0.0 0.0 0.0
3.787 -0.1492581069469452 0.935072660446167 0.0016469424590468407 0.0003702426329255104 0.0 0.0 0.0 0.0
3.788 -0.14195069670677185 0.934877336025238 0.0015793610364198685 0.0006618322804570198 0.0 0.0 0.0 0.0
3.789 -0.14229370653629303 0.9321464896202087 0.0016552479937672615 0.0009839171543717384 0.0 0.0 0.0 0.0
3.79 -0.1385723501443863 0.9341664910316467 0.0014743935316801071 0.0006294725462794304 0.0 0.0 0.0 0.0
3.791 -0.13512049615383148 0.9335283041000366 0.0015085665509104729 0.0008712578564882278 0.0 0.0 0.0 0.0
3.792 -0.14551952481269836 0.9328124523162842 0.0009660748764872551 0.00013216398656368256 0.0 0.0 0.0 0.0
3.793 -0.131362646818161 0.9292252659797668 0.0015228074043989182 0.0010869111865758896 0.0 0.0 0.0 0.0
3.794 -0.13566558063030243 0.9302269220352173 0.00218314491212368 0.0009568734094500542 0.0 0.0 0.0 0.0
3.795 -0.13105909526348114 0.9303101301193237 0.0020165862515568733 0.0009222086519002914 0.0 0.0 0.0 0.0
3.796 -0.13102804124355316 0.9284612536430359 0.0022594956681132317 0.0007366910576820374 0.0 0.0 0.0 0.0
3.797 -0.1324251890182495 0.9323896765708923 0.0017457585781812668 0.0001125214621424675 0.0 0.0 0.0 0.0
3.798 -0.13168670237064362 0.9284388422966003 0.0018989276140928268 0.0005680769681930542 0.0 0.0 0.0 0.0
3.799 -0.12774568796157837 0.9278038144111633 0.0021438272669911385 0.0005271667614579201 0.0 0.0 0.0 0.0
3.8 -0.12527133524417877 0.9298537373542786 0.001059207133948803 0.0009535681456327438 0.0 0.0 0.0 0.0
3.801 -0.12281163036823273 0.9305266737937927 0.00162541214376688 0.0007948474958539009 0.0 0.0 0.0 0.0
3.802 -0.12497208267450333 0.9279025197029114 0.002254362218081951 0.0007301438599824905 0.0 0.0 0.0 0.0
3.803 -0.1268792301416397 0.925095796585083 0.002251880243420601 0.0004547657445073128 0.0 0.0 0.0 0.0
3.804 -0.12267584353685379 0.9232332706451416 0.0025280825793743134 0.0005452325567603111 0.0 0.0 0.0 0.0
3.805 -0.11733503639698029 0.9301486611366272 0.0013377480208873749 4.55537810921669e-05 0.0 0.0 0.0 0.0
3.806 -0.12298829853534698 0.92805415391922 0.0019759545102715492 -4.145875573158264e-05 0.0 0.0 0.0 0.0
3.807 -0.1189899891614914 0.9283103942871094 0.0016883108764886856 -9.9940225481987e-06 0.0 0.0 0.0 0.0
3.808 -0.1185849979519844 0.924262285232544 0.0022924216464161873 5.244649946689606e-05 0.0 0.0 0.0 0.0
3.809 -0.11483906954526901 0.9288434386253357 0.0015804776921868324 -2.04332172870636e-05 0.0 0.0 0.0 0.0
3.81 -0.10809806734323502 0.9270086288452148 0.0017005996778607368 0.00038737524300813675 0.0 0.0 0.0 0.0
3.811 -0.1172638088464737 0.9267635345458984 0.0019641267135739326 -0.00041822250932455063 0.0 0.0 0.0 0.0
3.812 -0.10913565754890442 0.923128604888916 0.0019611334428191185 0.0003537731245160103 0.0 0.0 0.0 0.0
3.813 -0.11050211638212204 0.9220291972160339 0.002524901181459427 0.00022909697145223618 0.0 0.0 0.0 0.0
3.814 -0.1112869456410408 0.9243661165237427 0.0023926254361867905 0.000564982183277607 0.0 0.0 0.0 0.0
3.815 -0.10972349345684052 0.9271624088287354 0.0020945044234395027 -0.0006378674879670143 0.0 0.0 0.0 0.0
3.816 -0.10456583648920059 0.9246074557304382 0.0017455173656344414 0.00031819846481084824 0.0 0.0 0.0 0.0
3.817 -0.11141345649957657 0.9225130081176758 0.0024013202637434006 -0.0003721732646226883 0.0 0.0 0.0 0.0
3.818 -0.10749731957912445 0.9224511384963989 0.0021445350721478462 -0.00022574327886104584 0.0 0.0 0.0 0.0
3.819 -0.10393167287111282 0.9207152724266052 0.0021817227825522423 -0.0001255059614777565 0.0 0.0 0.0 0.0
3.82 -0.10289931297302246 0.9209474921226501 0.0018732380121946335 1.7801299691200256e-05 0.0 0.0 0.0 0.0
3.821 -0.10377975553274155 0.9183585047721863 0.001999656669795513 0.0002714814618229866 0.0 0.0 0.0 0.0
3.822 -0.10289768874645233 0.9219249486923218 0.0025190170854330063 -0.0004258817061781883 0.0 0.0 0.0 0.0
3.823 -0.10361875593662262 0.9202737212181091 0.002483407035470009 2.163555473089218e-05 0.0 0.0 0.0 0.0
3.824 -0.09973839670419693 0.917088508605957 0.0020213406533002853 -0.0001363968476653099 0.0 0.0 0.0 0.0
3.825 -0.09944816678762436 0.9213752746582031 0.0023059621453285217 -0.0007258905097842216 0.0 0.0 0.0 0.0
3.826 -0.09396501630544662 0.9212640523910522 0.0014232732355594635 -0.0007957722991704941 0.0 0.0 0.0 0.0
3.827 -0.09200318157672882 0.9203500747680664 0.0015293126925826073 -0.000508488155901432 0.0 0.0 0.0 0.0
3.828 -0.0815466046333313 0.9237373471260071 0.001296505331993103 -0.0003951266407966614 0.0 0.0 0.0 0.0
3.829 -0.09840003401041031 0.9211222529411316 0.001943531446158886 -0.0007779868319630623 0.0 0.0 0.0 0.0
3.83 -0.09160704165697098 0.9194917678833008 0.0022679362446069717 -0.0007215235382318497 0.0 0.0 0.0 0.0
3.831 -0.0844431221485138 0.9207327365875244 0.0017500286921858788 -0.00018806476145982742 0.0 0.0 0.0 0.0
3.832 -0.09160500764846802 0.915510892868042 0.0020103314891457558 -0.00012616440653800964 0.0 0.0 0.0 0.0
3.833 -0.09506885707378387 0.9147232174873352 0.00238710455596447 -0.0009380606934428215 0.0 0.0 0.0 0.0
3.834 -0.08388358354568481 0.9196194410324097 0.001795327290892601 -0.0011584879830479622 0.0 0.0 0.0 0.0
3.835 -0.08577343076467514 0.9210528135299683 0.0016677798703312874 -0.001009841449558735 0.0 0.0 0.0 0.0
3.836 -0.08914265781641006 0.9152209758758545 0.0019408613443374634 -6.396044045686722e-05 0.0 0.0 0.0 0.0
3.837 -0.0811024084687233 0.9138559103012085 0.0014730608090758324 -0.0003720652312040329 0.0 0.0 0.0 0.0
3.838 -0.08047506958246231 0.9171544313430786 0.0018278751522302628 -0.0004760744050145149 0.0 0.0 0.0 0.0
3.839 -0.08247508108615875 0.9170453548431396 0.0014609862118959427 -0.0013856180012226105 0.0 0.0 0.0 0.0
3.84 -0.07763031125068665 0.9189765453338623 0.0015719477087259293 -0.0013335589319467545 0.0 0.0 0.0 0.0
3.841 -0.07869697362184525 0.9173585176467896 0.0019359961152076721 -0.0011223126202821732 0.0 0.0 0.0 0.0
3.842 -0.08163097500801086 0.9156484603881836 0.0009622927755117416 -0.0010264618322253227 0.0 0.0 0.0 0.0
3.843 -0.07553432136774063 0.9133828282356262 0.0014293370768427849 -0.0017062565311789513 0.0 0.0 0.0 0.0
3.844 -0.07358644157648087 0.9127699136734009 0.0018343636766076088 -0.0008208621293306351 0.0 0.0 0.0 0.0
3.845 -0.08127275854349136 0.9105589985847473 0.0020454106852412224 -0.0005363216623663902 0.0 0.0 0.0 0.0
3.846 -0.06809181720018387 0.911982536315918 0.0014617275446653366 -0.0003372682258486748 0.0 0.0 0.0 0.0
3.847 -0.06853939592838287 0.9156839847564697 0.0012054378166794777 -0.001185125671327114 0.0 0.0 0.0 0.0
3.848 -0.07626278698444366 0.9101070165634155 0.002477971836924553 -0.0009256014600396156 0.0 0.0 0.0 0.0
3.849 -0.06933494657278061 0.9099019169807434 0.0018100785091519356 -0.0006966851651668549 0.0 0.0 0.0 0.0
3.85 -0.07059116661548615 0.9111949801445007 0.0020626382902264595 -0.0008338764309883118 0.0 0.0 0.0 0.0
3.851 -0.06739494204521179 0.9141281247138977 0.0011897152289748192 -0.001311054453253746 0.0 0.0 0.0 0.0
3.852 -0.06598976254463196 0.9153618216514587 0.0010211262851953506 -0.0018480531871318817 0.0 0.0 0.0 0.0
3.853 -0.0701661929488182 0.9092492461204529 0.0018087420612573624 -0.0017943857237696648 0.0 0.0 0.0 0.0
3.854 -0.06769634783267975 0.912384569644928 0.001498611643910408 -0.0015201941132545471 0.0 0.0 0.0 0.0
3.855 -0.06198882311582565 0.912230908870697 0.001484893262386322 -0.001668051816523075 0.0 0.0 0.0 0.0
3.856 -0.05809030309319496 0.9092405438423157 0.0008694631978869438 -0.0012992136180400848 0.0 0.0 0.0 0.0
3.857 -0.06475323438644409 0.9072380661964417 0.0020125601440668106 -0.0011888034641742706 0.0 0.0 0.0 0.0
3.858 -0.051720842719078064 0.9045332670211792 0.0008463887497782707 -0.0007290532812476158 0.0 0.0 0.0 0.0
3.859 -0.058107562363147736 0.9111036658287048 0.001541299745440483 -0.0016123279929161072 0.0 0.0 0.0 0.0
3.86 -0.051782093942165375 0.9044283032417297 0.0015046410262584686 -0.000959811732172966 0.0 0.0 0.0 0.0
3.861 -0.05207901448011398 0.9056370854377747 0.0010310187935829163 -0.0011568907648324966 0.0 0.0 0.0 0.0
3.862 -0.05255495384335518 0.9048923850059509 0.0010510431602597237 -0.0012533580884337425 0.0 0.0 0.0 0.0
3.863 -0.05035950988531113 0.9051889181137085 0.0008908379822969437 -0.0012129135429859161 0.0 0.0 0.0 0.0
3.864 -0.04498233273625374 0.9042987823486328 0.0015278523787856102 -0.0016913888975977898 0.0 0.0 0.0 0.0
3.865 -0.05474858731031418 0.9036555886268616 0.0014113737270236015 -0.0017663976177573204 0.0 0.0 0.0 0.0
3.866 -0.04723792150616646 0.898674488067627 0.0016416627913713455 -0.0011083055287599564 0.0 0.0 0.0 0.0
3.867 -0.04353376477956772 0.9009810090065002 0.0011786539107561111 -0.0015130219981074333 0.0 0.0 0.0 0.0
3.868 -0.047861404716968536 0.8970654606819153 0.0008074631914496422 -0.0016971379518508911 0.0 0.0 0.0 0.0
3.869 -0.047056443989276886 0.897568941116333 0.0009155618026852608 -0.0016720229759812355 0.0 0.0 0.0 0.0
3.87 -0.04205017909407616 0.8977493643760681 0.0017711790278553963 -0.001206883229315281 0.0 0.0 0.0 0.0
3.871 -0.04297592490911484 0.8962826132774353 0.001301066018640995 -0.0019095074385404587 0.0 0.0 0.0 0.0
3.872 -0.03952258080244064 0.8967602252960205 0.0008272537961602211 -0.0017753802239894867 0.0 0.0 0.0 0.0
3.873 -0.04447336867451668 0.8940500617027283 0.0014672623947262764 -0.0017603086307644844 0.0 0.0 0.0 0.0
3.874 -0.04758809879422188 0.8918986320495605 0.0017780354246497154 -0.0015142802149057388 0.0 0.0 0.0 0.0
3.875 -0.04203851521015167 0.8901770114898682 0.0019717328250408173 -0.0015233485028147697 0.0 0.0 0.0 0.0
3.876 -0.038870178163051605 0.8919599056243896 0.0009186007082462311 -0.0015707891434431076 0.0 0.0 0.0 0.0
3.877 -0.03842109814286232 0.8866764903068542 0.0008675139397382736 -0.0012327656149864197 0.0 0.0 0.0 0.0
3.878 -0.043614037334918976 0.8867142200469971 0.0019883066415786743 -0.0015493640676140785 0.0 0.0 0.0 0.0
3.879 -0.036771152168512344 0.889436662197113 0.0008334275335073471 -0.0014952374622225761 0.0 0.0 0.0 0.0
3.88 -0.05118950456380844 0.8877860903739929 0.00201370008289814 -0.0014417832717299461 0.0 0.0 0.0 0.0
3.881 -0.04561186581850052 0.8914582133293152 0.0008460348471999168 -0.0023887688294053078 0.0 0.0 0.0 0.0
3.882 -0.04475463554263115 0.8873378038406372 0.0014493828639388084 -0.001356605440378189 0.0 0.0 0.0 0.0
3.883 -0.04905347898602486 0.8857955932617188 0.0015543978661298752 -0.001626497134566307 0.0 0.0 0.0 0.0
3.884 -0.03525890037417412 0.8880229592323303 0.0008777938783168793 -0.0008530337363481522 0.0 0.0 0.0 0.0
3.885 -0.04243555665016174 0.8907695412635803 0.0007930072024464607 -0.0018335860222578049 0.0 0.0 0.0 0.0
3.886 -0.046857964247465134 0.8898956179618835 0.0011196667328476906 -0.002006988972425461 0.0 0.0 0.0 0.0
3.887 -0.0371924489736557 0.8906337022781372 0.0010719522833824158 -0.0008597355335950851 0.0 0.0 0.0 0.0
3.888 -0.04240011051297188 0.8888782858848572 0.0007892046123743057 -0.0012243511155247688 0.0 0.0 0.0 0.0
3.889 -0.03877118229866028 0.8913885354995728 0.001216786913573742 -0.0015702107921242714 0.0 0.0 0.0 0.0
3.89 -0.03703506290912628 0.8908727169036865 0.00066413264721632 -0.0011053495109081268 0.0 0.0 0.0 0.0
3.891 -0.04258215054869652 0.8929947018623352 0.0015363693237304688 -0.0016220109537243843 0.0 0.0 0.0 0.0
3.892 -0.03726673871278763 0.8906719088554382 0.0016437526792287827 -0.0015490613877773285 0.0 0.0 0.0 0.0
3.893 -0.03323538228869438 0.89484703540802 0.0002255849540233612 -0.0015995539724826813 0.0 0.0 0.0 0.0
3.894 -0.04295247793197632 0.8963671922683716 0.0011038817465305328 -0.002096123993396759 0.0 0.0 0.0 0.0
3.895 -0.034029778093099594 0.8964389562606812 0.0006247870624065399 -0.001803574152290821 0.0 0.0 0.0 0.0
3.896 -0.030425049364566803 0.8943711519241333 0.0006557349115610123 -0.0015420624986290932 0.0 0.0 0.0 0.0
3.897 -0.037104684859514236 0.8945943117141724 0.0005363821983337402 -0.0010184412822127342 0.0 0.0 0.0 0.0
3.898 -0.02913728728890419 0.8924559950828552 0.0008477205410599709 -0.0009681889787316322 0.0 0.0 0.0 0.0
3.899 -0.029071960598230362 0.8992713689804077 0.001180943101644516 -0.0024149036034941673 0.0 0.0 0.0 0.0
3.9 -0.033848609775304794 0.8965657949447632 0.0010015927255153656 -0.0014320304617285728 0.0 0.0 0.0 0.0
3.901 -0.026983896270394325 0.8957526683807373 0.0005004284903407097 -0.001185302622616291 0.0 0.0 0.0 0.0
3.902 -0.021942976862192154 0.8981955051422119 0.00039818789809942245 -0.0019858982414007187 0.0 0.0 0.0 0.0
3.903 -0.02380869910120964 0.8924141526222229 0.00080136489123106 -0.0012866929173469543 0.0 0.0 0.0 0.0
3.904 -0.02316814847290516 0.8939298391342163 0.00015590805560350418 -0.0013322634622454643 0.0 0.0 0.0 0.0
3.905 -0.019801700487732887 0.897476315498352 0.0006265472620725632 -0.0012495918199419975 0.0 0.0 0.0 0.0
3.906 -0.019648803398013115 0.8952921628952026 0.0009314687922596931 -0.001167098991572857 0.0 0.0 0.0 0.0
3.907 -0.020284682512283325 0.8941516280174255 0.0008767591789364815 -0.001230711117386818 0.0 0.0 0.0 0.0
3.908 -0.01548914797604084 0.8970645666122437 0.00023023318499326706 -0.001922493800520897 0.0 0.0 0.0 0.0
3.909 -0.015770122408866882 0.8988779187202454 0.00037234649062156677 -0.0020212214440107346 0.0 0.0 0.0 0.0
3.91 -0.022426960989832878 0.8991342186927795 0.0010227607563138008 -0.002135750837624073 0.0 0.0 0.0 0.0
3.911 -0.012630777433514595 0.8981849551200867 0.0008499221876263618 -0.0018836995586752892 0.0 0.0 0.0 0.0
3.912 -0.01020928006619215 0.8974940776824951 0.0008106343448162079 -0.001010974869132042 0.0 0.0 0.0 0.0
3.913 -0.017016883939504623 0.8958457708358765 0.0010182643309235573 -0.0016679977998137474 0.0 0.0 0.0 0.0
3.914 -0.008892716839909554 0.898440420627594 8.906424045562744e-05 -0.0015456592664122581 0.0 0.0 0.0 0.0
3.915 -0.0068428777158260345 0.8981859683990479 0.0008518816903233528 -0.0018944907933473587 0.0 0.0 0.0 0.0
3.916 -0.013608493842184544 0.8988727927207947 0.0009899744763970375 -0.002225288189947605 0.0 0.0 0.0 0.0
3.917 -0.005533269606530666 0.8947106003761292 8.634570986032486e-05 -0.0014921920374035835 0.0 0.0 0.0 0.0
3.918 -0.0038956254720687866 0.8952418565750122 -0.00023332517594099045 -0.0018050214275717735 0.0 0.0 0.0 0.0
3.919 -0.007624748162925243 0.8981937766075134 0.0003480752930045128 -0.002231842838227749 0.0 0.0 0.0 0.0
3.92 -0.003043469972908497 0.8918439745903015 0.0006494810804724693 -0.0012816553935408592 0.0 0.0 0.0 0.0
3.921 0.0003004418686032295 0.8925954103469849 0.0006286418065428734 -0.0012312866747379303 0.0 0.0 0.0 0.0
3.922 -0.000500737689435482 0.8915618658065796 0.0006285738199949265 -0.001210872083902359 0.0 0.0 0.0 0.0
3.923 -0.0009930143132805824 0.8959782123565674 0.00026375334709882736 -0.002453833818435669 0.0 0.0 0.0 0.0
3.924 0.00043384265154600143 0.8948047161102295 0.00013870000839233398 -0.0019910503178834915 0.0 0.0 0.0 0.0
3.925 -0.004348725080490112 0.894231915473938 0.0006704200059175491 -0.0021183155477046967 0.0 0.0 0.0 0.0
3.926 0.006368124857544899 0.8916198015213013 0.0001643449068069458 -0.0013834470883011818 0.0 0.0 0.0 0.0
3.927 0.008686846122145653 0.8958632946014404 -0.00021987874060869217 -0.001526390202343464 0.0 0.0 0.0 0.0
3.928 0.00617023091763258 0.8964662551879883 0.0002049105241894722 -0.002194569446146488 0.0 0.0 0.0 0.0
3.929 0.006980596110224724 0.8918898701667786 0.0006443392485380173 -0.0018321620300412178 0.0 0.0 0.0 0.0
3.93 0.010613970458507538 0.891341507434845 0.0007248818874359131 -0.0011158240959048271 0.0 0.0 0.0 0.0
3.931 0.009012298658490181 0.890650749206543 0.0008217943832278252 -0.0012317551299929619 0.0 0.0 0.0 0.0
3.932 0.017038118094205856 0.8960079550743103 -0.00018127914518117905 -0.0018291352316737175 0.0 0.0 0.0 0.0
3.933 0.012406185269355774 0.8963695168495178 0.00047814566642045975 -0.0021083392202854156 0.0 0.0 0.0 0.0
3.934 0.013949680142104626 0.8934651017189026 0.0003340374678373337 -0.001957966946065426 0.0 0.0 0.0 0.0
3.935 0.015032049268484116 0.8902207612991333 0.000527271069586277 -0.0014061210677027702 0.0 0.0 0.0 0.0
3.936 0.02092083916068077 0.8923439383506775 0.0004326086491346359 -0.0013192538172006607 0.0 0.0 0.0 0.0
3.937 0.015681009739637375 0.8928365707397461 -0.00021742749959230423 -0.0016353484243154526 0.0 0.0 0.0 0.0
3.938 0.01656513661146164 0.8921980857849121 0.0008283164352178574 -0.0017496785148978233 0.0 0.0 0.0 0.0
3.939 0.02258981578052044 0.8929477334022522 0.00042105186730623245 -0.0018844064325094223 0.0 0.0 0.0 0.0
3.94 0.013011118397116661 0.8913382291793823 0.0003915289416909218 -0.0013142433017492294 0.0 0.0 0.0 0.0
3.941 0.024004602804780006 0.8918747305870056 -0.00028901640325784683 -0.001999196596443653 0.0 0.0 0.0 0.0
3.942 0.028752565383911133 0.8905465602874756 -5.213078111410141e-05 -0.0011264244094491005 0.0 0.0 0.0 0.0
3.943 0.022573033347725868 0.8896759748458862 0.00036853644996881485 -0.0009592799469828606 0.0 0.0 0.0 0.0
3.944 0.027871569618582726 0.8911324143409729 -0.00019277073442935944 -0.0015246476978063583 0.0 0.0 0.0 0.0
3.945 0.03359664976596832 0.8903253674507141 -0.00020323693752288818 -0.0014437399804592133 0.0 0.0 0.0 0.0
3.946 0.025915944948792458 0.8916177749633789 -7.657520473003387e-05 -0.0021894220262765884 0.0 0.0 0.0 0.0
3.947 0.028282737359404564 0.8919916152954102 0.0006089536473155022 -0.00179233867675066 0.0 0.0 0.0 0.0
3.948 0.03866947442293167 0.8916180729866028 -8.178502321243286e-05 -0.001469542272388935 0.0 0.0 0.0 0.0
3.949 0.03242400661110878 0.8884707093238831 0.00014414917677640915 -0.0012107808142900467 0.0 0.0 0.0 0.0
3.95 0.03529263660311699 0.8924061059951782 -0.0005388772115111351 -0.002143537625670433 0.0 0.0 0.0 0.0
3.951 0.030967043712735176 0.8905332088470459 0.00010131485760211945 -0.0009666150435805321 0.0 0.0 0.0 0.0
3.952 0.035104937851428986 0.8903995156288147 -0.00011208374053239822 -0.001177777536213398 0.0 0.0 0.0 0.0
3.953 0.034804441034793854 0.8878731727600098 0.0003825239837169647 -0.0010480163618922234 0.0 0.0 0.0 0.0
3.954 0.0383773073554039 0.8901252746582031 -0.000354984775185585 -0.0012771440669894218 0.0 0.0 0.0 0.0
3.955 0.036229051649570465 0.8898003697395325 -0.00044879596680402756 -0.001523382030427456 0.0 0.0 0.0 0.0
3.956 0.03704196214675903 0.8895460367202759 4.980713129043579e-05 -0.002037959173321724 0.0 0.0 0.0 0.0
3.957 0.042939443141222 0.8893165588378906 0.00010270066559314728 -0.0012448932975530624 0.0 0.0 0.0 0.0
3.958 0.040103405714035034 0.8869379758834839 0.00026593171060085297 -0.0014736298471689224 0.0 0.0 0.0 0.0
3.959 0.045488644391298294 0.8892723321914673 -0.0001295069232583046 -0.0013081543147563934 0.0 0.0 0.0 0.0
3.96 0.04192395880818367 0.8904263377189636 0.00023286230862140656 -0.0020518722012639046 0.0 0.0 0.0 0.0
3.961 0.05011502280831337 0.8901283740997314 -0.00036750081926584244 -0.0017951922491192818 0.0 0.0 0.0 0.0
3.962 0.04679141193628311 0.8868763446807861 0.0005824174731969833 -0.001473989337682724 0.0 0.0 0.0 0.0
3.963 0.04819886013865471 0.8864011764526367 0.0002108244225382805 -0.0012188106775283813 0.0 0.0 0.0 0.0
3.964 0.05044739320874214 0.8852238059043884 -9.951647371053696e-05 -0.0011817049235105515 0.0 0.0 0.0 0.0
3.965 0.04828650504350662 0.8894279599189758 1.8611550331115723e-05 -0.002071656286716461 0.0 0.0 0.0 0.0
3.966 0.05426941439509392 0.8867020010948181 0.00021929293870925903 -0.0010975291952490807 0.0 0.0 0.0 0.0
3.967 0.054047226905822754 0.889996349811554 0.00014068558812141418 -0.0018893089145421982 0.0 0.0 0.0 0.0
3.968 0.05224078148603439 0.8856806755065918 7.796473801136017e-05 -0.0010972656309604645 0.0 0.0 0.0 0.0
3.969 0.05457868427038193 0.888637900352478 -0.0002530645579099655 -0.001695871353149414 0.0 0.0 0.0 0.0
3.97 0.06049509719014168 0.8877917528152466 -0.00021826103329658508 -0.0015714652836322784 0.0 0.0 0.0 0.0
3.971 0.05762365087866783 0.8893518447875977 6.787851452827454e-05 -0.0019017690792679787 0.0 0.0 0.0 0.0
3.972 0.05064402520656586 0.8886429667472839 0.0004581427201628685 -0.0014972668141126633 0.0 0.0 0.0 0.0
3.973 0.062204767018556595 0.883202314376831 7.44285061955452e-05 -0.0011048931628465652 0.0 0.0 0.0 0.0
3.974 0.06292355805635452 0.8880457878112793 -0.000421132892370224 -0.0015734434127807617 0.0 0.0 0.0 0.0
3.975 0.06142466142773628 0.8847059011459351 0.00020617060363292694 -0.001893443986773491 0.0 0.0 0.0 0.0
3.976 0.06646880507469177 0.8840367197990417 0.000466126948595047 -0.0013474756851792336 0.0 0.0 0.0 0.0
3.977 0.0696553960442543 0.8821523189544678 0.00014874525368213654 -0.0012119607999920845 0.0 0.0 0.0 0.0
3.978 0.06866347044706345 0.8834855556488037 -0.00031836051493883133 -0.001269528642296791 0.0 0.0 0.0 0.0
3.979 0.06983160972595215 0.8863140344619751 -0.00031156744807958603 -0.001164664514362812 0.0 0.0 0.0 0.0
3.98 0.06345298886299133 0.8861240744590759 0.00018459279090166092 -0.0019140057265758514 0.0 0.0 0.0 0.0
3.981 0.0693993866443634 0.8844066262245178 0.00020611286163330078 -0.0012828530743718147 0.0 0.0 0.0 0.0
3.982 0.0726708248257637 0.8838701248168945 4.546064883470535e-05 -0.001133969984948635 0.0 0.0 0.0 0.0
3.983 0.07178620994091034 0.8855518102645874 -0.0005385493859648705 -0.0016612885519862175 0.0 0.0 0.0 0.0
3.984 0.07655433565378189 0.8883880972862244 6.937608122825623e-05 -0.0016078036278486252 0.0 0.0 0.0 0.0
3.985 0.07418978214263916 0.8856639266014099 7.247552275657654e-05 -0.0018020318821072578 0.0 0.0 0.0 0.0
3.986 0.07591356337070465 0.8829514384269714 -0.000365343876183033 -0.0010253442451357841 0.0 0.0 0.0 0.0
3.987 0.0772247165441513 0.8850951790809631 -0.0004380214959383011 -0.001557573676109314 0.0 0.0 0.0 0.0
3.988 0.07874299585819244 0.8854162096977234 -0.00063299760222435 -0.0012542549520730972 0.0 0.0 0.0 0.0
3.989 0.0765182226896286 0.8842214345932007 -5.9767626225948334e-05 -0.0017243744805455208 0.0 0.0 0.0 0.0
3.99 0.0820726752281189 0.8815556168556213 0.0004406040534377098 -0.0012182202190160751 0.0 0.0 0.0 0.0
3.991 0.08060100674629211 0.8818067908287048 -0.00018603727221488953 -0.001064184121787548 0.0 0.0 0.0 0.0
3.992 0.08413458615541458 0.8834646940231323 -0.00046971719712018967 -0.0015508225187659264 0.0 0.0 0.0 0.0
3.993 0.08705941587686539 0.8823052048683167 -0.0004488332197070122 -0.0015901615843176842 0.0 0.0 0.0 0.0
3.994 0.08895687758922577 0.8855920433998108 -0.0005391668528318405 -0.0016817208379507065 0.0 0.0 0.0 0.0
3.995 0.08786731213331223 0.8821860551834106 -0.00019523687660694122 -0.0017905337736010551 0.0 0.0 0.0 0.0
3.996 0.09028004109859467 0.8835618495941162 -0.0003375420346856117 -0.0014545628800988197 0.0 0.0 0.0 0.0
3.997 0.08927381038665771 0.8806565999984741 -0.0002613384276628494 -0.0010001491755247116 0.0 0.0 0.0 0.0
3.998 0.08534082025289536 0.8827791213989258 -6.395392119884491e-06 -0.0015482110902667046 0.0 0.0 0.0 0.0
3.999 0.0929553210735321 0.8800252079963684 0.000308208167552948 -0.0013940166682004929 0.0 0.0 0.0 0.0
4.0 0.08595611900091171 0.881949245929718 0.0002046693116426468 -0.0009318599477410316 0.0 0.0 0.0 0.0
