!Created with skrf (http://scikit-rf.org).
# GHz S RI R 50.0 
!freq ReS11 ImS11 ReS21 ImS21 ReS12 ImS12 ReS22 ImS22
0.001 1.0563808679580688 -0.037009723484516144 -0.0001967335119843483 1.322384923696518e-05 0.0 0.0 0.0 0.0
0.002 0.9961220026016235 -0.07357724010944366 -3.9723701775074005e-05 7.481593638658524e-05 0.0 0.0 0.0 0.0
0.003 0.9947224259376526 -0.11242005228996277 -4.878919571638107e-05 2.4255365133285522e-05 0.0 0.0 0.0 0.0
0.004 0.985662043094635 -0.14295120537281036 -8.532218635082245e-05 3.9373524487018585e-05 0.0 0.0 0.0 0.0
0.005 0.9800384044647217 -0.1767112910747528 -1.9949860870838165e-05 6.88573345541954e-05 0.0 0.0 0.0 0.0
0.006 0.9720140695571899 -0.21387889981269836 4.183780401945114e-05 -0.00013180263340473175 0.0 0.0 0.0 0.0
0.007 0.9642646908760071 -0.24172040820121765 -1.6422942280769348e-05 6.826221942901611e-05 0.0 0.0 0.0 0.0
0.008 0.956021785736084 -0.2768704891204834 -0.0001664627343416214 -6.410572677850723e-05 0.0 0.0 0.0 0.0
0.009 0.9433552622795105 -0.31205856800079346 -6.689317524433136e-05 -0.00010824762284755707 0.0 0.0 0.0 0.0
0.01 0.9314627051353455 -0.3402344882488251 -9.274110198020935e-05 -0.00014266371726989746 0.0 0.0 0.0 0.0
0.011 0.9237360954284668 -0.3720991909503937 -0.00013144034892320633 6.87846913933754e-05 0.0 0.0 0.0 0.0
0.012 0.9085144400596619 -0.40756699442863464 5.418248474597931e-05 -8.705630898475647e-05 0.0 0.0 0.0 0.0
0.013 0.8920926451683044 -0.4351039528846741 5.970429629087448e-05 -4.152487963438034e-05 0.0 0.0 0.0 0.0
0.014 0.8768594861030579 -0.4658557176589966 -0.00013354606926441193 -8.627958595752716e-05 0.0 0.0 0.0 0.0
0.015 0.8623846173286438 -0.49273306131362915 -0.00020591262727975845 8.843652904033661e-05 0.0 0.0 0.0 0.0
0.016 0.8445213437080383 -0.5255571603775024 -9.711086750030518e-05 -5.61736524105072e-05 0.0 0.0 0.0 0.0
0.017 0.8308115005493164 -0.5539912581443787 -2.6288442313671112e-05 -6.454065442085266e-05 0.0 0.0 0.0 0.0
0.018 0.8071722984313965 -0.5853050351142883 -6.718840450048447e-05 -3.89954075217247e-05 0.0 0.0 0.0 0.0
0.019 0.7856343984603882 -0.609158456325531 -0.00016473326832056046 -7.223989814519882e-05 0.0 0.0 0.0 0.0
0.02 0.7644907236099243 -0.633795976638794 -2.848077565431595e-05 0.00014739204198122025 0.0 0.0 0.0 0.0
0.021 0.7441110610961914 -0.6590209603309631 0.00013529136776924133 8.933432400226593e-05 0.0 0.0 0.0 0.0
0.022 0.7218901515007019 -0.6909105181694031 8.534640073776245e-06 -8.319038897752762e-05 0.0 0.0 0.0 0.0
0.023 0.6995202898979187 -0.7142113447189331 0.00011064484715461731 -0.00015491526573896408 0.0 0.0 0.0 0.0
0.024 0.6752499938011169 -0.7326831221580505 8.108280599117279e-05 3.941357135772705e-05 0.0 0.0 0.0 0.0
0.025 0.6466377377510071 -0.7598541378974915 -3.5624951124191284e-05 -5.078781396150589e-05 0.0 0.0 0.0 0.0
0.026 0.6188215613365173 -0.7801177501678467 2.375524491071701e-05 2.104230225086212e-05 0.0 0.0 0.0 0.0
0.027 0.5978783965110779 -0.7990797162055969 -7.019378244876862e-05 0.00010548997670412064 0.0 0.0 0.0 0.0
0.028 0.5726356506347656 -0.8210417628288269 3.781728446483612e-05 2.609100192785263e-05 0.0 0.0 0.0 0.0
0.029 0.5418596863746643 -0.8431146740913391 6.884336471557617e-06 -3.2903626561164856e-05 0.0 0.0 0.0 0.0
0.03 0.5096731781959534 -0.8581453561782837 -3.391411155462265e-05 -6.131734699010849e-05 0.0 0.0 0.0 0.0
0.031 0.48316532373428345 -0.8757554888725281 2.7276575565338135e-05 1.4429911971092224e-05 0.0 0.0 0.0 0.0
0.032 0.4540136158466339 -0.887221097946167 7.340125739574432e-05 -5.001761019229889e-05 0.0 0.0 0.0 0.0
0.033 0.4211282730102539 -0.9018397331237793 -9.119696915149689e-05 2.7118250727653503e-05 0.0 0.0 0.0 0.0
0.034 0.3947722911834717 -0.9155569076538086 -8.59331339597702e-05 5.040038377046585e-05 0.0 0.0 0.0 0.0
0.035 0.3655818998813629 -0.9335267543792725 -1.1470168828964233e-05 0.00012499280273914337 0.0 0.0 0.0 0.0
0.036 0.3278699517250061 -0.949574887752533 -6.320048123598099e-05 -6.553251296281815e-05 0.0 0.0 0.0 0.0
0.037 0.28825634717941284 -0.9418665170669556 -0.00025350041687488556 0.0003242800012230873 0.0 0.0 0.0 0.0
0.038 0.27565518021583557 -0.9609500765800476 1.3553537428379059e-05 6.490014493465424e-05 0.0 0.0 0.0 0.0
0.039 0.24267731606960297 -0.9710842967033386 1.5085563063621521e-05 0.0001758309081196785 0.0 0.0 0.0 0.0
0.04 0.20932313799858093 -0.9839191436767578 0.0002367766574025154 -4.3033622205257416e-05 0.0 0.0 0.0 0.0
0.041 0.17894552648067474 -0.9927152991294861 0.00011924747377634048 3.090221434831619e-05 0.0 0.0 0.0 0.0
0.042 0.1401061862707138 -0.997624397277832 -7.495284080505371e-05 4.027038812637329e-05 0.0 0.0 0.0 0.0
0.043 0.1083892211318016 -0.9972474575042725 -0.00013371743261814117 -2.6677735149860382e-05 0.0 0.0 0.0 0.0
0.044 0.07689034938812256 -0.9999781250953674 1.102592796087265e-05 0.00018462631851434708 0.0 0.0 0.0 0.0
0.045 0.04616514593362808 -1.0061269998550415 4.017818719148636e-05 -3.368314355611801e-05 0.0 0.0 0.0 0.0
0.046 0.009746012277901173 -1.0108942985534668 7.544085383415222e-05 -2.3419968783855438e-05 0.0 0.0 0.0 0.0
0.047 -0.023838112130761147 -1.009092092514038 7.878057658672333e-05 7.43204727768898e-05 0.0 0.0 0.0 0.0
0.048 -0.050475895404815674 -1.0057302713394165 0.0001358790323138237 -6.296765059232712e-05 0.0 0.0 0.0 0.0
0.049 -0.0892443060874939 -0.9989398717880249 -0.00014028139412403107 0.0001402292400598526 0.0 0.0 0.0 0.0
0.05 -0.11855777353048325 -0.9974457025527954 0.00011059362441301346 4.6795234084129333e-05 0.0 0.0 0.0 0.0
0.051 -0.1502767652273178 -1.0020614862442017 0.0001486111432313919 7.870327681303024e-05 0.0 0.0 0.0 0.0
0.052 -0.1839044988155365 -0.9992602467536926 0.00015023816376924515 -2.2878870368003845e-05 0.0 0.0 0.0 0.0
0.053 -0.21790659427642822 -0.986661970615387 -9.267497807741165e-05 1.9803643226623535e-05 0.0 0.0 0.0 0.0
0.054 -0.24377118051052094 -0.9793814420700073 1.8679536879062653e-05 0.00021073035895824432 0.0 0.0 0.0 0.0
0.055 -0.274076908826828 -0.972288191318512 -9.714346379041672e-05 0.00011796783655881882 0.0 0.0 0.0 0.0
0.056 -0.308103084564209 -0.9655206203460693 4.624389111995697e-05 -3.5779550671577454e-05 0.0 0.0 0.0 0.0
0.057 -0.3441222608089447 -0.9526209831237793 -1.7369166016578674e-05 -0.00014416687190532684 0.0 0.0 0.0 0.0
0.058 -0.36801472306251526 -0.9402883648872375 -0.0003526844084262848 0.0002434970811009407 0.0 0.0 0.0 0.0
0.059 -0.40089669823646545 -0.9322956204414368 0.0002582864835858345 -9.915046393871307e-05 0.0 0.0 0.0 0.0
0.06 -0.43444475531578064 -0.9208047389984131 4.004687070846558e-06 -1.7194077372550964e-05 0.0 0.0 0.0 0.0
0.061 -0.4587285816669464 -0.9071048498153687 -3.526918590068817e-06 7.124617695808411e-06 0.0 0.0 0.0 0.0
0.062 -0.4905194342136383 -0.892993688583374 0.00017494242638349533 -0.00015153363347053528 0.0 0.0 0.0 0.0
0.063 -0.5199023485183716 -0.8727437257766724 -1.3629905879497528e-05 -0.00011096615344285965 0.0 0.0 0.0 0.0
0.064 -0.5392695665359497 -0.8545571565628052 0.00013234000653028488 8.556153625249863e-05 0.0 0.0 0.0 0.0
0.065 -0.5662581324577332 -0.8450321555137634 0.0001538340002298355 5.290564149618149e-05 0.0 0.0 0.0 0.0
0.066 -0.5945760607719421 -0.8268882036209106 0.0002063661813735962 -5.6819990277290344e-06 0.0 0.0 0.0 0.0
0.067 -0.6255772709846497 -0.8052954077720642 0.00018610060214996338 -8.073542267084122e-05 0.0 0.0 0.0 0.0
0.068 -0.6517059803009033 -0.7830381393432617 -1.141522079706192e-05 -0.00011473987251520157 0.0 0.0 0.0 0.0
0.069 -0.6718406081199646 -0.7602208852767944 9.45432111620903e-05 -8.678436279296875e-05 0.0 0.0 0.0 0.0
0.07 -0.6939834952354431 -0.747865617275238 0.0001703612506389618 0.00019082613289356232 0.0 0.0 0.0 0.0
0.071 -0.715336263179779 -0.7254136800765991 9.728875011205673e-05 6.28642737865448e-05 0.0 0.0 0.0 0.0
0.072 -0.7429375648498535 -0.6998192667961121 9.244773536920547e-05 -0.00016083475202322006 0.0 0.0 0.0 0.0
0.073 -0.7677784562110901 -0.6784875988960266 8.924026042222977e-05 -3.650598227977753e-05 0.0 0.0 0.0 0.0
0.074 -0.7858994603157043 -0.6548953056335449 0.00026083458214998245 -0.00015068985521793365 0.0 0.0 0.0 0.0
0.075 -0.8042232990264893 -0.6233181953430176 -0.00011200737208127975 -9.822286665439606e-05 0.0 0.0 0.0 0.0
0.076 -0.8208963871002197 -0.599785327911377 4.205573350191116e-05 -9.774044156074524e-05 0.0 0.0 0.0 0.0
0.077 -0.8378071188926697 -0.5751097798347473 0.00030418485403060913 -0.0001175757497549057 0.0 0.0 0.0 0.0
0.078 -0.8621286153793335 -0.5548912286758423 0.0002133157104253769 -3.6084093153476715e-05 0.0 0.0 0.0 0.0
0.079 -0.874002993106842 -0.5253523588180542 0.00013856589794158936 -0.00014501996338367462 0.0 0.0 0.0 0.0
0.08 -0.892483651638031 -0.4996224641799927 8.871965110301971e-05 -0.00023777689784765244 0.0 0.0 0.0 0.0
0.081 -0.9105758666992188 -0.4658544659614563 -8.623488247394562e-05 -0.00021601561456918716 0.0 0.0 0.0 0.0
0.082 -0.9223578572273254 -0.4407599866390228 4.6688131988048553e-05 -0.00026091933250427246 0.0 0.0 0.0 0.0
0.083 -0.9323721528053284 -0.4069569408893585 -1.4581717550754547e-05 -0.00031419191509485245 0.0 0.0 0.0 0.0
0.084 -0.9412828087806702 -0.38486042618751526 0.00010165292769670486 -0.0002464922145009041 0.0 0.0 0.0 0.0
0.085 -0.9597689509391785 -0.3556932806968689 3.819633275270462e-05 -0.0003800736740231514 0.0 0.0 0.0 0.0
0.086 -0.9699923396110535 -0.3235183358192444 1.1344440281391144e-05 -0.0004566498100757599 0.0 0.0 0.0 0.0
0.087 -0.9793680906295776 -0.29288744926452637 3.8607046008110046e-05 -0.0005637621507048607 0.0 0.0 0.0 0.0
0.088 -0.9856312870979309 -0.26030343770980835 -5.947798490524292e-05 -0.00028686877340078354 0.0 0.0 0.0 0.0
0.089 -0.9973821640014648 -0.23152385652065277 -7.335934787988663e-05 -0.0005652997642755508 0.0 0.0 0.0 0.0
0.09 -1.0007655620574951 -0.1985371857881546 -2.5216490030288696e-05 -0.0006044730544090271 0.0 0.0 0.0 0.0
0.091 -1.0079575777053833 -0.16578605771064758 -8.156616240739822e-05 -0.0008359309285879135 0.0 0.0 0.0 0.0
0.092 -1.0120540857315063 -0.1358041912317276 -0.0002047838643193245 -0.0007386216893792152 0.0 0.0 0.0 0.0
0.093 -1.0119056701660156 -0.10634523630142212 -9.405892342329025e-05 -0.0008873268961906433 0.0 0.0 0.0 0.0
0.094 -1.0171993970870972 -0.07586570084095001 -0.0001514209434390068 -0.001095842570066452 0.0 0.0 0.0 0.0
0.095 -1.0201818943023682 -0.04144414886832237 -0.0003523426130414009 -0.0016898419708013535 0.0 0.0 0.0 0.0
0.096 -1.0145288705825806 0.0005934983491897583 -0.0010239062830805779 -0.0022298097610473633 0.0 0.0 0.0 0.0
0.097 -1.0080146789550781 0.035714101046323776 -0.0017733583226799965 -0.0032271360978484154 0.0 0.0 0.0 0.0
0.098 -0.9823951721191406 0.08157330006361008 -0.006279093213379383 -0.00466261338442564 0.0 0.0 0.0 0.0
0.099 -0.9609683752059937 0.0367923341691494 -0.00779320765286684 0.007525186985731125 0.0 0.0 0.0 0.0
0.1 -1.0060583353042603 0.07672730088233948 -0.00032633356750011444 0.005247445777058601 0.0 0.0 0.0 0.0
0.101 -0.9384731650352478 0.10368521511554718 0.00042022112756967545 0.003008081577718258 0.0 0.0 0.0 0.0
0.102 -0.9340117573738098 0.13888034224510193 0.00039339158684015274 0.0021848371252417564 0.0 0.0 0.0 0.0
0.103 -0.9324156045913696 0.17007845640182495 0.00045058317482471466 0.0017267195507884026 0.0 0.0 0.0 0.0
0.104 -0.9262740015983582 0.1985742747783661 0.0006861751899123192 0.0013887491077184677 0.0 0.0 0.0 0.0
0.105 -0.9198412299156189 0.23059001564979553 0.00043028686195611954 0.0011625662446022034 0.0 0.0 0.0 0.0
0.106 -0.9139475226402283 0.2588652968406677 0.0005109338089823723 0.001076551154255867 0.0 0.0 0.0 0.0
0.107 -0.9032180905342102 0.28532129526138306 0.00047147274017333984 0.0010528601706027985 0.0 0.0 0.0 0.0
0.108 -0.8963550925254822 0.31512874364852905 0.0005539171397686005 0.0007771076634526253 0.0 0.0 0.0 0.0
0.109 -0.8840113878250122 0.3432804048061371 0.00042523816227912903 0.0008288603276014328 0.0 0.0 0.0 0.0
0.11 -0.8740051984786987 0.3708491623401642 0.00037844106554985046 0.0007209591567516327 0.0 0.0 0.0 0.0
0.111 -0.862550675868988 0.3983994722366333 0.0005156351253390312 0.0005835723131895065 0.0 0.0 0.0 0.0
0.112 -0.8497152924537659 0.42580342292785645 0.0005363328382372856 0.0006584348157048225 0.0 0.0 0.0 0.0
0.113 -0.8378628492355347 0.4526570737361908 0.0006061932072043419 0.000488821417093277 0.0 0.0 0.0 0.0
0.114 -0.819810152053833 0.47882166504859924 0.0005891909822821617 0.0005267877131700516 0.0 0.0 0.0 0.0
0.115 -0.8065913319587708 0.5059232711791992 0.0005679121240973473 0.0005869269371032715 0.0 0.0 0.0 0.0
0.116 -0.7895135283470154 0.530327558517456 0.0006787218153476715 0.0005820561200380325 0.0 0.0 0.0 0.0
0.117 -0.7729801535606384 0.5570122599601746 0.0006764829158782959 0.00031982362270355225 0.0 0.0 0.0 0.0
0.118 -0.7529042959213257 0.5802162885665894 0.0006482843309640884 0.00048636458814144135 0.0 0.0 0.0 0.0
0.119 -0.7329424619674683 0.6048890948295593 0.0006737848743796349 0.0005064019933342934 0.0 0.0 0.0 0.0
0.12 -0.7116764187812805 0.6290116310119629 0.0005261590704321861 0.00034174323081970215 0.0 0.0 0.0 0.0
0.121 -0.6913906931877136 0.6522790789604187 0.0006947219371795654 0.00031972117722034454 0.0 0.0 0.0 0.0
0.122 -0.6685121655464172 0.6753042936325073 0.0007373318076133728 0.00031037814915180206 0.0 0.0 0.0 0.0
0.123 -0.6459487676620483 0.6942058205604553 0.0008893506601452827 0.00017664674669504166 0.0 0.0 0.0 0.0
0.124 -0.6191139221191406 0.7164515256881714 0.0007894430309534073 0.00021362211555242538 0.0 0.0 0.0 0.0
0.125 -0.592793345451355 0.734188437461853 0.000790000893175602 0.00022420473396778107 0.0 0.0 0.0 0.0
0.126 -0.5655086040496826 0.7512049078941345 0.0008916053920984268 4.5253895223140717e-05 0.0 0.0 0.0 0.0
0.127 -0.5379486680030823 0.7659401297569275 0.0010288003832101822 -0.00012862589210271835 0.0 0.0 0.0 0.0
0.128 -0.5088818669319153 0.7803041934967041 0.0009684311226010323 -0.0002215588465332985 0.0 0.0 0.0 0.0
0.129 -0.4815697968006134 0.7888316512107849 0.000897696241736412 -0.00038664788007736206 0.0 0.0 0.0 0.0
0.13 -0.4572051167488098 0.8007625341415405 0.0010607652366161346 -0.0005268920212984085 0.0 0.0 0.0 0.0
0.131 -0.42984113097190857 0.8074741363525391 0.0008950373157858849 -0.0005603600293397903 0.0 0.0 0.0 0.0
0.132 -0.40707916021347046 0.8141495585441589 0.000857238657772541 -0.0008432427421212196 0.0 0.0 0.0 0.0
0.133 -0.38695448637008667 0.8193607926368713 0.0007224567234516144 -0.0008809957653284073 0.0 0.0 0.0 0.0
0.134 -0.369744211435318 0.8305132985115051 0.00044287461787462234 -0.0009702770039439201 0.0 0.0 0.0 0.0
0.135 -0.35125938057899475 0.842908501625061 0.000253080390393734 -0.0009030746296048164 0.0 0.0 0.0 0.0
0.136 -0.3301886320114136 0.8593633770942688 5.175359547138214e-06 -0.0007829926908016205 0.0 0.0 0.0 0.0
0.137 -0.30489856004714966 0.8744096755981445 2.294406294822693e-05 -0.0005418900400400162 0.0 0.0 0.0 0.0
0.138 -0.2787627875804901 0.8892143964767456 6.861612200737e-05 -0.0004766751080751419 0.0 0.0 0.0 0.0
0.139 -0.24806587398052216 0.9050171971321106 -0.0001522563397884369 -0.0005241269245743752 0.0 0.0 0.0 0.0
0.14 -0.21843421459197998 0.9170458316802979 -3.417953848838806e-07 -0.0005516847595572472 0.0 0.0 0.0 0.0
0.141 -0.18395289778709412 0.9282414317131042 -5.69075345993042e-05 -0.00024523772299289703 0.0 0.0 0.0 0.0
0.142 -0.15086957812309265 0.9342888593673706 8.125603199005127e-05 -0.00037235673516988754 0.0 0.0 0.0 0.0
0.143 -0.11599850654602051 0.9418637752532959 0.0001238929107785225 -0.00022946298122406006 0.0 0.0 0.0 0.0
0.144 -0.08314492553472519 0.9450458288192749 4.154723137617111e-05 -0.00021547731012105942 0.0 0.0 0.0 0.0
0.145 -0.04833115264773369 0.9493288993835449 3.349781036376953e-05 -0.00023561343550682068 0.0 0.0 0.0 0.0
0.146 -0.014733447693288326 0.9503780603408813 9.748619049787521e-05 -0.00032833684235811234 0.0 0.0 0.0 0.0
0.147 0.02059788443148136 0.9505822062492371 0.0002873353660106659 -0.00041919387876987457 0.0 0.0 0.0 0.0
0.148 0.05476539582014084 0.9469115138053894 0.00014701299369335175 -0.00021398626267910004 0.0 0.0 0.0 0.0
0.149 0.08873745799064636 0.9443124532699585 0.00023406092077493668 -0.0004298686981201172 0.0 0.0 0.0 0.0
0.15 0.1236870065331459 0.9401711821556091 0.00013599731028079987 -0.0005560014396905899 0.0 0.0 0.0 0.0
0.151 0.15878058969974518 0.9340758919715881 0.0002874024212360382 -0.000537017360329628 0.0 0.0 0.0 0.0
0.152 0.19136494398117065 0.9267377257347107 0.00013060960918664932 -0.00043276138603687286 0.0 0.0 0.0 0.0
0.153 0.22405532002449036 0.9157083630561829 0.00010411441326141357 -0.000496971420943737 0.0 0.0 0.0 0.0
0.154 0.2579817473888397 0.9064002633094788 0.00022596493363380432 -0.000647163949906826 0.0 0.0 0.0 0.0
0.155 0.2875075042247772 0.8926716446876526 0.000316365621984005 -0.0004653334617614746 0.0 0.0 0.0 0.0
0.156 0.3199422359466553 0.8794033527374268 6.153900176286697e-05 -0.0008301287889480591 0.0 0.0 0.0 0.0
0.157 0.3487091064453125 0.8648863434791565 0.00011564232409000397 -0.0008274326100945473 0.0 0.0 0.0 0.0
0.158 0.3799978792667389 0.8491458892822266 -8.573662489652634e-05 -0.000894404947757721 0.0 0.0 0.0 0.0
0.159 0.40817853808403015 0.8319416642189026 -0.0001580510288476944 -0.001099475659430027 0.0 0.0 0.0 0.0
0.16 0.43382924795150757 0.8092199563980103 -0.00020457711070775986 -0.0011270307004451752 0.0 0.0 0.0 0.0
0.161 0.4561719298362732 0.7884612083435059 -0.0006249090656638145 -0.0013090753927826881 0.0 0.0 0.0 0.0
0.162 0.4707185626029968 0.7679552435874939 -0.0009261192753911018 -0.0011253133416175842 0.0 0.0 0.0 0.0
0.163 0.48721078038215637 0.758590042591095 -0.0011578407138586044 -0.0009961705654859543 0.0 0.0 0.0 0.0
0.164 0.5068016648292542 0.7505127191543579 -0.0015440108254551888 -0.0006103040650486946 0.0 0.0 0.0 0.0
0.165 0.5341745018959045 0.744044303894043 -0.0015746178105473518 -0.00030615273863077164 0.0 0.0 0.0 0.0
0.166 0.5631265044212341 0.7289504408836365 -0.0013688458129763603 -8.182600140571594e-06 0.0 0.0 0.0 0.0
0.167 0.5934157371520996 0.7143914103507996 -0.0011198893189430237 0.0001567397266626358 0.0 0.0 0.0 0.0
0.168 0.6216296553611755 0.6958608627319336 -0.0010393690317869186 0.0003814408555626869 0.0 0.0 0.0 0.0
0.169 0.6521684527397156 0.6734989881515503 -0.0008103735744953156 0.0003484562039375305 0.0 0.0 0.0 0.0
0.17 0.6773208975791931 0.649312436580658 -0.0008167624473571777 0.0005199974402785301 0.0 0.0 0.0 0.0
0.171 0.7041993141174316 0.6246464252471924 -0.000792158767580986 0.0006121741607785225 0.0 0.0 0.0 0.0
0.172 0.7266002297401428 0.5978190898895264 -0.0005401717498898506 0.0004376620054244995 0.0 0.0 0.0 0.0
0.173 0.7505063414573669 0.5700109601020813 -0.0004982855170965195 0.0006174240261316299 0.0 0.0 0.0 0.0
0.174 0.7709769606590271 0.5426979660987854 -0.0004201233386993408 0.0004800613969564438 0.0 0.0 0.0 0.0
0.175 0.790781557559967 0.5143254399299622 -0.0005805846303701401 0.00045430008322000504 0.0 0.0 0.0 0.0
0.176 0.8093258738517761 0.48277556896209717 -0.0004357835277915001 0.00040835049003362656 0.0 0.0 0.0 0.0
0.177 0.8255276679992676 0.4531461000442505 -0.0002830624580383301 0.00045123882591724396 0.0 0.0 0.0 0.0
0.178 0.842219352722168 0.42130669951438904 -0.0002591954544186592 0.0004566311836242676 0.0 0.0 0.0 0.0
0.179 0.8566972017288208 0.3901422619819641 -0.00024804938584566116 0.00044248253107070923 0.0 0.0 0.0 0.0
0.18 0.8687486052513123 0.3592151999473572 -0.00030076224356889725 0.00044305529445409775 0.0 0.0 0.0 0.0
0.181 0.8802893757820129 0.32459038496017456 -0.00023327115923166275 0.00036234408617019653 0.0 0.0 0.0 0.0
0.182 0.894808292388916 0.29248884320259094 -8.487235754728317e-05 0.00042100250720977783 0.0 0.0 0.0 0.0
0.183 0.9005391597747803 0.2609168291091919 -0.000209675170481205 0.00036600884050130844 0.0 0.0 0.0 0.0
0.184 0.9096161723136902 0.22650650143623352 -0.00015719328075647354 0.00030984170734882355 0.0 0.0 0.0 0.0
0.185 0.9161590337753296 0.19282691180706024 -3.5419128835201263e-05 0.00037644989788532257 0.0 0.0 0.0 0.0
0.186 0.9222850203514099 0.16190023720264435 -0.00015584472566843033 0.0004918379709124565 0.0 0.0 0.0 0.0
0.187 0.9268182516098022 0.1293479949235916 -0.00015907268971204758 0.00042904913425445557 0.0 0.0 0.0 0.0
0.188 0.9304471015930176 0.09384214878082275 0.0001623285934329033 0.00043484754860401154 0.0 0.0 0.0 0.0
0.189 0.931770920753479 0.0603511668741703 9.450223296880722e-05 0.0002957591786980629 0.0 0.0 0.0 0.0
0.19 0.9336178302764893 0.028992673382163048 -0.0001142546534538269 0.00046750903129577637 0.0 0.0 0.0 0.0
0.191 0.9327905178070068 -0.004640586674213409 -0.00013078656047582626 0.00038031768053770065 0.0 0.0 0.0 0.0
0.192 0.9317266941070557 -0.038295816630125046 -2.8081238269805908e-05 0.00036807265132665634 0.0 0.0 0.0 0.0
0.193 0.928703784942627 -0.06973699480295181 -1.8644146621227264e-05 0.0003992849960923195 0.0 0.0 0.0 0.0
0.194 0.9256457090377808 -0.10136456042528152 7.154233753681183e-05 0.00037401076406240463 0.0 0.0 0.0 0.0
0.195 0.9202106595039368 -0.13630396127700806 8.218549191951752e-05 0.0003202008083462715 0.0 0.0 0.0 0.0
0.196 0.9135068655014038 -0.1653491109609604 8.794665336608887e-05 0.000487329438328743 0.0 0.0 0.0 0.0
0.197 0.9084645509719849 -0.19831186532974243 2.669449895620346e-05 0.0004234137013554573 0.0 0.0 0.0 0.0
0.198 0.9000129103660583 -0.2296215146780014 3.224518150091171e-05 0.0004139728844165802 0.0 0.0 0.0 0.0
0.199 0.8918010592460632 -0.25961756706237793 6.0568563640117645e-05 0.00030825380235910416 0.0 0.0 0.0 0.0
0.2 0.8812703490257263 -0.2908133864402771 4.7437846660614014e-05 0.00030550919473171234 0.0 0.0 0.0 0.0
0.201 0.8698201775550842 -0.3208523690700531 0.00031122658401727676 0.00026541389524936676 0.0 0.0 0.0 0.0
0.202 0.8581700325012207 -0.3507840633392334 8.484348654747009e-07 0.00022395793348550797 0.0 0.0 0.0 0.0
0.203 0.8455235958099365 -0.37962865829467773 -5.227886140346527e-05 0.00022903457283973694 0.0 0.0 0.0 0.0
0.204 0.8347926139831543 -0.40806958079338074 0.0003331303596496582 0.00025809649378061295 0.0 0.0 0.0 0.0
0.205 0.8160558342933655 -0.4351803660392761 0.00011234451085329056 0.00023251213133335114 0.0 0.0 0.0 0.0
0.206 0.8034576773643494 -0.4649448096752167 0.00015609059482812881 0.00018865987658500671 0.0 0.0 0.0 0.0
0.207 0.7844765186309814 -0.48808708786964417 0.00016157515347003937 0.0001991884782910347 0.0 0.0 0.0 0.0
0.208 0.7686894536018372 -0.5145929455757141 0.00010781083256006241 0.00015789922326803207 0.0 0.0 0.0 0.0
0.209 0.7518445253372192 -0.5404148697853088 0.00014187302440404892 9.066052734851837e-05 0.0 0.0 0.0 0.0
0.21 0.7336854934692383 -0.563571035861969 2.8243288397789e-05 0.00032289884984493256 0.0 0.0 0.0 0.0
0.211 0.7155200242996216 -0.5876321196556091 0.00021577533334493637 0.00031015370041131973 0.0 0.0 0.0 0.0
0.212 0.694766640663147 -0.6113536357879639 0.00015141814947128296 0.00021002814173698425 0.0 0.0 0.0 0.0
0.213 0.6744698286056519 -0.6363576650619507 0.00017529167234897614 0.00019237957894802094 0.0 0.0 0.0 0.0
0.214 0.6539762020111084 -0.6551427841186523 0.0002634720876812935 0.00024151243269443512 0.0 0.0 0.0 0.0
0.215 0.6328456997871399 -0.6780223846435547 0.00030283350497484207 0.00030688289552927017 0.0 0.0 0.0 0.0
0.216 0.6089537143707275 -0.6966423988342285 0.00026121363043785095 0.000196041539311409 0.0 0.0 0.0 0.0
0.217 0.5887730121612549 -0.7191569209098816 0.00029840972274541855 0.00016276538372039795 0.0 0.0 0.0 0.0
0.218 0.5621041655540466 -0.7359705567359924 0.0002579977735877037 0.00023866910487413406 0.0 0.0 0.0 0.0
0.219 0.5400319695472717 -0.7523946762084961 0.00029164738953113556 0.00022633187472820282 0.0 0.0 0.0 0.0
0.22 0.5130497813224792 -0.7703654766082764 0.0001787738874554634 8.606165647506714e-05 0.0 0.0 0.0 0.0
0.221 0.49215900897979736 -0.7866837978363037 0.0003332039341330528 0.0002071121707558632 0.0 0.0 0.0 0.0
0.222 0.46485114097595215 -0.8029753565788269 0.0003695329651236534 8.908193558454514e-05 0.0 0.0 0.0 0.0
0.223 0.4391213357448578 -0.8175631761550903 0.00017006788402795792 8.807424455881119e-05 0.0 0.0 0.0 0.0
0.224 0.4126981794834137 -0.833859384059906 0.0003407113254070282 2.2493302822113037e-05 0.0 0.0 0.0 0.0
0.225 0.3857509195804596 -0.843547523021698 0.00035180244594812393 0.00022346340119838715 0.0 0.0 0.0 0.0
0.226 0.35954558849334717 -0.8563246130943298 0.0002987552434206009 7.184315472841263e-05 0.0 0.0 0.0 0.0
0.227 0.3335713744163513 -0.8688281178474426 0.00026270002126693726 0.00010290276259183884 0.0 0.0 0.0 0.0
0.228 0.3039848208427429 -0.8826642036437988 0.00033374037593603134 -1.1916272342205048e-05 0.0 0.0 0.0 0.0
0.229 0.2784813344478607 -0.8859203457832336 0.0002748798578977585 0.00017091725021600723 0.0 0.0 0.0 0.0
0.23 0.2520562410354614 -0.8961740136146545 0.00030769873410463333 0.00016206596046686172 0.0 0.0 0.0 0.0
0.231 0.2233850061893463 -0.9039040207862854 0.000446198508143425 -3.765523433685303e-05 0.0 0.0 0.0 0.0
0.232 0.19451890885829926 -0.9115647673606873 0.0002995384857058525 3.408268094062805e-05 0.0 0.0 0.0 0.0
0.233 0.1642921417951584 -0.9188216328620911 0.0003703199326992035 4.892423748970032e-05 0.0 0.0 0.0 0.0
0.234 0.139302060008049 -0.9237311482429504 0.00030432362109422684 0.00011132005602121353 0.0 0.0 0.0 0.0
0.235 0.10840407758951187 -0.9278285503387451 0.00032581668347120285 -1.8565915524959564e-05 0.0 0.0 0.0 0.0
0.236 0.07968556135892868 -0.9340137243270874 0.00036019831895828247 -0.00013007782399654388 0.0 0.0 0.0 0.0
0.237 0.0532376766204834 -0.9361675977706909 0.0005297334864735603 -0.00012257415801286697 0.0 0.0 0.0 0.0
0.238 0.02324511483311653 -0.9389812350273132 0.0002772742882370949 -0.0001393500715494156 0.0 0.0 0.0 0.0
0.239 -0.006656080484390259 -0.9386537075042725 0.00036378856748342514 3.533810377120972e-05 0.0 0.0 0.0 0.0
0.24 -0.034552671015262604 -0.9385082125663757 0.0005913088098168373 -4.226621240377426e-05 0.0 0.0 0.0 0.0
0.241 -0.06208629161119461 -0.9403104186058044 0.000576443038880825 6.273388862609863e-06 0.0 0.0 0.0 0.0
0.242 -0.09120423346757889 -0.9367613196372986 0.00042220111936330795 -3.717001527547836e-05 0.0 0.0 0.0 0.0
0.243 -0.12232392281293869 -0.9370066523551941 0.0007207347080111504 -0.00020442623645067215 0.0 0.0 0.0 0.0
0.244 -0.14813464879989624 -0.9337909817695618 0.000525561161339283 -0.00010123010724782944 0.0 0.0 0.0 0.0
0.245 -0.17866374552249908 -0.929203987121582 0.0003521246835589409 -0.00018996372818946838 0.0 0.0 0.0 0.0
0.246 -0.20680245757102966 -0.925161600112915 0.0006418107077479362 -0.00023830123245716095 0.0 0.0 0.0 0.0
0.247 -0.23415078222751617 -0.9192063212394714 0.000539800152182579 -0.0002578580752015114 0.0 0.0 0.0 0.0
0.248 -0.263517826795578 -0.9133931994438171 0.00047345831990242004 -0.00023667886853218079 0.0 0.0 0.0 0.0
0.249 -0.2912767231464386 -0.9058879017829895 0.0006294930353760719 -0.0005330471321940422 0.0 0.0 0.0 0.0
0.25 -0.3198763430118561 -0.896992027759552 0.0005328105762600899 -0.0003833398222923279 0.0 0.0 0.0 0.0
0.251 -0.34626033902168274 -0.8859474062919617 0.0005252007395029068 -0.0002629449591040611 0.0 0.0 0.0 0.0
0.252 -0.37770965695381165 -0.8780784606933594 0.0004184739664196968 -0.0005814237520098686 0.0 0.0 0.0 0.0
0.253 -0.3996501564979553 -0.864798903465271 0.0003697918727993965 -0.00045449379831552505 0.0 0.0 0.0 0.0
0.254 -0.4299331605434418 -0.8567980527877808 0.00028978381305933 -0.0005971137434244156 0.0 0.0 0.0 0.0
0.255 -0.45379289984703064 -0.8410175442695618 0.0004032151773571968 -0.000367005355656147 0.0 0.0 0.0 0.0
0.256 -0.48092496395111084 -0.8286086320877075 0.00021480116993188858 -0.0005064234137535095 0.0 0.0 0.0 0.0
0.257 -0.5051277279853821 -0.8166674971580505 0.0004640212282538414 -0.0003704233095049858 0.0 0.0 0.0 0.0
0.258 -0.5325107574462891 -0.8027966618537903 0.0004756934940814972 -0.0007647471502423286 0.0 0.0 0.0 0.0
0.259 -0.5583256483078003 -0.7886013388633728 0.0004211580380797386 -0.00047049857676029205 0.0 0.0 0.0 0.0
0.26 -0.5818043351173401 -0.770117998123169 0.00029123108834028244 -0.0003895685076713562 0.0 0.0 0.0 0.0
0.261 -0.6097574830055237 -0.7537881731987 0.0005409177392721176 -0.0006227130070328712 0.0 0.0 0.0 0.0
0.262 -0.6297787427902222 -0.732965350151062 0.0006111124530434608 -0.00042075663805007935 0.0 0.0 0.0 0.0
0.263 -0.6581084132194519 -0.7135425806045532 0.0006578164175152779 -0.0006469720974564552 0.0 0.0 0.0 0.0
0.264 -0.6777212619781494 -0.6920045018196106 0.0008271532133221626 -0.0007165716961026192 0.0 0.0 0.0 0.0
0.265 -0.6992119550704956 -0.6721552014350891 0.0006897030398249626 -0.00076273363083601 0.0 0.0 0.0 0.0
0.266 -0.7214219570159912 -0.6508731245994568 0.0009479634463787079 -0.0011903895065188408 0.0 0.0 0.0 0.0
0.267 -0.7406412363052368 -0.6287173628807068 0.0010142754763364792 -0.0012228209525346756 0.0 0.0 0.0 0.0
0.268 -0.7623842358589172 -0.6045874953269958 0.0007657026872038841 -0.0014564869925379753 0.0 0.0 0.0 0.0
0.269 -0.7790926098823547 -0.5815878510475159 0.0007824795320630074 -0.0017371345311403275 0.0 0.0 0.0 0.0
0.27 -0.7972298264503479 -0.5570123791694641 0.0006388407200574875 -0.0021864231675863266 0.0 0.0 0.0 0.0
0.271 -0.8162328004837036 -0.5295418500900269 0.0002931123599410057 -0.0025125574320554733 0.0 0.0 0.0 0.0
0.272 -0.8307796716690063 -0.5025713443756104 4.959478974342346e-05 -0.00253986194729805 0.0 0.0 0.0 0.0
0.273 -0.8459426164627075 -0.4776558578014374 -0.00018311571329832077 -0.002945507876574993 0.0 0.0 0.0 0.0
0.274 -0.8603123426437378 -0.44914209842681885 -0.0009661801159381866 -0.0030185170471668243 0.0 0.0 0.0 0.0
0.275 -0.8701066374778748 -0.4196104407310486 -0.0016647446900606155 -0.0026809601113200188 0.0 0.0 0.0 0.0
0.276 -0.883509635925293 -0.3916873335838318 -0.002139533869922161 -0.0025600390508770943 0.0 0.0 0.0 0.0
0.277 -0.8903008699417114 -0.36784419417381287 -0.002443157136440277 -0.00221441313624382 0.0 0.0 0.0 0.0
0.278 -0.9038578867912292 -0.3391544222831726 -0.0027971556410193443 -0.001820349134504795 0.0 0.0 0.0 0.0
0.279 -0.910409152507782 -0.3151687979698181 -0.0030102981254458427 -0.0015082592144608498 0.0 0.0 0.0 0.0
0.28 -0.918435275554657 -0.2879790961742401 -0.003263406455516815 -0.000898582860827446 0.0 0.0 0.0 0.0
0.281 -0.9255224466323853 -0.2600584328174591 -0.00352566409856081 -0.000530690886080265 0.0 0.0 0.0 0.0
0.282 -0.9335103631019592 -0.23585762083530426 -0.0031572114676237106 0.00016119051724672318 0.0 0.0 0.0 0.0
0.283 -0.9409496784210205 -0.20960268378257751 -0.003145536407828331 0.0006151171401143074 0.0 0.0 0.0 0.0
0.284 -0.9539975523948669 -0.18139834702014923 -0.002673364244401455 0.0007682405412197113 0.0 0.0 0.0 0.0
0.285 -0.9585240483283997 -0.15181562304496765 -0.0023751650005578995 0.0009512249380350113 0.0 0.0 0.0 0.0
0.286 -0.965894877910614 -0.11948883533477783 -0.0024101808667182922 0.0012922994792461395 0.0 0.0 0.0 0.0
0.287 -0.9735264778137207 -0.08822128921747208 -0.002033952623605728 0.0012357914820313454 0.0 0.0 0.0 0.0
0.288 -0.9749084711074829 -0.05537382513284683 -0.0020800093188881874 0.001454669050872326 0.0 0.0 0.0 0.0
0.289 -0.9787039160728455 -0.027365561574697495 -0.001895359717309475 0.0015600202605128288 0.0 0.0 0.0 0.0
0.29 -0.9775034189224243 0.005590262822806835 -0.001560804434120655 0.0015485435724258423 0.0 0.0 0.0 0.0
0.291 -0.9778035879135132 0.04150855168700218 -0.0017590783536434174 0.0015642382204532623 0.0 0.0 0.0 0.0
0.292 -0.9757243394851685 0.06863103806972504 -0.0013726474717259407 0.00177772156894207 0.0 0.0 0.0 0.0
0.293 -0.9754112958908081 0.10446716099977493 -0.001256176270544529 0.0016925018280744553 0.0 0.0 0.0 0.0
0.294 -0.9709407687187195 0.13747291266918182 -0.0010616108775138855 0.0016986038535833359 0.0 0.0 0.0 0.0
0.295 -0.9666239619255066 0.16726617515087128 -0.0008575264364480972 0.0019400855526328087 0.0 0.0 0.0 0.0
0.296 -0.9580146074295044 0.19951027631759644 -0.0007200427353382111 0.002134954556822777 0.0 0.0 0.0 0.0
0.297 -0.9517396092414856 0.2332926094532013 -0.0006812606006860733 0.002130289562046528 0.0 0.0 0.0 0.0
0.298 -0.9461198449134827 0.26660165190696716 -0.0005405787378549576 0.0020767198875546455 0.0 0.0 0.0 0.0
0.299 -0.936901867389679 0.29447388648986816 -0.00039625726640224457 0.001962048001587391 0.0 0.0 0.0 0.0
0.3 -0.92606121301651 0.33107396960258484 -0.0001935027539730072 0.002050872892141342 0.0 0.0 0.0 0.0
0.301 -0.9137366414070129 0.36012202501296997 2.7572736144065857e-05 0.0019587595015764236 0.0 0.0 0.0 0.0
0.302 -0.901273787021637 0.3948882520198822 0.00012135319411754608 0.0018649222329258919 0.0 0.0 0.0 0.0
0.303 -0.8855584263801575 0.4258672893047333 0.00012703333050012589 0.0016612429171800613 0.0 0.0 0.0 0.0
0.304 -0.8691558241844177 0.45767128467559814 0.00032817292958498 0.001819038763642311 0.0 0.0 0.0 0.0
0.305 -0.8500977754592896 0.48714500665664673 0.0005050739273428917 0.0018355976790189743 0.0 0.0 0.0 0.0
0.306 -0.8314576148986816 0.5166076421737671 0.00032417941838502884 0.0017518997192382812 0.0 0.0 0.0 0.0
0.307 -0.810966968536377 0.544111967086792 0.0008154353126883507 0.0015413062646985054 0.0 0.0 0.0 0.0
0.308 -0.7887536287307739 0.570966362953186 0.0008197063580155373 0.0016289446502923965 0.0 0.0 0.0 0.0
0.309 -0.7657133936882019 0.6011558771133423 0.000744362361729145 0.0014179209247231483 0.0 0.0 0.0 0.0
0.31 -0.741732656955719 0.6226550340652466 0.0009543243795633316 0.0014878911897540092 0.0 0.0 0.0 0.0
0.311 -0.7163115739822388 0.6492494940757751 0.001096600666642189 0.0014397501945495605 0.0 0.0 0.0 0.0
0.312 -0.6902976632118225 0.6739756464958191 0.0009729890152812004 0.0013838373124599457 0.0 0.0 0.0 0.0
0.313 -0.6620416641235352 0.6977112889289856 0.0009994637221097946 0.0011965325102210045 0.0 0.0 0.0 0.0
0.314 -0.6340016722679138 0.7155465483665466 0.001281149685382843 0.0010983524844050407 0.0 0.0 0.0 0.0
0.315 -0.6050150394439697 0.7377765774726868 0.0012531476095318794 0.0011350484564900398 0.0 0.0 0.0 0.0
0.316 -0.5772520899772644 0.7541893720626831 0.001241680234670639 0.001001301221549511 0.0 0.0 0.0 0.0
0.317 -0.5448895692825317 0.7757505774497986 0.0013772519305348396 0.0011145034804940224 0.0 0.0 0.0 0.0
0.318 -0.5152636170387268 0.7911757826805115 0.0013617640361189842 0.000780775211751461 0.0 0.0 0.0 0.0
0.319 -0.48331397771835327 0.8053575158119202 0.0014700563624501228 0.000760185532271862 0.0 0.0 0.0 0.0
0.32 -0.44809406995773315 0.8197784423828125 0.001377851702272892 0.000549030490219593 0.0 0.0 0.0 0.0
0.321 -0.41524142026901245 0.8295905590057373 0.0016178451478481293 0.0005848919972777367 0.0 0.0 0.0 0.0
0.322 -0.3794317841529846 0.8376429080963135 0.0015022344887256622 0.0005761636421084404 0.0 0.0 0.0 0.0
0.323 -0.34796142578125 0.8439560532569885 0.0016584573313593864 0.0003809034824371338 0.0 0.0 0.0 0.0
0.324 -0.3132287561893463 0.8505776524543762 0.0015154406428337097 0.00036770477890968323 0.0 0.0 0.0 0.0
0.325 -0.28267088532447815 0.8548895120620728 0.0016630757600069046 0.00033725518733263016 0.0 0.0 0.0 0.0
0.326 -0.25113674998283386 0.8576256632804871 0.0017557526007294655 0.00010232627391815186 0.0 0.0 0.0 0.0
0.327 -0.21631188690662384 0.8594326972961426 0.001625632867217064 0.00021662842482328415 0.0 0.0 0.0 0.0
0.328 -0.18500526249408722 0.8604089021682739 0.00175517238676548 -0.00013738684356212616 0.0 0.0 0.0 0.0
0.329 -0.15352791547775269 0.8576911687850952 0.001602301374077797 -0.0002707066014409065 0.0 0.0 0.0 0.0
0.33 -0.123625747859478 0.8552762866020203 0.0014345450326800346 -0.00030112452805042267 0.0 0.0 0.0 0.0
0.331 -0.0943036675453186 0.8509811758995056 0.0016247667372226715 -0.000440976582467556 0.0 0.0 0.0 0.0
0.332 -0.06596299260854721 0.8490672707557678 0.0015909085050225258 -0.0006289314478635788 0.0 0.0 0.0 0.0
0.333 -0.036963433027267456 0.8424263596534729 0.0014912746846675873 -0.0007507121190428734 0.0 0.0 0.0 0.0
0.334 -0.008032150566577911 0.8375157713890076 0.001409720629453659 -0.0006974125280976295 0.0 0.0 0.0 0.0
0.335 0.01867503486573696 0.8308968544006348 0.0014806408435106277 -0.0010107504203915596 0.0 0.0 0.0 0.0
0.336 0.04565778002142906 0.8202994465827942 0.0014831023290753365 -0.000987885519862175 0.0 0.0 0.0 0.0
0.337 0.0729125440120697 0.809438943862915 0.0014026518911123276 -0.0012631136924028397 0.0 0.0 0.0 0.0
0.338 0.09622824192047119 0.7981777787208557 0.001209218055009842 -0.0013632457703351974 0.0 0.0 0.0 0.0
0.339 0.12022411823272705 0.7891092896461487 0.0011618882417678833 -0.0013315659016370773 0.0 0.0 0.0 0.0
0.34 0.13885317742824554 0.7755407094955444 0.0011316780000925064 -0.0015382487326860428 0.0 0.0 0.0 0.0
0.341 0.16170825064182281 0.7610640525817871 0.0011462345719337463 -0.0016880836337804794 0.0 0.0 0.0 0.0
0.342 0.17825160920619965 0.7473076581954956 0.0007653888314962387 -0.0018998989835381508 0.0 0.0 0.0 0.0
0.343 0.19309869408607483 0.7382736206054688 0.0005271276459097862 -0.0020181043073534966 0.0 0.0 0.0 0.0
0.344 0.2062598615884781 0.7278753519058228 0.00034207291901111603 -0.0022269459441304207 0.0 0.0 0.0 0.0
0.345 0.22151683270931244 0.7168734073638916 2.4813227355480194e-05 -0.0021339459344744682 0.0 0.0 0.0 0.0
0.346 0.2328719049692154 0.7064725756645203 -0.0001946752890944481 -0.002230646088719368 0.0 0.0 0.0 0.0
0.347 0.24077878892421722 0.7013517022132874 -0.0003672745078802109 -0.0021278737112879753 0.0 0.0 0.0 0.0
0.348 0.25166913866996765 0.7004241347312927 -0.0008161310106515884 -0.0020566266030073166 0.0 0.0 0.0 0.0
0.349 0.2623554468154907 0.7023022770881653 -0.0009468225762248039 -0.0018655220046639442 0.0 0.0 0.0 0.0
0.35 0.2823432683944702 0.7063845992088318 -0.0012508528307080269 -0.001683834008872509 0.0 0.0 0.0 0.0
0.351 0.3006076216697693 0.7071992754936218 -0.0013181287795305252 -0.0012731226161122322 0.0 0.0 0.0 0.0
0.352 0.3233415484428406 0.7135255336761475 -0.0014476105570793152 -0.001097278669476509 0.0 0.0 0.0 0.0
0.353 0.3501417934894562 0.7160710692405701 -0.0013375366106629372 -0.0007249452173709869 0.0 0.0 0.0 0.0
0.354 0.3848879039287567 0.7153609395027161 -0.0013958262279629707 -0.0004876209422945976 0.0 0.0 0.0 0.0
0.355 0.41656985878944397 0.7049627900123596 -0.0012897830456495285 -0.0004384126514196396 0.0 0.0 0.0 0.0
0.356 0.45074552297592163 0.6952484846115112 -0.0011323271319270134 -0.00013671163469552994 0.0 0.0 0.0 0.0
0.357 0.47905734181404114 0.679969072341919 -0.001151813194155693 -0.0001911018043756485 0.0 0.0 0.0 0.0
0.358 0.5076236128807068 0.6657909750938416 -0.0010682018473744392 -0.000304671935737133 0.0 0.0 0.0 0.0
0.359 0.5366882085800171 0.6447142362594604 -0.0008914610370993614 -0.00018037762492895126 0.0 0.0 0.0 0.0
0.36 0.5609670877456665 0.6269202828407288 -0.0007608365267515182 -6.23771920800209e-05 0.0 0.0 0.0 0.0
0.361 0.5857853293418884 0.6048997044563293 -0.0006328485906124115 7.264688611030579e-05 0.0 0.0 0.0 0.0
0.362 0.6065110564231873 0.5873335003852844 -0.0006100833415985107 1.6410835087299347e-05 0.0 0.0 0.0 0.0
0.363 0.632642924785614 0.5658191442489624 -0.0006613228470087051 0.00010540615767240524 0.0 0.0 0.0 0.0
0.364 0.6526128649711609 0.5426545739173889 -0.000628485344350338 4.337262362241745e-05 0.0 0.0 0.0 0.0
0.365 0.6759368181228638 0.5190289616584778 -0.0004699314013123512 0.0002715606242418289 0.0 0.0 0.0 0.0
0.366 0.6934713125228882 0.4957309067249298 -0.000573144294321537 4.238169640302658e-05 0.0 0.0 0.0 0.0
0.367 0.713036298751831 0.4716249406337738 -0.00042720045894384384 4.759151488542557e-05 0.0 0.0 0.0 0.0
0.368 0.7319104075431824 0.44625425338745117 -0.00044345948845148087 0.00015979260206222534 0.0 0.0 0.0 0.0
0.369 0.7487089037895203 0.42062196135520935 -0.00026464927941560745 0.00020197592675685883 0.0 0.0 0.0 0.0
0.37 0.7643821239471436 0.3934653401374817 -0.00047121942043304443 6.858352571725845e-05 0.0 0.0 0.0 0.0
0.371 0.7813089489936829 0.3681074380874634 -0.0004377085715532303 0.0002539176493883133 0.0 0.0 0.0 0.0
0.372 0.7962701320648193 0.33765727281570435 -0.00036181602627038956 0.00021206680685281754 0.0 0.0 0.0 0.0
0.373 0.8079759478569031 0.3121396005153656 -0.0004818066954612732 6.849225610494614e-05 0.0 0.0 0.0 0.0
0.374 0.8212581872940063 0.28179681301116943 -0.000569147989153862 0.00011051073670387268 0.0 0.0 0.0 0.0
0.375 0.8304475545883179 0.25316399335861206 -0.0005215192213654518 0.0002279616892337799 0.0 0.0 0.0 0.0
0.376 0.8441542387008667 0.22190310060977936 -0.0003514094278216362 0.0001423107460141182 0.0 0.0 0.0 0.0
0.377 0.8523831367492676 0.19171053171157837 -0.0002811569720506668 0.00018067006021738052 0.0 0.0 0.0 0.0
0.378 0.8595184087753296 0.16094443202018738 -0.0002700677141547203 0.00014665722846984863 0.0 0.0 0.0 0.0
0.379 0.8669418692588806 0.13351140916347504 -0.000309966504573822 0.00019663572311401367 0.0 0.0 0.0 0.0
0.38 0.8716788291931152 0.10194779187440872 -0.00029456615447998047 0.00018433388322591782 0.0 0.0 0.0 0.0
0.381 0.8761294484138489 0.06983646750450134 -0.00018623936921358109 0.0003965720534324646 0.0 0.0 0.0 0.0
0.382 0.8786436319351196 0.03827209025621414 -7.162895053625107e-05 0.00030305609107017517 0.0 0.0 0.0 0.0
0.383 0.8823556900024414 0.007121885195374489 -7.95973464846611e-05 0.0003283778205513954 0.0 0.0 0.0 0.0
0.384 0.8820199370384216 -0.02327127754688263 -0.00021080393344163895 0.00018564052879810333 0.0 0.0 0.0 0.0
0.385 0.8825593590736389 -0.056203559041023254 -0.00017502997070550919 0.00019486527889966965 0.0 0.0 0.0 0.0
0.386 0.8806203007698059 -0.08320289105176926 -8.327420800924301e-05 0.0001935446634888649 0.0 0.0 0.0 0.0
0.387 0.878544807434082 -0.11397608369588852 -0.00017876643687486649 0.000422600656747818 0.0 0.0 0.0 0.0
0.388 0.8739486932754517 -0.14569607377052307 -0.00017565954476594925 0.00023763347417116165 0.0 0.0 0.0 0.0
0.389 0.867669939994812 -0.17708691954612732 -8.628889918327332e-05 0.00015150196850299835 0.0 0.0 0.0 0.0
0.39 0.8605756163597107 -0.2057034969329834 -9.915325790643692e-05 0.00030258484184741974 0.0 0.0 0.0 0.0
0.391 0.8569764494895935 -0.23565806448459625 0.0001719258725643158 0.0002556871622800827 0.0 0.0 0.0 0.0
0.392 0.84855055809021 -0.2623026371002197 -4.731118679046631e-06 0.0003034183755517006 0.0 0.0 0.0 0.0
0.393 0.8411332964897156 -0.2919754087924957 0.00014963839203119278 0.0002444302663207054 0.0 0.0 0.0 0.0
0.394 0.831005334854126 -0.3208555281162262 7.68899917602539e-06 0.00019874703139066696 0.0 0.0 0.0 0.0
0.395 0.8216301798820496 -0.3461255729198456 2.0384788513183594e-05 4.544947296380997e-05 0.0 0.0 0.0 0.0
0.396 0.8128194808959961 -0.37589067220687866 0.00013367552310228348 0.00021747220307588577 0.0 0.0 0.0 0.0
0.397 0.7978346943855286 -0.39939042925834656 0.00013801921159029007 0.00014849472790956497 0.0 0.0 0.0 0.0
0.398 0.7883966565132141 -0.42861732840538025 0.00014609098434448242 0.00013285689055919647 0.0 0.0 0.0 0.0
0.399 0.7741008996963501 -0.4535789489746094 0.0002106325700879097 -8.419528603553772e-05 0.0 0.0 0.0 0.0
0.4 0.7609809637069702 -0.4819170832633972 0.00022209249436855316 -1.3329088687896729e-05 0.0 0.0 0.0 0.0
0.401 0.743448793888092 -0.5047444105148315 5.9975311160087585e-05 4.114024341106415e-05 0.0 0.0 0.0 0.0
0.402 0.7317193150520325 -0.5294516086578369 0.0001582494005560875 9.269639849662781e-05 0.0 0.0 0.0 0.0
0.403 0.713629424571991 -0.5534504652023315 0.00016223732382059097 -0.00014333892613649368 0.0 0.0 0.0 0.0
0.404 0.6980795860290527 -0.5764341950416565 -1.712888479232788e-05 -5.8057717978954315e-05 0.0 0.0 0.0 0.0
0.405 0.6791493892669678 -0.5997353792190552 0.00020031165331602097 1.6670674085617065e-07 0.0 0.0 0.0 0.0
0.406 0.6619090437889099 -0.6206834316253662 5.452055484056473e-05 -0.0001870039850473404 0.0 0.0 0.0 0.0
0.407 0.6423984169960022 -0.6408947110176086 1.1008232831954956e-05 1.7154961824417114e-06 0.0 0.0 0.0 0.0
0.408 0.6218912601470947 -0.6631902456283569 3.8712285459041595e-05 -9.124539792537689e-05 0.0 0.0 0.0 0.0
0.409 0.6014359593391418 -0.684272289276123 -0.00020320340991020203 -0.00014522206038236618 0.0 0.0 0.0 0.0
0.41 0.5859788656234741 -0.702638566493988 -0.00018497370183467865 -0.00022014416754245758 0.0 0.0 0.0 0.0
0.411 0.5626440644264221 -0.7229599356651306 -0.00010705646127462387 -0.0002767173573374748 0.0 0.0 0.0 0.0
0.412 0.5437776446342468 -0.7398943901062012 -0.00017280969768762589 -5.5528245866298676e-05 0.0 0.0 0.0 0.0
0.413 0.5186276435852051 -0.7621254920959473 -0.0002479124814271927 -0.0002641873434185982 0.0 0.0 0.0 0.0
0.414 0.4952296316623688 -0.7753537893295288 -0.0002251453697681427 -0.00013347435742616653 0.0 0.0 0.0 0.0
0.415 0.4719626009464264 -0.7933846116065979 -0.00043258070945739746 -0.00033873505890369415 0.0 0.0 0.0 0.0
0.416 0.4507637917995453 -0.8089190125465393 -0.00046133436262607574 -7.585063576698303e-05 0.0 0.0 0.0 0.0
0.417 0.42617812752723694 -0.8249978423118591 -0.0003629447892308235 -0.00022550299763679504 0.0 0.0 0.0 0.0
0.418 0.4048651158809662 -0.839023232460022 -0.00043156836181879044 -3.1781382858753204e-05 0.0 0.0 0.0 0.0
0.419 0.37786030769348145 -0.8553404211997986 -0.00046948064118623734 -0.0001026960089802742 0.0 0.0 0.0 0.0
0.42 0.3514813184738159 -0.8689509630203247 -0.0003573419526219368 -0.00023483484983444214 0.0 0.0 0.0 0.0
0.421 0.3270307183265686 -0.8812560439109802 -0.00047498196363449097 -0.00018750689923763275 0.0 0.0 0.0 0.0
0.422 0.30006784200668335 -0.8918719291687012 -0.00047100428491830826 6.373506039381027e-05 0.0 0.0 0.0 0.0
0.423 0.2742725610733032 -0.9040316343307495 -0.0006078919395804405 -0.00011287536472082138 0.0 0.0 0.0 0.0
0.424 0.2428012192249298 -0.9141644835472107 -0.0008341986685991287 -1.4437362551689148e-05 0.0 0.0 0.0 0.0
0.425 0.22008764743804932 -0.9204757213592529 -0.0007010027766227722 0.00010758917778730392 0.0 0.0 0.0 0.0
0.426 0.19095318019390106 -0.9321856498718262 -0.0005152206867933273 0.0002865102142095566 0.0 0.0 0.0 0.0
0.427 0.1638737916946411 -0.9402543902397156 -0.0005431920289993286 0.00020397640764713287 0.0 0.0 0.0 0.0
0.428 0.13433173298835754 -0.9490835070610046 -0.0006857151165604591 0.00022089481353759766 0.0 0.0 0.0 0.0
0.429 0.105672188103199 -0.9545618891716003 -0.000697835348546505 0.0003514504060149193 0.0 0.0 0.0 0.0
0.43 0.07836488634347916 -0.9591097235679626 -0.0006923163309693336 0.0005041500553488731 0.0 0.0 0.0 0.0
0.431 0.043248746544122696 -0.9637115001678467 -0.0007384531199932098 0.0002722097560763359 0.0 0.0 0.0 0.0
0.432 0.014317790977656841 -0.96311354637146 -0.0007539577782154083 0.0005814908072352409 0.0 0.0 0.0 0.0
0.433 -0.013758661225438118 -0.9663130044937134 -0.0008412059396505356 0.0006354646757245064 0.0 0.0 0.0 0.0
0.434 -0.03941064327955246 -0.968180239200592 -0.000650256872177124 0.0007880367338657379 0.0 0.0 0.0 0.0
0.435 -0.06969688087701797 -0.9711102843284607 -0.000752289779484272 0.0007423935458064079 0.0 0.0 0.0 0.0
0.436 -0.0993599072098732 -0.9696280360221863 -0.0008071688935160637 0.0008001141250133514 0.0 0.0 0.0 0.0
0.437 -0.1340074986219406 -0.9678853750228882 -0.0009085731580853462 0.0007638987153768539 0.0 0.0 0.0 0.0
0.438 -0.16073687374591827 -0.9633742570877075 -0.000670003704726696 0.0008861823007464409 0.0 0.0 0.0 0.0
0.439 -0.19396895170211792 -0.9644811749458313 -0.0006125764921307564 0.0010725390166044235 0.0 0.0 0.0 0.0
0.44 -0.2237393707036972 -0.9603292942047119 -0.0005816519260406494 0.001149606890976429 0.0 0.0 0.0 0.0
0.441 -0.2524997293949127 -0.9537501335144043 -0.0006412379443645477 0.0010965745896100998 0.0 0.0 0.0 0.0
0.442 -0.2824796140193939 -0.9453397989273071 -0.0006306348368525505 0.0015512686222791672 0.0 0.0 0.0 0.0
0.443 -0.31088775396347046 -0.9387631416320801 -0.00044353213161230087 0.0016840826719999313 0.0 0.0 0.0 0.0
0.444 -0.34554770588874817 -0.9283013939857483 -0.0003989245742559433 0.0017006415873765945 0.0 0.0 0.0 0.0
0.445 -0.3710462749004364 -0.9222725629806519 -0.0005021272227168083 0.0018793251365423203 0.0 0.0 0.0 0.0
0.446 -0.4047697186470032 -0.9111420512199402 -0.0002198619768023491 0.0017674192786216736 0.0 0.0 0.0 0.0
0.447 -0.4290967881679535 -0.8985443115234375 -3.211759030818939e-05 0.0019744466990232468 0.0 0.0 0.0 0.0
0.448 -0.46079859137535095 -0.8899960517883301 0.00014850124716758728 0.0021523181349039078 0.0 0.0 0.0 0.0
0.449 -0.48612380027770996 -0.8708041906356812 0.00034476909786462784 0.002192188985645771 0.0 0.0 0.0 0.0
0.45 -0.5154739022254944 -0.8591652512550354 0.0005842782557010651 0.002209900878369808 0.0 0.0 0.0 0.0
0.451 -0.5397916436195374 -0.8413053750991821 0.0007389942184090614 0.0024362169206142426 0.0 0.0 0.0 0.0
0.452 -0.5672508478164673 -0.828046977519989 0.001033673994243145 0.0024545351043343544 0.0 0.0 0.0 0.0
0.453 -0.5938320159912109 -0.8097448348999023 0.0013783778995275497 0.0022557731717824936 0.0 0.0 0.0 0.0
0.454 -0.6175069212913513 -0.7931035757064819 0.0016560042276978493 0.0023219995200634003 0.0 0.0 0.0 0.0
0.455 -0.6492645740509033 -0.7716816067695618 0.0018308591097593307 0.0019719088450074196 0.0 0.0 0.0 0.0
0.456 -0.6668046116828918 -0.7523844838142395 0.00203760527074337 0.002080376259982586 0.0 0.0 0.0 0.0
0.457 -0.6955249309539795 -0.729925811290741 0.002163829281926155 0.0017267046496272087 0.0 0.0 0.0 0.0
0.458 -0.71358722448349 -0.7122134566307068 0.0026765353977680206 0.001595921814441681 0.0 0.0 0.0 0.0
0.459 -0.7390201091766357 -0.6868028044700623 0.002728424035012722 0.001234211027622223 0.0 0.0 0.0 0.0
0.46 -0.7610816359519958 -0.663693368434906 0.0028181346133351326 0.001119081862270832 0.0 0.0 0.0 0.0
0.461 -0.7840855121612549 -0.639318585395813 0.0029523586854338646 0.0009057037532329559 0.0 0.0 0.0 0.0
0.462 -0.8047910928726196 -0.6199488639831543 0.003251376561820507 0.0003735274076461792 0.0 0.0 0.0 0.0
0.463 -0.8260674476623535 -0.5925537347793579 0.0029395073652267456 0.00011235661804676056 0.0 0.0 0.0 0.0
0.464 -0.8448662161827087 -0.5686522722244263 0.0031186556443572044 -2.3429282009601593e-05 0.0 0.0 0.0 0.0
0.465 -0.8668221235275269 -0.5386826395988464 0.002890464849770069 -0.0004587210714817047 0.0 0.0 0.0 0.0
0.466 -0.8824557065963745 -0.5076406002044678 0.002804807387292385 -0.00030657555907964706 0.0 0.0 0.0 0.0
0.467 -0.8997557759284973 -0.48355424404144287 0.002952374517917633 -0.0006088279187679291 0.0 0.0 0.0 0.0
0.468 -0.9168376326560974 -0.4535762369632721 0.0030339304357767105 -0.0009967535734176636 0.0 0.0 0.0 0.0
0.469 -0.9326496720314026 -0.4257194697856903 0.0030769603326916695 -0.0012841960415244102 0.0 0.0 0.0 0.0
0.47 -0.9448146224021912 -0.3888351619243622 0.002780001610517502 -0.0012086378410458565 0.0 0.0 0.0 0.0
0.471 -0.9588726162910461 -0.3600369989871979 0.002568284049630165 -0.0016712797805666924 0.0 0.0 0.0 0.0
0.472 -0.9687659740447998 -0.32598406076431274 0.0027295267209410667 -0.0016753887757658958 0.0 0.0 0.0 0.0
0.473 -0.9801281094551086 -0.2905672490596771 0.0023302845656871796 -0.0019514961168169975 0.0 0.0 0.0 0.0
0.474 -0.9942905306816101 -0.2581126391887665 0.002303486689925194 -0.0023493850603699684 0.0 0.0 0.0 0.0
0.475 -0.999211311340332 -0.22091323137283325 0.0019253473728895187 -0.002380950376391411 0.0 0.0 0.0 0.0
0.476 -1.0081686973571777 -0.1902374029159546 0.0019252588972449303 -0.0024027153849601746 0.0 0.0 0.0 0.0
0.477 -1.0091171264648438 -0.15284377336502075 0.00170163344591856 -0.0023773638531565666 0.0 0.0 0.0 0.0
0.478 -1.0161471366882324 -0.11932957172393799 0.0015474027022719383 -0.0026221927255392075 0.0 0.0 0.0 0.0
0.479 -1.0190014839172363 -0.07534664869308472 0.001338491216301918 -0.0027494244277477264 0.0 0.0 0.0 0.0
0.48 -1.018625020980835 -0.047986000776290894 0.0011294065043330193 -0.0027866242453455925 0.0 0.0 0.0 0.0
0.481 -1.0224422216415405 -0.0077574048191308975 0.0009482130408287048 -0.002855987288057804 0.0 0.0 0.0 0.0
0.482 -1.0181562900543213 0.029720446094870567 0.0006959559395909309 -0.0028295153751969337 0.0 0.0 0.0 0.0
0.483 -1.0138033628463745 0.06914202868938446 0.00036296527832746506 -0.0029080556705594063 0.0 0.0 0.0 0.0
0.484 -1.006166934967041 0.10405217111110687 0.00046880822628736496 -0.0030064722523093224 0.0 0.0 0.0 0.0
0.485 -1.001198649406433 0.14136624336242676 0.0002459101378917694 -0.0027298489585518837 0.0 0.0 0.0 0.0
0.486 -0.9935268759727478 0.18099206686019897 0.0001255292445421219 -0.003076351247727871 0.0 0.0 0.0 0.0
0.487 -0.9846407175064087 0.2134505659341812 -0.00020140688866376877 -0.0028205756098031998 0.0 0.0 0.0 0.0
0.488 -0.970178484916687 0.25110092759132385 -0.0001840628683567047 -0.0027567194774746895 0.0 0.0 0.0 0.0
0.489 -0.9585522413253784 0.2871224284172058 -0.0005385149270296097 -0.0030843615531921387 0.0 0.0 0.0 0.0
0.49 -0.9400579929351807 0.3260941207408905 -0.0007522273808717728 -0.0028516678139567375 0.0 0.0 0.0 0.0
0.491 -0.9241895079612732 0.3575919568538666 -0.0006877193227410316 -0.002668457105755806 0.0 0.0 0.0 0.0
0.492 -0.9045009613037109 0.39597392082214355 -0.000960957258939743 -0.0028630364686250687 0.0 0.0 0.0 0.0
0.493 -0.884504497051239 0.424709677696228 -0.0010214811190962791 -0.0025413474068045616 0.0 0.0 0.0 0.0
0.494 -0.8643798232078552 0.455619215965271 -0.0009742900729179382 -0.0026490874588489532 0.0 0.0 0.0 0.0
0.495 -0.837216854095459 0.485536128282547 -0.001447552815079689 -0.002546863630414009 0.0 0.0 0.0 0.0
0.496 -0.8130552172660828 0.5157655477523804 -0.001262720674276352 -0.00239638052880764 0.0 0.0 0.0 0.0
0.497 -0.7840867042541504 0.5423477292060852 -0.0015877671539783478 -0.0023735174909234047 0.0 0.0 0.0 0.0
0.498 -0.7576648592948914 0.5719171166419983 -0.0017731785774230957 -0.00232124887406826 0.0 0.0 0.0 0.0
0.499 -0.727130115032196 0.5975411534309387 -0.0017124954611063004 -0.002385856583714485 0.0 0.0 0.0 0.0
0.5 -0.6995442509651184 0.6169314384460449 -0.0017733890563249588 -0.0022782254964113235 0.0 0.0 0.0 0.0
0.501 -0.6632779836654663 0.6408912539482117 -0.0021281084045767784 -0.00219756830483675 0.0 0.0 0.0 0.0
0.502 -0.6333504915237427 0.6541662216186523 -0.0020315786823630333 -0.0021396158263087273 0.0 0.0 0.0 0.0
0.503 -0.5990159511566162 0.675118625164032 -0.002336454577744007 -0.002032872289419174 0.0 0.0 0.0 0.0
0.504 -0.5612595081329346 0.6879202127456665 -0.0024648746475577354 -0.0018619569018483162 0.0 0.0 0.0 0.0
0.505 -0.5284708738327026 0.7008751630783081 -0.002679702825844288 -0.001957598142325878 0.0 0.0 0.0 0.0
0.506 -0.4942858815193176 0.7096878886222839 -0.0028691254556179047 -0.0016401559114456177 0.0 0.0 0.0 0.0
0.507 -0.4586958587169647 0.7198161482810974 -0.003038334660232067 -0.0013812091201543808 0.0 0.0 0.0 0.0
0.508 -0.4228786528110504 0.7247373461723328 -0.003173457458615303 -0.0013141632080078125 0.0 0.0 0.0 0.0
0.509 -0.38738396763801575 0.7289838790893555 -0.0032841134816408157 -0.0013188226148486137 0.0 0.0 0.0 0.0
0.51 -0.34925180673599243 0.7266185879707336 -0.003500727005302906 -0.0010547852143645287 0.0 0.0 0.0 0.0
0.511 -0.31601980328559875 0.7212134599685669 -0.0035441750660538673 -0.0006928881630301476 0.0 0.0 0.0 0.0
0.512 -0.286211758852005 0.7118290066719055 -0.0038375351577997208 -0.0005526207387447357 0.0 0.0 0.0 0.0
0.513 -0.25832128524780273 0.7026371359825134 -0.004014813341200352 -0.00022207573056221008 0.0 0.0 0.0 0.0
0.514 -0.2312116175889969 0.6903665065765381 -0.004095003940165043 6.804242730140686e-06 0.0 0.0 0.0 0.0
0.515 -0.21192198991775513 0.6764591336250305 -0.00432676263153553 0.0004090080037713051 0.0 0.0 0.0 0.0
0.516 -0.1927240788936615 0.6611276865005493 -0.004508286714553833 0.0009201746433973312 0.0 0.0 0.0 0.0
0.517 -0.18592560291290283 0.6471245288848877 -0.00423632375895977 0.0014400528743863106 0.0 0.0 0.0 0.0
0.518 -0.17564433813095093 0.6384291648864746 -0.004073327407240868 0.0018999502062797546 0.0 0.0 0.0 0.0
0.519 -0.1655786782503128 0.6297740936279297 -0.003987511619925499 0.00242006778717041 0.0 0.0 0.0 0.0
0.52 -0.1596142202615738 0.6204531192779541 -0.0034222500398755074 0.002894439734518528 0.0 0.0 0.0 0.0
0.521 -0.16067209839820862 0.6117666363716125 -0.003013591282069683 0.00347092654556036 0.0 0.0 0.0 0.0
0.522 -0.16287961602210999 0.6134503483772278 -0.002738495357334614 0.003948785364627838 0.0 0.0 0.0 0.0
0.523 -0.16812098026275635 0.6167095303535461 -0.0018543973565101624 0.004200780764222145 0.0 0.0 0.0 0.0
0.524 -0.1731882393360138 0.632594108581543 -0.0013741953298449516 0.004107198677957058 0.0 0.0 0.0 0.0
0.525 -0.16975823044776917 0.6504409313201904 -0.0008910689502954483 0.004006586968898773 0.0 0.0 0.0 0.0
0.526 -0.1585342139005661 0.6730119585990906 -0.0003696102648973465 0.003997759893536568 0.0 0.0 0.0 0.0
0.527 -0.1414412558078766 0.6926289200782776 7.332023233175278e-05 0.003815997391939163 0.0 0.0 0.0 0.0
0.528 -0.1258973330259323 0.7106214165687561 0.0006345249712467194 0.003554224967956543 0.0 0.0 0.0 0.0
0.529 -0.1038934588432312 0.729735255241394 0.0007476387545466423 0.0030437810346484184 0.0 0.0 0.0 0.0
0.53 -0.08053609728813171 0.7450183033943176 0.0010718973353505135 0.002961099147796631 0.0 0.0 0.0 0.0
0.531 -0.05198916047811508 0.7612211108207703 0.0010628290474414825 0.002759430557489395 0.0 0.0 0.0 0.0
0.532 -0.023682493716478348 0.7742835283279419 0.001370500773191452 0.0023941388353705406 0.0 0.0 0.0 0.0
0.533 0.009763846173882484 0.784389853477478 0.0017437227070331573 0.0021432973444461823 0.0 0.0 0.0 0.0
0.534 0.04216844215989113 0.7906702756881714 0.0015211636200547218 0.001764596439898014 0.0 0.0 0.0 0.0
0.535 0.07482690364122391 0.7983664274215698 0.0015624957159161568 0.0014348290860652924 0.0 0.0 0.0 0.0
0.536 0.11245445907115936 0.8011723160743713 0.0014898581430315971 0.0012976983562111855 0.0 0.0 0.0 0.0
0.537 0.14498630166053772 0.8012205958366394 0.001546013168990612 0.0011663353070616722 0.0 0.0 0.0 0.0
0.538 0.18452498316764832 0.7989212870597839 0.0013790726661682129 0.0007566642016172409 0.0 0.0 0.0 0.0
0.539 0.2179545909166336 0.7929653525352478 0.0015149284154176712 0.0008113505318760872 0.0 0.0 0.0 0.0
0.54 0.25458261370658875 0.7855783104896545 0.001159357838332653 0.0006116395816206932 0.0 0.0 0.0 0.0
0.541 0.28696751594543457 0.7751508951187134 0.0012146057561039925 0.00035727210342884064 0.0 0.0 0.0 0.0
0.542 0.3213924169540405 0.7640286087989807 0.0011660847812891006 0.0005548326298594475 0.0 0.0 0.0 0.0
0.543 0.3497067987918854 0.7499495148658752 0.0010117143392562866 0.0004504043608903885 0.0 0.0 0.0 0.0
0.544 0.38197842240333557 0.7364845871925354 0.001227211207151413 0.00016862712800502777 0.0 0.0 0.0 0.0
0.545 0.40991881489753723 0.7214516997337341 0.0011286400258541107 0.00028752628713846207 0.0 0.0 0.0 0.0
0.546 0.4417779743671417 0.704608678817749 0.0010969210416078568 8.165836334228516e-05 0.0 0.0 0.0 0.0
0.547 0.46718862652778625 0.6865457892417908 0.000949871726334095 3.902893513441086e-05 0.0 0.0 0.0 0.0
0.548 0.49478304386138916 0.6679835915565491 0.0009688101708889008 3.4729018807411194e-05 0.0 0.0 0.0 0.0
0.549 0.521409809589386 0.6470445394515991 0.0006820308044552803 -9.332876652479172e-05 0.0 0.0 0.0 0.0
0.55 0.5444404482841492 0.628583550453186 0.0007043937221169472 -0.00025286711752414703 0.0 0.0 0.0 0.0
0.551 0.5686901211738586 0.6074092388153076 0.0007430417463183403 -0.00024443306028842926 0.0 0.0 0.0 0.0
0.552 0.590843141078949 0.5846001505851746 0.0006911847740411758 -8.836574852466583e-05 0.0 0.0 0.0 0.0
0.553 0.6133597493171692 0.5591867566108704 0.0004446404054760933 -0.00018062815070152283 0.0 0.0 0.0 0.0
0.554 0.6313661336898804 0.537909984588623 0.0004901941865682602 -9.970087558031082e-05 0.0 0.0 0.0 0.0
0.555 0.6510194540023804 0.5122073292732239 0.0003533884882926941 -0.00013090483844280243 0.0 0.0 0.0 0.0
0.556 0.668286919593811 0.48965632915496826 0.00027522724121809006 -0.00012952741235494614 0.0 0.0 0.0 0.0
0.557 0.68795245885849 0.46673864126205444 0.00028426479548215866 -0.0003014281392097473 0.0 0.0 0.0 0.0
0.558 0.7045773267745972 0.4423590898513794 0.00029567815363407135 -0.00014676526188850403 0.0 0.0 0.0 0.0
0.559 0.7208154797554016 0.41602420806884766 7.441360503435135e-05 -0.00018240511417388916 0.0 0.0 0.0 0.0
0.56 0.7346758842468262 0.3892202079296112 0.0002757636830210686 -0.00015091150999069214 0.0 0.0 0.0 0.0
0.561 0.7493813633918762 0.36470526456832886 0.00016680918633937836 -6.907247006893158e-05 0.0 0.0 0.0 0.0
0.562 0.7628397345542908 0.3362494111061096 0.00026195403188467026 -6.428547203540802e-05 0.0 0.0 0.0 0.0
0.563 0.7744712233543396 0.31126338243484497 6.270688027143478e-05 -2.2588297724723816e-05 0.0 0.0 0.0 0.0
0.564 0.7854688763618469 0.28173595666885376 0.0001887548714876175 4.521571099758148e-06 0.0 0.0 0.0 0.0
0.565 0.7943059206008911 0.2607163190841675 0.00018763821572065353 -0.00016933027654886246 0.0 0.0 0.0 0.0
0.566 0.807205319404602 0.23221519589424133 3.747548907995224e-05 -2.4884939193725586e-05 0.0 0.0 0.0 0.0
0.567 0.8147889375686646 0.20382660627365112 0.0001659635454416275 -1.796148717403412e-05 0.0 0.0 0.0 0.0
0.568 0.8228138089179993 0.17676645517349243 -6.20521605014801e-05 -0.00016188807785511017 0.0 0.0 0.0 0.0
0.569 0.8296734094619751 0.1495688408613205 -7.651746273040771e-06 -4.589557647705078e-06 0.0 0.0 0.0 0.0
0.57 0.8381947875022888 0.11899404972791672 8.0157071352005e-05 5.1536597311496735e-05 0.0 0.0 0.0 0.0
0.571 0.8420630693435669 0.08840427547693253 2.721976488828659e-05 -9.440723806619644e-05 0.0 0.0 0.0 0.0
0.572 0.8467244505882263 0.06336179375648499 -7.831025868654251e-05 -0.0003088507801294327 0.0 0.0 0.0 0.0
0.573 0.8493632674217224 0.030637767165899277 -4.147831350564957e-05 -0.00012478046119213104 0.0 0.0 0.0 0.0
0.574 0.853139340877533 0.004452075809240341 8.004717528820038e-06 -0.0002905372530221939 0.0 0.0 0.0 0.0
0.575 0.8530270457267761 -0.026417670771479607 -0.00020674802362918854 -0.00027142465114593506 0.0 0.0 0.0 0.0
0.576 0.8541260361671448 -0.04831958934664726 0.00012361444532871246 -5.48800453543663e-05 0.0 0.0 0.0 0.0
0.577 0.8528197407722473 -0.08219901472330093 -0.00028738100081682205 -1.8347054719924927e-05 0.0 0.0 0.0 0.0
0.578 0.853503406047821 -0.10651444643735886 -8.57282429933548e-06 -2.3434869945049286e-05 0.0 0.0 0.0 0.0
0.579 0.8545639514923096 -0.13855384290218353 0.0001238752156496048 7.734820246696472e-05 0.0 0.0 0.0 0.0
0.58 0.8485612869262695 -0.1638275533914566 -0.00018283631652593613 -4.322174936532974e-05 0.0 0.0 0.0 0.0
0.581 0.8480663895606995 -0.1938033401966095 -0.0003083152696490288 0.00011584162712097168 0.0 0.0 0.0 0.0
0.582 0.8396024703979492 -0.22506161034107208 -0.00022204499691724777 8.97357240319252e-05 0.0 0.0 0.0 0.0
0.583 0.8352126479148865 -0.2510108947753906 -3.0464492738246918e-05 -6.423052400350571e-05 0.0 0.0 0.0 0.0
0.584 0.8285358548164368 -0.2777990698814392 -0.00018351059406995773 8.511357009410858e-05 0.0 0.0 0.0 0.0
0.585 0.8208898305892944 -0.30636540055274963 -0.00012485403567552567 4.0310434997081757e-05 0.0 0.0 0.0 0.0
0.586 0.8096969127655029 -0.3335212469100952 -0.0003412589430809021 -1.4211982488632202e-06 0.0 0.0 0.0 0.0
0.587 0.803746223449707 -0.35695376992225647 -0.0001838933676481247 0.0001101205125451088 0.0 0.0 0.0 0.0
0.588 0.7920423746109009 -0.38952499628067017 -0.00017265323549509048 0.00010208040475845337 0.0 0.0 0.0 0.0
0.589 0.7814953327178955 -0.409385085105896 -0.00045072752982378006 0.00017037056386470795 0.0 0.0 0.0 0.0
0.59 0.7710394859313965 -0.43965843319892883 -0.000334213487803936 0.00013027433305978775 0.0 0.0 0.0 0.0
0.591 0.7583755254745483 -0.4607335329055786 -0.00023330654948949814 0.000217401422560215 0.0 0.0 0.0 0.0
0.592 0.7487820982933044 -0.4863623082637787 -0.00025458354502916336 0.00028804969042539597 0.0 0.0 0.0 0.0
0.593 0.7333164215087891 -0.5102941989898682 -0.00036257412284612656 0.00028302520513534546 0.0 0.0 0.0 0.0
0.594 0.7220956087112427 -0.5366981029510498 -0.00020517874509096146 0.00045589637011289597 0.0 0.0 0.0 0.0
0.595 0.7030810117721558 -0.5587524175643921 -0.0004221918061375618 0.00023075565695762634 0.0 0.0 0.0 0.0
0.596 0.6899082660675049 -0.580811083316803 -0.000371408648788929 0.00026596151292324066 0.0 0.0 0.0 0.0
0.597 0.6746894121170044 -0.6043071746826172 -0.0001833457499742508 0.00044495612382888794 0.0 0.0 0.0 0.0
0.598 0.6575165390968323 -0.6255668997764587 -0.0004508551210165024 0.00041694100946187973 0.0 0.0 0.0 0.0
0.599 0.6392824649810791 -0.64641934633255 -0.0003222813829779625 0.0005264300853013992 0.0 0.0 0.0 0.0
0.6 0.6219209432601929 -0.6665913462638855 -0.00013183802366256714 0.00047771725803613663 0.0 0.0 0.0 0.0
0.601 0.6011945605278015 -0.689732551574707 -0.0003012055531144142 0.0005941847339272499 0.0 0.0 0.0 0.0
0.602 0.5867270827293396 -0.7078890800476074 -9.093526750802994e-05 0.0006146486848592758 0.0 0.0 0.0 0.0
0.603 0.5607829093933105 -0.7323147654533386 -0.00030723121017217636 0.0004944400861859322 0.0 0.0 0.0 0.0
0.604 0.5479363203048706 -0.7466893196105957 -0.00012931320816278458 0.0005520442500710487 0.0 0.0 0.0 0.0
0.605 0.5203351378440857 -0.7713031768798828 -0.00018360652029514313 0.0005462821573019028 0.0 0.0 0.0 0.0
0.606 0.5023186206817627 -0.7828116416931152 -0.0001321779564023018 0.0006422996520996094 0.0 0.0 0.0 0.0
0.607 0.48226213455200195 -0.8031284809112549 -0.00011461786925792694 0.0007931636646389961 0.0 0.0 0.0 0.0
0.608 0.4577503800392151 -0.8165792226791382 -0.00016340520232915878 0.0007519489154219627 0.0 0.0 0.0 0.0
0.609 0.4341069161891937 -0.8361062407493591 -0.00015793181955814362 0.000844649039208889 0.0 0.0 0.0 0.0
0.61 0.40586191415786743 -0.8493874669075012 -5.7470984756946564e-05 0.0006689606234431267 0.0 0.0 0.0 0.0
0.611 0.38292163610458374 -0.8676995038986206 5.099643021821976e-05 0.0008231457322835922 0.0 0.0 0.0 0.0
0.612 0.3606265187263489 -0.8784840703010559 8.282717317342758e-05 0.0008980017155408859 0.0 0.0 0.0 0.0
0.613 0.3340616226196289 -0.8941959142684937 -6.47837296128273e-05 0.0008023353293538094 0.0 0.0 0.0 0.0
0.614 0.30842941999435425 -0.9065739512443542 0.00025472044944763184 0.0009483564645051956 0.0 0.0 0.0 0.0
0.615 0.2799435257911682 -0.9174697399139404 0.00025357771664857864 0.000891050323843956 0.0 0.0 0.0 0.0
0.616 0.25606444478034973 -0.9293044805526733 0.0002585342153906822 0.0010030334815382957 0.0 0.0 0.0 0.0
0.617 0.22534550726413727 -0.9380508661270142 0.00020419806241989136 0.0008094673976302147 0.0 0.0 0.0 0.0
0.618 0.19436946511268616 -0.9523516297340393 0.0004053385928273201 0.0007129600271582603 0.0 0.0 0.0 0.0
0.619 0.1714518666267395 -0.9570142030715942 0.00031300168484449387 0.0007874639704823494 0.0 0.0 0.0 0.0
0.62 0.1406007558107376 -0.962968111038208 0.00028720684349536896 0.0009674066677689552 0.0 0.0 0.0 0.0
0.621 0.11163920164108276 -0.9660563468933105 0.0004565827548503876 0.0009602978825569153 0.0 0.0 0.0 0.0
0.622 0.08472024649381638 -0.9746330976486206 0.0004687393084168434 0.0011417288333177567 0.0 0.0 0.0 0.0
0.623 0.05248893052339554 -0.9807488322257996 0.0006803059950470924 0.0009540021419525146 0.0 0.0 0.0 0.0
0.624 0.030028143897652626 -0.9789777994155884 0.0004737135022878647 0.0012710019946098328 0.0 0.0 0.0 0.0
0.625 -0.0042859213426709175 -0.9859743118286133 0.0006345771253108978 0.0010601328685879707 0.0 0.0 0.0 0.0
0.626 -0.03173802047967911 -0.9843020439147949 0.0006933752447366714 0.001247163861989975 0.0 0.0 0.0 0.0
0.627 -0.06485442072153091 -0.9882247447967529 0.000821458175778389 0.0010622721165418625 0.0 0.0 0.0 0.0
0.628 -0.08929238468408585 -0.9840269684791565 0.000860271044075489 0.0012296177446842194 0.0 0.0 0.0 0.0
0.629 -0.12351339310407639 -0.9891923069953918 0.0009517055004835129 0.0010612476617097855 0.0 0.0 0.0 0.0
0.63 -0.15079882740974426 -0.981921374797821 0.0008702045306563377 0.000991874374449253 0.0 0.0 0.0 0.0
0.631 -0.17992091178894043 -0.9830225706100464 0.001015552319586277 0.001287028193473816 0.0 0.0 0.0 0.0
0.632 -0.2130320966243744 -0.9799326658248901 0.001033552922308445 0.0010291188955307007 0.0 0.0 0.0 0.0
0.633 -0.24588504433631897 -0.9765191078186035 0.0015462255105376244 0.0009117433801293373 0.0 0.0 0.0 0.0
0.634 -0.2690097391605377 -0.9703008532524109 0.0014493027701973915 0.001101960428059101 0.0 0.0 0.0 0.0
0.635 -0.3033481538295746 -0.9639220237731934 0.0014331471174955368 0.000971146859228611 0.0 0.0 0.0 0.0
0.636 -0.33168700337409973 -0.9531958103179932 0.001577615737915039 0.0008727759122848511 0.0 0.0 0.0 0.0
0.637 -0.3660825192928314 -0.9469497203826904 0.001677459105849266 0.0006375601515173912 0.0 0.0 0.0 0.0
0.638 -0.3934934735298157 -0.9360761046409607 0.0018419455736875534 0.0008094003424048424 0.0 0.0 0.0 0.0
0.639 -0.42299941182136536 -0.9260604977607727 0.0018148142844438553 0.0004854053258895874 0.0 0.0 0.0 0.0
0.64 -0.4585089087486267 -0.9135929942131042 0.0017985058948397636 0.0005039628595113754 0.0 0.0 0.0 0.0
0.641 -0.4800521731376648 -0.9000238180160522 0.001949954777956009 0.0003691297024488449 0.0 0.0 0.0 0.0
0.642 -0.5154405236244202 -0.8857707381248474 0.002007894217967987 0.00022335443645715714 0.0 0.0 0.0 0.0
0.643 -0.5378847122192383 -0.8712184429168701 0.0020651547238230705 0.00035681016743183136 0.0 0.0 0.0 0.0
0.644 -0.5656033158302307 -0.8512905836105347 0.0020679980516433716 0.00026725325733423233 0.0 0.0 0.0 0.0
0.645 -0.5972265005111694 -0.8319064378738403 0.0020844871178269386 0.0001573227345943451 0.0 0.0 0.0 0.0
0.646 -0.6237875819206238 -0.8183606266975403 0.0023253848776221275 9.841285645961761e-06 0.0 0.0 0.0 0.0
0.647 -0.6463484168052673 -0.7938252687454224 0.002122894860804081 -9.768828749656677e-05 0.0 0.0 0.0 0.0
0.648 -0.678274929523468 -0.7748032212257385 0.0021374449133872986 -0.0001961737871170044 0.0 0.0 0.0 0.0
0.649 -0.6991254091262817 -0.7542393803596497 0.0022401129826903343 -0.00025227200239896774 0.0 0.0 0.0 0.0
0.65 -0.7236679196357727 -0.7284787893295288 0.0022088252007961273 -0.00035509560257196426 0.0 0.0 0.0 0.0
0.651 -0.7467514872550964 -0.7047742009162903 0.0024526380002498627 -0.00045348331332206726 0.0 0.0 0.0 0.0
0.652 -0.769379734992981 -0.68122398853302 0.002466103993356228 -0.0004361756145954132 0.0 0.0 0.0 0.0
0.653 -0.793099582195282 -0.6563732624053955 0.0025604981929063797 -0.0008213268592953682 0.0 0.0 0.0 0.0
0.654 -0.8120191097259521 -0.6331913471221924 0.002589168958365917 -0.0011974815279245377 0.0 0.0 0.0 0.0
0.655 -0.8349440693855286 -0.5977836847305298 0.0022600730881094933 -0.000970989465713501 0.0 0.0 0.0 0.0
0.656 -0.8576611876487732 -0.567535936832428 0.002282007597386837 -0.0012660408392548561 0.0 0.0 0.0 0.0
0.657 -0.8720546364784241 -0.5447869896888733 0.0023714015260338783 -0.001359403133392334 0.0 0.0 0.0 0.0
0.658 -0.889375627040863 -0.5139208436012268 0.0024562813341617584 -0.0014193961396813393 0.0 0.0 0.0 0.0
0.659 -0.9085661768913269 -0.48081040382385254 0.002167964354157448 -0.001968388445675373 0.0 0.0 0.0 0.0
0.66 -0.9223275184631348 -0.45085033774375916 0.002195470966398716 -0.0019280146807432175 0.0 0.0 0.0 0.0
0.661 -0.9351871013641357 -0.41655972599983215 0.0020744530484080315 -0.0018080463632941246 0.0 0.0 0.0 0.0
0.662 -0.949122965335846 -0.38412976264953613 0.002106413245201111 -0.0020329738035798073 0.0 0.0 0.0 0.0
0.663 -0.9609556794166565 -0.352191686630249 0.002159631811082363 -0.0025432100519537926 0.0 0.0 0.0 0.0
0.664 -0.9714429974555969 -0.31298407912254333 0.001916845329105854 -0.002249523065984249 0.0 0.0 0.0 0.0
0.665 -0.981326699256897 -0.279763400554657 0.001743587665259838 -0.0025278525426983833 0.0 0.0 0.0 0.0
0.666 -0.9872473478317261 -0.24085170030593872 0.001924579031765461 -0.0028537577018141747 0.0 0.0 0.0 0.0
0.667 -0.9904260039329529 -0.21127676963806152 0.0018544066697359085 -0.0028872303664684296 0.0 0.0 0.0 0.0
0.668 -0.9972301721572876 -0.1697630137205124 0.001522362232208252 -0.003016809932887554 0.0 0.0 0.0 0.0
0.669 -0.9978443384170532 -0.13499146699905396 0.0016831215471029282 -0.0032325051724910736 0.0 0.0 0.0 0.0
0.67 -1.00030517578125 -0.09623290598392487 0.001259462907910347 -0.0031419191509485245 0.0 0.0 0.0 0.0
0.671 -0.9964821338653564 -0.062138110399246216 0.0011503668501973152 -0.0032482845708727837 0.0 0.0 0.0 0.0
0.672 -0.9962859153747559 -0.028443587943911552 0.0008320137858390808 -0.003563922829926014 0.0 0.0 0.0 0.0
0.673 -0.9957090020179749 0.01232138555496931 0.0010717660188674927 -0.0039537567645311356 0.0 0.0 0.0 0.0
0.674 -0.9921053051948547 0.04452744498848915 0.0009358394891023636 -0.004069650545716286 0.0 0.0 0.0 0.0
0.675 -0.9865840077400208 0.08361241221427917 0.0006216121837496758 -0.004184674471616745 0.0 0.0 0.0 0.0
0.676 -0.9743042588233948 0.11805228888988495 0.0005110381171107292 -0.0040055084973573685 0.0 0.0 0.0 0.0
0.677 -0.9688944220542908 0.15934115648269653 0.0001568719744682312 -0.004373238421976566 0.0 0.0 0.0 0.0
0.678 -0.9579838514328003 0.18959425389766693 -7.458589971065521e-05 -0.004535670392215252 0.0 0.0 0.0 0.0
0.679 -0.9450941681861877 0.2236042022705078 -0.00011197850108146667 -0.004478273913264275 0.0 0.0 0.0 0.0
0.68 -0.9325034618377686 0.2608721852302551 -0.0005862070247530937 -0.004795270040631294 0.0 0.0 0.0 0.0
0.681 -0.9160783290863037 0.29776591062545776 -0.0009333835914731026 -0.004598342813551426 0.0 0.0 0.0 0.0
0.682 -0.899442195892334 0.33210551738739014 -0.0012588026002049446 -0.004735504277050495 0.0 0.0 0.0 0.0
0.683 -0.8832053542137146 0.3634363114833832 -0.0015195570886135101 -0.004785321652889252 0.0 0.0 0.0 0.0
0.684 -0.8608640432357788 0.3952330946922302 -0.0018596602603793144 -0.004839482717216015 0.0 0.0 0.0 0.0
0.685 -0.8393948674201965 0.43148207664489746 -0.002264905720949173 -0.0047875018790364265 0.0 0.0 0.0 0.0
0.686 -0.8196069002151489 0.45817968249320984 -0.002604522742331028 -0.005120721645653248 0.0 0.0 0.0 0.0
0.687 -0.7934364080429077 0.4871448278427124 -0.0027174847200512886 -0.004885464906692505 0.0 0.0 0.0 0.0
0.688 -0.7643258571624756 0.5200327634811401 -0.003299645148217678 -0.004844455048441887 0.0 0.0 0.0 0.0
0.689 -0.7406301498413086 0.5457896590232849 -0.0037421658635139465 -0.004715208895504475 0.0 0.0 0.0 0.0
0.69 -0.7083876729011536 0.5755816698074341 -0.004230157472193241 -0.004660139791667461 0.0 0.0 0.0 0.0
0.691 -0.6817760467529297 0.5976995825767517 -0.004598971456289291 -0.004422774538397789 0.0 0.0 0.0 0.0
0.692 -0.646057665348053 0.6213139891624451 -0.005154619924724102 -0.0040204282850027084 0.0 0.0 0.0 0.0
0.693 -0.6166163682937622 0.6376954317092896 -0.00543441716581583 -0.0038786549121141434 0.0 0.0 0.0 0.0
0.694 -0.5804961919784546 0.6592704653739929 -0.005867523141205311 -0.0035811448469758034 0.0 0.0 0.0 0.0
0.695 -0.5476361513137817 0.675502359867096 -0.006190067157149315 -0.0032351454719901085 0.0 0.0 0.0 0.0
0.696 -0.5099709033966064 0.6933615803718567 -0.006770174950361252 -0.0029117977246642113 0.0 0.0 0.0 0.0
0.697 -0.4749494194984436 0.7055991888046265 -0.007084322161972523 -0.002352946437895298 0.0 0.0 0.0 0.0
0.698 -0.43339458107948303 0.7207694053649902 -0.007697184570133686 -0.0018110712990164757 0.0 0.0 0.0 0.0
0.699 -0.39800363779067993 0.7242886424064636 -0.007802924141287804 -0.0013315100222826004 0.0 0.0 0.0 0.0
0.7 -0.35909736156463623 0.7303699851036072 -0.008163305930793285 -0.0006111571565270424 0.0 0.0 0.0 0.0
0.701 -0.3188854157924652 0.7346010804176331 -0.00858200155198574 6.28158450126648e-05 0.0 0.0 0.0 0.0
0.702 -0.27980077266693115 0.7350396513938904 -0.008705109357833862 0.0007443130016326904 0.0 0.0 0.0 0.0
0.703 -0.2448773831129074 0.7331147193908691 -0.008512052707374096 0.0015353960916399956 0.0 0.0 0.0 0.0
0.704 -0.20874375104904175 0.7265956997871399 -0.008675383403897285 0.0021948479115962982 0.0 0.0 0.0 0.0
0.705 -0.17015263438224792 0.7196854948997498 -0.008718433789908886 0.0033036544919013977 0.0 0.0 0.0 0.0
0.706 -0.14040420949459076 0.7035132646560669 -0.008350069634616375 0.004035673104226589 0.0 0.0 0.0 0.0
0.707 -0.10824581235647202 0.689981997013092 -0.008101099170744419 0.005093458108603954 0.0 0.0 0.0 0.0
0.708 -0.08116287738084793 0.6727299094200134 -0.007712316699326038 0.0058993929997086525 0.0 0.0 0.0 0.0
0.709 -0.056807078421115875 0.6549315452575684 -0.0070138657465577126 0.007069051265716553 0.0 0.0 0.0 0.0
0.71 -0.03781948983669281 0.6354854106903076 -0.006342452019453049 0.007592462003231049 0.0 0.0 0.0 0.0
0.711 -0.022928640246391296 0.618578314781189 -0.005515997298061848 0.008485901169478893 0.0 0.0 0.0 0.0
0.712 -0.009328305721282959 0.6021825671195984 -0.004351974464952946 0.008655236102640629 0.0 0.0 0.0 0.0
0.713 -0.0007912172004580498 0.5887446999549866 -0.0037365946918725967 0.009051058441400528 0.0 0.0 0.0 0.0
0.714 0.00927452091127634 0.5746996998786926 -0.00266110897064209 0.009183080866932869 0.0 0.0 0.0 0.0
0.715 0.010869581252336502 0.5637171864509583 -0.0015667006373405457 0.009154563769698143 0.0 0.0 0.0 0.0
0.716 0.01888003572821617 0.5586491227149963 -0.0006670895963907242 0.009188950061798096 0.0 0.0 0.0 0.0
0.717 0.023166639730334282 0.5540474653244019 0.0001347716897726059 0.009086010977625847 0.0 0.0 0.0 0.0
0.718 0.03355363756418228 0.5527952909469604 0.0010499963536858559 0.008736862801015377 0.0 0.0 0.0 0.0
0.719 0.03997129201889038 0.5494765639305115 0.0016698343679308891 0.008516460657119751 0.0 0.0 0.0 0.0
0.72 0.05187666788697243 0.5483708381652832 0.0024250876158475876 0.007980786263942719 0.0 0.0 0.0 0.0
0.721 0.05981610715389252 0.5440214276313782 0.0029364675283432007 0.007528548128902912 0.0 0.0 0.0 0.0
0.722 0.06666529178619385 0.5407878756523132 0.003538992255926132 0.00722048245370388 0.0 0.0 0.0 0.0
0.723 0.07306370884180069 0.5405849814414978 0.003991654142737389 0.006973747164011002 0.0 0.0 0.0 0.0
0.724 0.08115343749523163 0.5457862615585327 0.004578632302582264 0.006440611556172371 0.0 0.0 0.0 0.0
0.725 0.0917770266532898 0.5483468174934387 0.005164716392755508 0.005819452926516533 0.0 0.0 0.0 0.0
0.726 0.10390505194664001 0.5530449748039246 0.0054031554609537125 0.0052766818553209305 0.0 0.0 0.0 0.0
0.727 0.1143396720290184 0.5573550462722778 0.0059207733720541 0.004368085414171219 0.0 0.0 0.0 0.0
0.728 0.1267561912536621 0.562903881072998 0.00608339998871088 0.003688187338411808 0.0 0.0 0.0 0.0
0.729 0.1440332531929016 0.5700628757476807 0.005882560275495052 0.003141823224723339 0.0 0.0 0.0 0.0
0.73 0.16681399941444397 0.573326826095581 0.006156547926366329 0.002640901133418083 0.0 0.0 0.0 0.0
0.731 0.18492062389850616 0.5794855356216431 0.006078685633838177 0.0020227665081620216 0.0 0.0 0.0 0.0
0.732 0.20588552951812744 0.5800471305847168 0.0058765048161149025 0.0015922216698527336 0.0 0.0 0.0 0.0
0.733 0.23153568804264069 0.5815673470497131 0.005925244651734829 0.0005988012999296188 0.0 0.0 0.0 0.0
0.734 0.25061896443367004 0.5812093019485474 0.005510319955646992 0.00042536016553640366 0.0 0.0 0.0 0.0
0.735 0.27661946415901184 0.580333411693573 0.0053276121616363525 -5.922280251979828e-06 0.0 0.0 0.0 0.0
0.736 0.3008401095867157 0.5747987031936646 0.005137081257998943 -0.0005057845264673233 0.0 0.0 0.0 0.0
0.737 0.32783448696136475 0.5715821385383606 0.004899673163890839 -0.0007409797981381416 0.0 0.0 0.0 0.0
0.738 0.3526657521724701 0.5663688778877258 0.004682835191488266 -0.0008586989715695381 0.0 0.0 0.0 0.0
0.739 0.37806838750839233 0.5591931939125061 0.004440604709088802 -0.0011946102604269981 0.0 0.0 0.0 0.0
0.74 0.40402311086654663 0.5480615496635437 0.004032645374536514 -0.0013197660446166992 0.0 0.0 0.0 0.0
0.741 0.4298500716686249 0.5402514338493347 0.00385456345975399 -0.0015140408650040627 0.0 0.0 0.0 0.0
0.742 0.4552445709705353 0.5269715189933777 0.003763827495276928 -0.0018195351585745811 0.0 0.0 0.0 0.0
0.743 0.4805935025215149 0.5125188231468201 0.003665747120976448 -0.0018459465354681015 0.0 0.0 0.0 0.0
0.744 0.5066946148872375 0.49510157108306885 0.0031943460926413536 -0.0019411928951740265 0.0 0.0 0.0 0.0
0.745 0.5275676250457764 0.479033499956131 0.003022322431206703 -0.0022114552557468414 0.0 0.0 0.0 0.0
0.746 0.5508785247802734 0.457321435213089 0.0028062285855412483 -0.0023185648024082184 0.0 0.0 0.0 0.0
0.747 0.5692489147186279 0.4419509470462799 0.002653375267982483 -0.002230670303106308 0.0 0.0 0.0 0.0
0.748 0.5885287523269653 0.42365339398384094 0.002694946713745594 -0.002347303554415703 0.0 0.0 0.0 0.0
0.749 0.608298122882843 0.39998435974121094 0.0022840220481157303 -0.002414700575172901 0.0 0.0 0.0 0.0
0.75 0.6276442408561707 0.37899917364120483 0.0022484054788947105 -0.002367081120610237 0.0 0.0 0.0 0.0
0.751 0.6433815956115723 0.3594534993171692 0.0018209181725978851 -0.002459314651787281 0.0 0.0 0.0 0.0
0.752 0.658246636390686 0.33838748931884766 0.0015565566718578339 -0.0025462880730628967 0.0 0.0 0.0 0.0
0.753 0.6752534508705139 0.3093498647212982 0.001571889966726303 -0.0025819987058639526 0.0 0.0 0.0 0.0
0.754 0.6882929801940918 0.2918359637260437 0.0014241645112633705 -0.002939866855740547 0.0 0.0 0.0 0.0
0.755 0.7034865021705627 0.2681664228439331 0.0012824870645999908 -0.0025575459003448486 0.0 0.0 0.0 0.0
0.756 0.7153672575950623 0.24464502930641174 0.0010850932449102402 -0.002584845758974552 0.0 0.0 0.0 0.0
0.757 0.7288521528244019 0.22253380715847015 0.000733119435608387 -0.002576609142124653 0.0 0.0 0.0 0.0
0.758 0.7398303747177124 0.19512628018856049 0.0007435232400894165 -0.002639979124069214 0.0 0.0 0.0 0.0
0.759 0.750942587852478 0.16912688314914703 0.0005199909210205078 -0.0027100583538413048 0.0 0.0 0.0 0.0
0.76 0.7625436782836914 0.14312709867954254 0.000317583791911602 -0.0025841183960437775 0.0 0.0 0.0 0.0
0.761 0.7736762762069702 0.1185402199625969 0.00022032670676708221 -0.0026273364201188087 0.0 0.0 0.0 0.0
0.762 0.779155433177948 0.09009324759244919 0.0003898823633790016 -0.0025644060224294662 0.0 0.0 0.0 0.0
0.763 0.7869501709938049 0.06583022326231003 -0.00016373489052057266 -0.002734050154685974 0.0 0.0 0.0 0.0
0.764 0.7929125428199768 0.03286289423704147 -0.00014851242303848267 -0.0024103010073304176 0.0 0.0 0.0 0.0
0.765 0.797927737236023 0.011255251243710518 5.271285772323608e-06 -0.002247629687190056 0.0 0.0 0.0 0.0
0.766 0.8036914467811584 -0.021144969388842583 -0.00044212769716978073 -0.0024940529838204384 0.0 0.0 0.0 0.0
0.767 0.8035371899604797 -0.04618658125400543 -0.000607045367360115 -0.0022588372230529785 0.0 0.0 0.0 0.0
0.768 0.8097788095474243 -0.07866448909044266 -0.0005095014348626137 -0.002283443696796894 0.0 0.0 0.0 0.0
0.769 0.8090593814849854 -0.10297386348247528 -0.0007711378857493401 -0.00225171260535717 0.0 0.0 0.0 0.0
0.77 0.8074519634246826 -0.1292276531457901 -0.0008633844554424286 -0.0020993370562791824 0.0 0.0 0.0 0.0
0.771 0.8063474297523499 -0.15920470654964447 -0.000700649805366993 -0.002165880985558033 0.0 0.0 0.0 0.0
0.772 0.8039661645889282 -0.18277081847190857 -0.0012049125507473946 -0.002083340659737587 0.0 0.0 0.0 0.0
0.773 0.8006046414375305 -0.212374746799469 -0.001158999279141426 -0.002003197558224201 0.0 0.0 0.0 0.0
0.774 0.8010003566741943 -0.23555956780910492 -0.0010954085737466812 -0.0017301179468631744 0.0 0.0 0.0 0.0
0.775 0.7956295609474182 -0.2675802409648895 -0.0012871138751506805 -0.0018786154687404633 0.0 0.0 0.0 0.0
0.776 0.7909963130950928 -0.2933630347251892 -0.0016665710136294365 -0.0014666542410850525 0.0 0.0 0.0 0.0
0.777 0.7876694798469543 -0.3201890289783478 -0.0013731857761740685 -0.0015506641939282417 0.0 0.0 0.0 0.0
0.778 0.779515266418457 -0.3461611568927765 -0.0016764290630817413 -0.0014658113941550255 0.0 0.0 0.0 0.0
0.779 0.7700871825218201 -0.37446367740631104 -0.0015535280108451843 -0.0012270724400877953 0.0 0.0 0.0 0.0
0.78 0.7648155689239502 -0.39831745624542236 -0.0014209747314453125 -0.0012966673821210861 0.0 0.0 0.0 0.0
0.781 0.7523293495178223 -0.4275549352169037 -0.001784532330930233 -0.0012530628591775894 0.0 0.0 0.0 0.0
0.782 0.7428694367408752 -0.45005106925964355 -0.0016870507970452309 -0.000991608016192913 0.0 0.0 0.0 0.0
0.783 0.7296621799468994 -0.47834596037864685 -0.0018054703250527382 -0.0008881641551852226 0.0 0.0 0.0 0.0
0.784 0.7210487723350525 -0.5054227709770203 -0.0016634874045848846 -0.0008286703377962112 0.0 0.0 0.0 0.0
0.785 0.7053496241569519 -0.5338089466094971 -0.0017524557188153267 -0.0007795132696628571 0.0 0.0 0.0 0.0
0.786 0.6894118785858154 -0.557947039604187 -0.0015480974689126015 -0.0006718682125210762 0.0 0.0 0.0 0.0
0.787 0.6778499484062195 -0.5778774619102478 -0.001987941563129425 -0.00048534758388996124 0.0 0.0 0.0 0.0
0.788 0.66205894947052 -0.6036306023597717 -0.0019501065835356712 -0.000407269224524498 0.0 0.0 0.0 0.0
0.789 0.6443167924880981 -0.6257068514823914 -0.001888444647192955 -0.00045405514538288116 0.0 0.0 0.0 0.0
0.79 0.6239290833473206 -0.6522464752197266 -0.001910146325826645 -0.0004448210820555687 0.0 0.0 0.0 0.0
0.791 0.6113754510879517 -0.6684674024581909 -0.0017851712182164192 -0.0003938693553209305 0.0 0.0 0.0 0.0
0.792 0.5876539349555969 -0.6920570135116577 -0.0018672365695238113 -0.00010168366134166718 0.0 0.0 0.0 0.0
0.793 0.5682178139686584 -0.7116094827651978 -0.0020609647035598755 -3.82792204618454e-05 0.0 0.0 0.0 0.0
0.794 0.5495406985282898 -0.7289320826530457 -0.0018740175291895866 -4.586763679981232e-06 0.0 0.0 0.0 0.0
0.795 0.5259734392166138 -0.7471240162849426 -0.0018808357417583466 0.00012041628360748291 0.0 0.0 0.0 0.0
0.796 0.5079881548881531 -0.7683491110801697 -0.0018707942217588425 0.00044622644782066345 0.0 0.0 0.0 0.0
0.797 0.48352622985839844 -0.7823578119277954 -0.0018702540546655655 0.00042841024696826935 0.0 0.0 0.0 0.0
0.798 0.46656399965286255 -0.8009284734725952 -0.0014437269419431686 0.0006411885842680931 0.0 0.0 0.0 0.0
0.799 0.4379529654979706 -0.8193053007125854 -0.0016856957226991653 0.0005253748968243599 0.0 0.0 0.0 0.0
0.8 0.41900861263275146 -0.8344554305076599 -0.0018089059740304947 0.0006543518975377083 0.0 0.0 0.0 0.0
0.801 0.3939630389213562 -0.8498777747154236 -0.0015769386664032936 0.0006127422675490379 0.0 0.0 0.0 0.0
0.802 0.36756205558776855 -0.8645206689834595 -0.0017722416669130325 0.000844205729663372 0.0 0.0 0.0 0.0
0.803 0.34429579973220825 -0.8795578479766846 -0.0015083523467183113 0.0007618293166160583 0.0 0.0 0.0 0.0
0.804 0.31724417209625244 -0.8914976716041565 -0.0014598146080970764 0.0007203072309494019 0.0 0.0 0.0 0.0
0.805 0.28757843375205994 -0.9015985131263733 -0.001635597087442875 0.0008340748026967049 0.0 0.0 0.0 0.0
0.806 0.2625825107097626 -0.9120036363601685 -0.0015008579939603806 0.0010347245261073112 0.0 0.0 0.0 0.0
0.807 0.23531606793403625 -0.9229158759117126 -0.0013652713969349861 0.001160535030066967 0.0 0.0 0.0 0.0
0.808 0.2059323936700821 -0.9301444292068481 -0.0015419535338878632 0.001138283871114254 0.0 0.0 0.0 0.0
0.809 0.1768406331539154 -0.9409809112548828 -0.0014785081148147583 0.0014043943956494331 0.0 0.0 0.0 0.0
0.81 0.14690850675106049 -0.9457513093948364 -0.0012457948178052902 0.001329530030488968 0.0 0.0 0.0 0.0
0.811 0.11989354342222214 -0.9509223699569702 -0.0014455495402216911 0.0015324121341109276 0.0 0.0 0.0 0.0
0.812 0.08637207746505737 -0.9552974700927734 -0.0012294724583625793 0.0014919796958565712 0.0 0.0 0.0 0.0
0.813 0.06133163347840309 -0.9582837224006653 -0.0011127134785056114 0.0016890531405806541 0.0 0.0 0.0 0.0
0.814 0.028298787772655487 -0.958870530128479 -0.0010392600670456886 0.001950206235051155 0.0 0.0 0.0 0.0
0.815 0.004675094969570637 -0.9616984724998474 -0.001072644256055355 0.0017276937142014503 0.0 0.0 0.0 0.0
0.816 -0.027420740574598312 -0.9587112665176392 -0.0008055204525589943 0.0018208753317594528 0.0 0.0 0.0 0.0
0.817 -0.052262499928474426 -0.9601868391036987 -0.000750487670302391 0.0018032006919384003 0.0 0.0 0.0 0.0
0.818 -0.08479202538728714 -0.9552026391029358 -0.0007016900926828384 0.0018749479204416275 0.0 0.0 0.0 0.0
0.819 -0.11107823252677917 -0.9564394354820251 -0.000390482135117054 0.0017740502953529358 0.0 0.0 0.0 0.0
0.82 -0.14467112720012665 -0.9544850587844849 -0.000454525463283062 0.001985101029276848 0.0 0.0 0.0 0.0
0.821 -0.1670181006193161 -0.9464899897575378 -0.0003085564821958542 0.0019666198641061783 0.0 0.0 0.0 0.0
0.822 -0.20125439763069153 -0.9409860968589783 -0.0002874927595257759 0.0016842056065797806 0.0 0.0 0.0 0.0
0.823 -0.22953291237354279 -0.9377310872077942 -0.00010316073894500732 0.0020013051107525826 0.0 0.0 0.0 0.0
0.824 -0.2555917203426361 -0.926154613494873 -8.594244718551636e-05 0.0020187348127365112 0.0 0.0 0.0 0.0
0.825 -0.2893058657646179 -0.9148572683334351 -0.00013191252946853638 0.0017052171751856804 0.0 0.0 0.0 0.0
0.826 -0.31539633870124817 -0.9054727554321289 -0.00010208040475845337 0.001965723931789398 0.0 0.0 0.0 0.0
0.827 -0.3442675471305847 -0.8937555551528931 0.00017596129328012466 0.0018443940207362175 0.0 0.0 0.0 0.0
0.828 -0.37015852332115173 -0.876272976398468 0.00012119580060243607 0.0019042761996388435 0.0 0.0 0.0 0.0
0.829 -0.39985889196395874 -0.8657190799713135 0.0001649884507060051 0.0020336462184786797 0.0 0.0 0.0 0.0
0.83 -0.4183167815208435 -0.8479526042938232 0.00023661833256483078 0.002432974986732006 0.0 0.0 0.0 0.0
0.831 -0.4460166096687317 -0.8369411826133728 0.0003290334716439247 0.001942826434969902 0.0 0.0 0.0 0.0
0.832 -0.46618661284446716 -0.8170283436775208 0.0006479145959019661 0.002172466367483139 0.0 0.0 0.0 0.0
0.833 -0.4880748391151428 -0.7957703471183777 0.0007629422470927238 0.0023781266063451767 0.0 0.0 0.0 0.0
0.834 -0.5095183253288269 -0.7786828875541687 0.001004151999950409 0.002467758022248745 0.0 0.0 0.0 0.0
0.835 -0.5269289016723633 -0.7613186240196228 0.001203327439725399 0.0025356682017445564 0.0 0.0 0.0 0.0
0.836 -0.5476601123809814 -0.7443431615829468 0.001619580201804638 0.002214922569692135 0.0 0.0 0.0 0.0
0.837 -0.5671464204788208 -0.7245395183563232 0.001507478766143322 0.002074422314763069 0.0 0.0 0.0 0.0
0.838 -0.5855751037597656 -0.7051372528076172 0.0017679724842309952 0.0020272843539714813 0.0 0.0 0.0 0.0
0.839 -0.6044674515724182 -0.6892118453979492 0.00193080585449934 0.0015157321467995644 0.0 0.0 0.0 0.0
0.84 -0.6203083395957947 -0.6685605645179749 0.00197588000446558 0.0015383437275886536 0.0 0.0 0.0 0.0
0.841 -0.6363344192504883 -0.6482925415039062 0.002122150734066963 0.001468602567911148 0.0 0.0 0.0 0.0
0.842 -0.6588104963302612 -0.6290156841278076 0.002175738103687763 0.0011642416939139366 0.0 0.0 0.0 0.0
0.843 -0.6721758842468262 -0.6078571081161499 0.0022171800956130028 0.0010339850559830666 0.0 0.0 0.0 0.0
0.844 -0.6877521276473999 -0.5816802382469177 0.0021583838388323784 0.000887175090610981 0.0 0.0 0.0 0.0
0.845 -0.7049477100372314 -0.5593055486679077 0.0023412108421325684 0.0006766533479094505 0.0 0.0 0.0 0.0
0.846 -0.7183908224105835 -0.5374336838722229 0.0024688895791769028 0.0006737364456057549 0.0 0.0 0.0 0.0
0.847 -0.7278854846954346 -0.5134352445602417 0.002357304096221924 0.0005964254960417747 0.0 0.0 0.0 0.0
0.848 -0.7423518300056458 -0.490067720413208 0.0024514170363545418 0.00017445068806409836 0.0 0.0 0.0 0.0
0.849 -0.7517015933990479 -0.46268951892852783 0.002470245584845543 6.877444684505463e-05 0.0 0.0 0.0 0.0
0.85 -0.76603102684021 -0.4336802661418915 0.0021320870146155357 3.879144787788391e-05 0.0 0.0 0.0 0.0
0.851 -0.7767411470413208 -0.40570223331451416 0.0024406127631664276 -0.00012252014130353928 0.0 0.0 0.0 0.0
0.852 -0.7788553237915039 -0.3794587552547455 0.0023237932473421097 -0.000277186743915081 0.0 0.0 0.0 0.0
0.853 -0.7854357957839966 -0.35213175415992737 0.0024192892014980316 -0.00014725793153047562 0.0 0.0 0.0 0.0
0.854 -0.7907227277755737 -0.32736140489578247 0.0022632842883467674 -0.0004751114174723625 0.0 0.0 0.0 0.0
0.855 -0.7974014282226562 -0.29900410771369934 0.002001756802201271 -0.0009214337915182114 0.0 0.0 0.0 0.0
0.856 -0.7952977418899536 -0.27809929847717285 0.0022069988772273064 -0.0008019590750336647 0.0 0.0 0.0 0.0
0.857 -0.801274836063385 -0.2500803768634796 0.0018304521217942238 -0.001001059077680111 0.0 0.0 0.0 0.0
0.858 -0.8040856719017029 -0.22940196096897125 0.002004120498895645 -0.0012931432574987411 0.0 0.0 0.0 0.0
0.859 -0.8072400093078613 -0.20269624888896942 0.0017597032710909843 -0.0013937922194600105 0.0 0.0 0.0 0.0
0.86 -0.8071706891059875 -0.1761111468076706 0.0015417765825986862 -0.0012831510975956917 0.0 0.0 0.0 0.0
0.861 -0.8115411996841431 -0.15021425485610962 0.0015906859189271927 -0.0015373192727565765 0.0 0.0 0.0 0.0
0.862 -0.8086704611778259 -0.126692995429039 0.0014397352933883667 -0.0014182580634951591 0.0 0.0 0.0 0.0
0.863 -0.8081279993057251 -0.10035991668701172 0.0013359421864151955 -0.0016950517892837524 0.0 0.0 0.0 0.0
0.864 -0.8047633767127991 -0.06746207922697067 0.0011869752779603004 -0.001775236800312996 0.0 0.0 0.0 0.0
0.865 -0.7996319532394409 -0.04450308904051781 0.0010300083085894585 -0.0017065657302737236 0.0 0.0 0.0 0.0
0.866 -0.7907432913780212 -0.0140004213899374 0.0008170520886778831 -0.001613491214811802 0.0 0.0 0.0 0.0
0.867 -0.7862873673439026 0.004116968251764774 0.0006769653409719467 -0.0020517902448773384 0.0 0.0 0.0 0.0
0.868 -0.7783727645874023 0.02899101749062538 0.0006008287891745567 -0.0015629911795258522 0.0 0.0 0.0 0.0
0.869 -0.770548403263092 0.04878435283899307 0.0005069663748145103 -0.0016295583918690681 0.0 0.0 0.0 0.0
0.87 -0.7660097479820251 0.07634149491786957 9.610317647457123e-05 -0.0018055178225040436 0.0 0.0 0.0 0.0
0.871 -0.7576892375946045 0.09298361837863922 0.00021414272487163544 -0.0015519233420491219 0.0 0.0 0.0 0.0
0.872 -0.7530885934829712 0.11734330654144287 0.0002459939569234848 -0.0014699576422572136 0.0 0.0 0.0 0.0
0.873 -0.7405752539634705 0.1435348093509674 -0.00020771194249391556 -0.0012153498828411102 0.0 0.0 0.0 0.0
0.874 -0.7349947094917297 0.166586235165596 -5.1924027502536774e-05 -0.00141961220651865 0.0 0.0 0.0 0.0
0.875 -0.723034679889679 0.19174377620220184 -3.230106085538864e-05 -0.0013787206262350082 0.0 0.0 0.0 0.0
0.876 -0.7077991366386414 0.21249012649059296 -0.0004207072779536247 -0.0010748934000730515 0.0 0.0 0.0 0.0
0.877 -0.6965336799621582 0.23617596924304962 -0.0003222469240427017 -0.0011768564581871033 0.0 0.0 0.0 0.0
0.878 -0.682561457157135 0.25375235080718994 -0.000217522494494915 -0.0010144012048840523 0.0 0.0 0.0 0.0
0.879 -0.6685487031936646 0.27438071370124817 -0.0003491351380944252 -0.001082221046090126 0.0 0.0 0.0 0.0
0.88 -0.6492922306060791 0.2928706109523773 -0.00034829508513212204 -0.000568619929254055 0.0 0.0 0.0 0.0
0.881 -0.6371719241142273 0.31295445561408997 -0.00041350536048412323 -0.0005618669092655182 0.0 0.0 0.0 0.0
0.882 -0.6219885945320129 0.32751086354255676 -0.00023707374930381775 -0.000473683699965477 0.0 0.0 0.0 0.0
0.883 -0.6051126718521118 0.34730273485183716 -0.0003256332129240036 -0.00040614325553178787 0.0 0.0 0.0 0.0
0.884 -0.592179536819458 0.361456036567688 -0.00019571557641029358 -0.0003431979566812515 0.0 0.0 0.0 0.0
0.885 -0.5758446455001831 0.37888553738594055 -0.00011303834617137909 -0.0004133349284529686 0.0 0.0 0.0 0.0
0.886 -0.5597320199012756 0.39190158247947693 8.939113467931747e-05 -0.0003954824060201645 0.0 0.0 0.0 0.0
0.887 -0.5402802228927612 0.40870535373687744 5.311891436576843e-05 -0.000216631218791008 0.0 0.0 0.0 0.0
0.888 -0.5200137495994568 0.4274575114250183 -1.430511474609375e-05 -0.0003526555374264717 0.0 0.0 0.0 0.0
0.889 -0.509146511554718 0.43678879737854004 0.0002915728837251663 -0.00015611760318279266 0.0 0.0 0.0 0.0
0.89 -0.49024084210395813 0.454574853181839 0.00032676663249731064 -0.0003364831209182739 0.0 0.0 0.0 0.0
0.891 -0.47468918561935425 0.4690864682197571 0.0003393217921257019 -0.0005357908084988594 0.0 0.0 0.0 0.0
0.892 -0.45395874977111816 0.48562780022621155 0.0003008060157299042 -0.00043004099279642105 0.0 0.0 0.0 0.0
0.893 -0.4353862702846527 0.4951401650905609 0.000364948995411396 -0.0004937201738357544 0.0 0.0 0.0 0.0
0.894 -0.4150598347187042 0.5107825994491577 0.00045667868107557297 -0.0007494194433093071 0.0 0.0 0.0 0.0
0.895 -0.39442312717437744 0.5184831023216248 0.0006140731275081635 -0.0006976863369345665 0.0 0.0 0.0 0.0
0.896 -0.37698107957839966 0.5299542546272278 0.0003856932744383812 -0.0007710792124271393 0.0 0.0 0.0 0.0
0.897 -0.35283151268959045 0.5422300100326538 0.0003856448456645012 -0.0007450776174664497 0.0 0.0 0.0 0.0
0.898 -0.3373003602027893 0.5518882870674133 0.0003048032522201538 -0.000925770029425621 0.0 0.0 0.0 0.0
0.899 -0.3117643892765045 0.563633143901825 0.00027299486100673676 -0.0009438106790184975 0.0 0.0 0.0 0.0
0.9 -0.2893993854522705 0.5744732618331909 2.382136881351471e-05 -0.0011173011735081673 0.0 0.0 0.0 0.0
0.901 -0.26422548294067383 0.5818353891372681 0.0002862280234694481 -0.000858379527926445 0.0 0.0 0.0 0.0
0.902 -0.24303311109542847 0.5877394080162048 0.0001643020659685135 -0.000998915173113346 0.0 0.0 0.0 0.0
0.903 -0.22039729356765747 0.5937651991844177 3.61073762178421e-05 -0.0009899567812681198 0.0 0.0 0.0 0.0
0.904 -0.19730256497859955 0.5980147123336792 1.0818243026733398e-05 -0.0010248972102999687 0.0 0.0 0.0 0.0
0.905 -0.17194858193397522 0.6041687726974487 0.00023579970002174377 -0.0009073466062545776 0.0 0.0 0.0 0.0
0.906 -0.15079568326473236 0.6060816049575806 3.830529749393463e-05 -0.000842733308672905 0.0 0.0 0.0 0.0
0.907 -0.1265166848897934 0.6111759543418884 9.111687541007996e-05 -0.0009213937446475029 0.0 0.0 0.0 0.0
0.908 -0.10281047224998474 0.6135280728340149 -1.7927959561347961e-06 -0.0012553688138723373 0.0 0.0 0.0 0.0
0.909 -0.07946767657995224 0.615168571472168 9.740423411130905e-05 -0.0011062193661928177 0.0 0.0 0.0 0.0
0.91 -0.05602450296282768 0.6158780455589294 -7.557496428489685e-05 -0.0012227343395352364 0.0 0.0 0.0 0.0
0.911 -0.03217779099941254 0.6180918216705322 6.705522537231445e-06 -0.0011297846212983131 0.0 0.0 0.0 0.0
0.912 -0.00887473113834858 0.6190857887268066 -0.00034470297396183014 -0.0011737728491425514 0.0 0.0 0.0 0.0
0.913 0.016619404777884483 0.618388295173645 -0.00017425138503313065 -0.0013117706403136253 0.0 0.0 0.0 0.0
0.914 0.04339209944009781 0.618416965007782 -0.0004869569092988968 -0.0011909781023859978 0.0 0.0 0.0 0.0
0.915 0.06778568029403687 0.6137233972549438 -0.00032918713986873627 -0.0014131627976894379 0.0 0.0 0.0 0.0
0.916 0.09492366760969162 0.6081098914146423 -0.00031134020537137985 -0.0010618669912219048 0.0 0.0 0.0 0.0
0.917 0.11622866243124008 0.600640058517456 -0.0007820576429367065 -0.0014138203114271164 0.0 0.0 0.0 0.0
0.918 0.1421116441488266 0.5960977077484131 -0.00068620964884758 -0.0012730062007904053 0.0 0.0 0.0 0.0
0.919 0.16168339550495148 0.588196337223053 -0.0006941622123122215 -0.0014261910691857338 0.0 0.0 0.0 0.0
0.92 0.18706625699996948 0.5815768241882324 -0.0007379418238997459 -0.001388058066368103 0.0 0.0 0.0 0.0
0.921 0.20856501162052155 0.5756832957267761 -0.0009388616308569908 -0.0012663966044783592 0.0 0.0 0.0 0.0
0.922 0.23071734607219696 0.5683979392051697 -0.0011399369686841965 -0.001340499147772789 0.0 0.0 0.0 0.0
0.923 0.25264400243759155 0.5571839213371277 -0.0012465817853808403 -0.0011052489280700684 0.0 0.0 0.0 0.0
0.924 0.27492937445640564 0.5465218424797058 -0.0007675373926758766 -0.0009186472743749619 0.0 0.0 0.0 0.0
0.925 0.2983993589878082 0.5367085933685303 -0.0012449203059077263 -0.0007312716916203499 0.0 0.0 0.0 0.0
0.926 0.31575867533683777 0.5293331742286682 -0.0014000125229358673 -0.000917535275220871 0.0 0.0 0.0 0.0
0.927 0.3410627841949463 0.5142506957054138 -0.001203286461532116 -0.0008053267374634743 0.0 0.0 0.0 0.0
0.928 0.35854390263557434 0.5020107626914978 -0.0011745095252990723 -0.0008106352761387825 0.0 0.0 0.0 0.0
0.929 0.37973010540008545 0.4875833988189697 -0.001344047486782074 -0.0006269710138440132 0.0 0.0 0.0 0.0
0.93 0.39679113030433655 0.4751276671886444 -0.0013515036553144455 -0.0006417473778128624 0.0 0.0 0.0 0.0
0.931 0.418873131275177 0.45880207419395447 -0.0012752432376146317 -0.000757572241127491 0.0 0.0 0.0 0.0
0.932 0.43563970923423767 0.44364508986473083 -0.001415981911122799 -0.0006965268403291702 0.0 0.0 0.0 0.0
0.933 0.4553740918636322 0.42714032530784607 -0.001515471376478672 -0.0005803657695651054 0.0 0.0 0.0 0.0
0.934 0.47251904010772705 0.40881723165512085 -0.0013567544519901276 -0.0004505552351474762 0.0 0.0 0.0 0.0
0.935 0.48909324407577515 0.39582446217536926 -0.0013762153685092926 -0.00021840911358594894 0.0 0.0 0.0 0.0
0.936 0.5070910453796387 0.3745308220386505 -0.001711944118142128 -0.00023802835494279861 0.0 0.0 0.0 0.0
0.937 0.5176594853401184 0.35957372188568115 -0.001546456478536129 -0.00026161689311265945 0.0 0.0 0.0 0.0
0.938 0.5346656441688538 0.33975160121917725 -0.0014289049431681633 -0.00020176265388727188 0.0 0.0 0.0 0.0
0.939 0.5450906753540039 0.3241320550441742 -0.001512007787823677 6.245914846658707e-05 0.0 0.0 0.0 0.0
0.94 0.5630532503128052 0.3030930161476135 -0.001664692535996437 0.00014110002666711807 0.0 0.0 0.0 0.0
0.941 0.5758750438690186 0.282470166683197 -0.001516861841082573 -4.97112050652504e-05 0.0 0.0 0.0 0.0
0.942 0.5915782451629639 0.26045548915863037 -0.0014232229441404343 0.00046046357601881027 0.0 0.0 0.0 0.0
0.943 0.6001216769218445 0.2418592870235443 -0.0014071492478251457 0.0004763482138514519 0.0 0.0 0.0 0.0
0.944 0.6107674241065979 0.2182597666978836 -0.0014354996383190155 0.0002887789160013199 0.0 0.0 0.0 0.0
0.945 0.6210776567459106 0.19694609940052032 -0.0013159355148673058 0.0005878042429685593 0.0 0.0 0.0 0.0
0.946 0.6301192045211792 0.17563797533512115 -0.0013498049229383469 0.0006920592859387398 0.0 0.0 0.0 0.0
0.947 0.638141930103302 0.1531260758638382 -0.0012886840850114822 0.0006224317476153374 0.0 0.0 0.0 0.0
0.948 0.6440168619155884 0.13439302146434784 -0.0013601463288068771 0.0007843049243092537 0.0 0.0 0.0 0.0
0.949 0.6524548530578613 0.11097802221775055 -0.001359487883746624 0.0006497008726000786 0.0 0.0 0.0 0.0
0.95 0.6577156186103821 0.09202389419078827 -0.0010846806690096855 0.0005967523902654648 0.0 0.0 0.0 0.0
0.951 0.6644226312637329 0.06898558884859085 -0.0012594833970069885 0.0007949061691761017 0.0 0.0 0.0 0.0
0.952 0.6702770590782166 0.048426128923892975 -0.00108420941978693 0.0007347576320171356 0.0 0.0 0.0 0.0
0.953 0.6757853031158447 0.021547064185142517 -0.0010877382010221481 0.0005793496966362 0.0 0.0 0.0 0.0
0.954 0.6814215183258057 0.003370123915374279 -0.0007775500416755676 0.000722602941095829 0.0 0.0 0.0 0.0
0.955 0.685046911239624 -0.023922938853502274 -0.001027318648993969 0.000870763324201107 0.0 0.0 0.0 0.0
0.956 0.6838843822479248 -0.048021432012319565 -0.001032404601573944 0.0006857244297862053 0.0 0.0 0.0 0.0
0.957 0.6895691752433777 -0.07248788326978683 -0.001095511019229889 0.0010161064565181732 0.0 0.0 0.0 0.0
0.958 0.6880639791488647 -0.09610903263092041 -0.0010521449148654938 0.0008437233045697212 0.0 0.0 0.0 0.0
0.959 0.6881521344184875 -0.1194194108247757 -0.0010954206809401512 0.001212884671986103 0.0 0.0 0.0 0.0
0.96 0.6837734580039978 -0.14749190211296082 -0.0008818348869681358 0.0007594218477606773 0.0 0.0 0.0 0.0
0.961 0.6839413046836853 -0.16473017632961273 -0.0010187923908233643 0.0008705016225576401 0.0 0.0 0.0 0.0
0.962 0.6793044805526733 -0.19288046658039093 -0.0008335160091519356 0.0012173280119895935 0.0 0.0 0.0 0.0
0.963 0.6767091751098633 -0.21309104561805725 -0.0006732475012540817 0.0008708899840712547 0.0 0.0 0.0 0.0
0.964 0.6699039936065674 -0.2392846941947937 -0.0008374713361263275 0.0011014929041266441 0.0 0.0 0.0 0.0
0.965 0.6645817756652832 -0.2614031136035919 -0.0004971036687493324 0.0009897667914628983 0.0 0.0 0.0 0.0
0.966 0.6580691337585449 -0.2861017882823944 -0.0004216870293021202 0.0012330496683716774 0.0 0.0 0.0 0.0
0.967 0.6458163261413574 -0.30216309428215027 -0.0005882931873202324 0.0013277223333716393 0.0 0.0 0.0 0.0
0.968 0.6342551708221436 -0.32659587264060974 -0.0007356069982051849 0.0011300938203930855 0.0 0.0 0.0 0.0
0.969 0.6233154535293579 -0.34426936507225037 -0.0006211968138813972 0.0009581195190548897 0.0 0.0 0.0 0.0
0.97 0.6190195083618164 -0.3615226149559021 -0.0006198333576321602 0.0013477141037583351 0.0 0.0 0.0 0.0
0.971 0.6089397668838501 -0.3814903795719147 -0.00025980081409215927 0.0010564131662249565 0.0 0.0 0.0 0.0
0.972 0.6010081171989441 -0.4011232852935791 -0.0003240099176764488 0.0013195760548114777 0.0 0.0 0.0 0.0
0.973 0.5900367498397827 -0.420036643743515 -0.00045206304639577866 0.0009867260232567787 0.0 0.0 0.0 0.0
0.974 0.5810167789459229 -0.4375160038471222 -0.0002587661147117615 0.0011029941961169243 0.0 0.0 0.0 0.0
0.975 0.5658684968948364 -0.4571772813796997 -0.0005300082266330719 0.0011006463319063187 0.0 0.0 0.0 0.0
0.976 0.5556529760360718 -0.47219106554985046 -0.0003258604556322098 0.0011724913492798805 0.0 0.0 0.0 0.0
0.977 0.5430058836936951 -0.48897048830986023 -0.00045070890337228775 0.001469150185585022 0.0 0.0 0.0 0.0
0.978 0.5322215557098389 -0.5017818212509155 -0.000646708533167839 0.0014784056693315506 0.0 0.0 0.0 0.0
0.979 0.5209707021713257 -0.5220034718513489 -0.00042907334864139557 0.001632077619433403 0.0 0.0 0.0 0.0
0.98 0.5052350163459778 -0.5413569211959839 -0.00046261027455329895 0.0013460386544466019 0.0 0.0 0.0 0.0
0.981 0.48924702405929565 -0.5589795112609863 -0.00016932468861341476 0.0016827480867505074 0.0 0.0 0.0 0.0
0.982 0.47264596819877625 -0.5717607140541077 -0.00012813694775104523 0.0017405916005373001 0.0 0.0 0.0 0.0
0.983 0.45759913325309753 -0.5842745900154114 -0.0003039659932255745 0.0018309336155653 0.0 0.0 0.0 0.0
0.984 0.438995361328125 -0.5956336259841919 -0.00018466729670763016 0.0019621439278125763 0.0 0.0 0.0 0.0
0.985 0.4235313832759857 -0.607552707195282 -0.00022739823907613754 0.001865306869149208 0.0 0.0 0.0 0.0
0.986 0.40807002782821655 -0.6234049201011658 0.00022064242511987686 0.002004999667406082 0.0 0.0 0.0 0.0
0.987 0.39360809326171875 -0.630948543548584 0.0002475176006555557 0.0018434878438711166 0.0 0.0 0.0 0.0
0.988 0.37600383162498474 -0.6463174223899841 0.000582471489906311 0.001907380297780037 0.0 0.0 0.0 0.0
0.989 0.36106622219085693 -0.6528304219245911 0.0006176382303237915 0.002010500989854336 0.0 0.0 0.0 0.0
0.99 0.3420073091983795 -0.663155734539032 0.0006739133968949318 0.001875794492661953 0.0 0.0 0.0 0.0
0.991 0.32702285051345825 -0.6729539632797241 0.0007859775796532631 0.002094605937600136 0.0 0.0 0.0 0.0
0.992 0.30983030796051025 -0.6812090277671814 0.001055968925356865 0.0020365649834275246 0.0 0.0 0.0 0.0
0.993 0.29221111536026 -0.6879160404205322 0.0011014090850949287 0.001968010328710079 0.0 0.0 0.0 0.0
0.994 0.2760697603225708 -0.6973799467086792 0.0014790268614888191 0.0017671845853328705 0.0 0.0 0.0 0.0
0.995 0.25909554958343506 -0.7030194401741028 0.0013775965198874474 0.0016939714550971985 0.0 0.0 0.0 0.0
0.996 0.241844043135643 -0.7125604748725891 0.0013467716053128242 0.0015434538945555687 0.0 0.0 0.0 0.0
0.997 0.22093906998634338 -0.7222025990486145 0.0017146822065114975 0.0012091435492038727 0.0 0.0 0.0 0.0
0.998 0.20884908735752106 -0.7254514694213867 0.0018960870802402496 0.0012451792135834694 0.0 0.0 0.0 0.0
0.999 0.18587486445903778 -0.7334592342376709 0.0017488468438386917 0.0011391211301088333 0.0 0.0 0.0 0.0
1.0 0.1725655347108841 -0.738844633102417 0.001639065332710743 0.0011020386591553688 0.0 0.0 0.0 0.0
1.001 0.1635504812002182 -0.7407254576683044 0.00192161463201046 0.000713033601641655 0.0 0.0 0.0 0.0
1.002 0.13679708540439606 -0.7457249760627747 0.0021923398599028587 0.0008039604872465134 0.0 0.0 0.0 0.0
1.003 0.1198621466755867 -0.7481544613838196 0.001930180937051773 0.0007360810413956642 0.0 0.0 0.0 0.0
1.004 0.09956183284521103 -0.7528841495513916 0.0021636513993144035 0.0006393687799572945 0.0 0.0 0.0 0.0
1.005 0.08249469101428986 -0.7558221220970154 0.002484923228621483 0.0003585768863558769 0.0 0.0 0.0 0.0
1.006 0.058937136083841324 -0.760688304901123 0.0024610236287117004 8.197501301765442e-05 0.0 0.0 0.0 0.0
1.007 0.0474914014339447 -0.7584477066993713 0.0024779289960861206 0.0001242244616150856 0.0 0.0 0.0 0.0
1.008 0.024558627977967262 -0.7635013461112976 0.0026353560388088226 -0.00018490198999643326 0.0 0.0 0.0 0.0
1.009 0.010138223879039288 -0.7613835334777832 0.002406064420938492 -0.00021442212164402008 0.0 0.0 0.0 0.0
1.01 -0.010956930927932262 -0.7632216811180115 0.0020371265709400177 -0.00047577638179063797 0.0 0.0 0.0 0.0
1.011 -0.03284267708659172 -0.7662643790245056 0.0024176323786377907 -0.0009711561724543571 0.0 0.0 0.0 0.0
1.012 -0.048550546169281006 -0.7660265564918518 0.0019305022433400154 -0.0008375188335776329 0.0 0.0 0.0 0.0
1.013 -0.06837742775678635 -0.7663689255714417 0.001987794414162636 -0.0006494494155049324 0.0 0.0 0.0 0.0
1.014 -0.08592294901609421 -0.7666190266609192 0.002393459901213646 -0.0011467235162854195 0.0 0.0 0.0 0.0
1.015 -0.10992337018251419 -0.763530969619751 0.0018995488062500954 -0.0011908682063221931 0.0 0.0 0.0 0.0
1.016 -0.12491417676210403 -0.7648283243179321 0.0018130932003259659 -0.0013132188469171524 0.0 0.0 0.0 0.0
1.017 -0.15442615747451782 -0.7630903124809265 0.0016845958307385445 -0.0013884659856557846 0.0 0.0 0.0 0.0
1.018 -0.16989444196224213 -0.7586163878440857 0.0015733866021037102 -0.0015178341418504715 0.0 0.0 0.0 0.0
1.019 -0.1966523975133896 -0.7501406669616699 0.001491188071668148 -0.0014812815934419632 0.0 0.0 0.0 0.0
1.02 -0.2143549770116806 -0.7448059320449829 0.0014123180881142616 -0.0017445525154471397 0.0 0.0 0.0 0.0
1.021 -0.23448434472084045 -0.739199697971344 0.001229945570230484 -0.001829029992222786 0.0 0.0 0.0 0.0
1.022 -0.2508818805217743 -0.7314587235450745 0.001173301599919796 -0.0019526788964867592 0.0 0.0 0.0 0.0
1.023 -0.2675633728504181 -0.7254326343536377 0.0011658789590001106 -0.0018892502412199974 0.0 0.0 0.0 0.0
1.024 -0.2836926281452179 -0.716485857963562 0.0007601054385304451 -0.0019208351150155067 0.0 0.0 0.0 0.0
1.025 -0.3019793927669525 -0.7090464234352112 0.0005558263510465622 -0.0021667499095201492 0.0 0.0 0.0 0.0
1.026 -0.3199179768562317 -0.702719509601593 0.0005231192335486412 -0.0018960097804665565 0.0 0.0 0.0 0.0
1.027 -0.3370085656642914 -0.6970602869987488 0.0005978336557745934 -0.002118128351867199 0.0 0.0 0.0 0.0
1.028 -0.3600941300392151 -0.6865074038505554 0.0003503616899251938 -0.0020043784752488136 0.0 0.0 0.0 0.0
1.029 -0.37634506821632385 -0.6774389147758484 0.00014567747712135315 -0.0021675899624824524 0.0 0.0 0.0 0.0
1.03 -0.40044429898262024 -0.6642968654632568 -3.153737634420395e-05 -0.002197292633354664 0.0 0.0 0.0 0.0
1.031 -0.4121081829071045 -0.6564399600028992 1.2658536434173584e-05 -0.0021158354356884956 0.0 0.0 0.0 0.0
1.032 -0.4341685175895691 -0.6384071111679077 -9.196996688842773e-05 -0.0021167388185858727 0.0 0.0 0.0 0.0
1.033 -0.446993887424469 -0.6282182335853577 -0.00024257786571979523 -0.001911054365336895 0.0 0.0 0.0 0.0
1.034 -0.46850770711898804 -0.6136751770973206 -0.0005077319219708443 -0.002165277488529682 0.0 0.0 0.0 0.0
1.035 -0.4836938977241516 -0.601060152053833 -0.0004312638193368912 -0.001967780292034149 0.0 0.0 0.0 0.0
1.036 -0.4986664056777954 -0.5860417485237122 -0.0006109606474637985 -0.0018611708655953407 0.0 0.0 0.0 0.0
1.037 -0.5140549540519714 -0.5671731233596802 -0.0007886886596679688 -0.0018756212666630745 0.0 0.0 0.0 0.0
1.038 -0.5228602886199951 -0.5547940135002136 -0.0006323950365185738 -0.0018840953707695007 0.0 0.0 0.0 0.0
1.039 -0.5389001369476318 -0.5362851619720459 -0.0010773157700896263 -0.0014081429690122604 0.0 0.0 0.0 0.0
1.04 -0.5531240701675415 -0.521348774433136 -0.0011974945664405823 -0.0014179768040776253 0.0 0.0 0.0 0.0
1.041 -0.5672070980072021 -0.50445955991745 -0.001127573661506176 -0.0015323283150792122 0.0 0.0 0.0 0.0
1.042 -0.5720243453979492 -0.48947080969810486 -0.0011634565889835358 -0.001215485855937004 0.0 0.0 0.0 0.0
1.043 -0.5919833779335022 -0.4688677489757538 -0.001204029656946659 -0.0012079309672117233 0.0 0.0 0.0 0.0
1.044 -0.5984586477279663 -0.4484993517398834 -0.0012859711423516273 -0.0011457623913884163 0.0 0.0 0.0 0.0
1.045 -0.6108735203742981 -0.43017780780792236 -0.001528511755168438 -0.0008882973343133926 0.0 0.0 0.0 0.0
1.046 -0.6164007186889648 -0.4145258665084839 -0.0015100883319973946 -0.0008410699665546417 0.0 0.0 0.0 0.0
1.047 -0.6311194896697998 -0.3959263265132904 -0.001303352415561676 -0.0009275907650589943 0.0 0.0 0.0 0.0
1.048 -0.6381524801254272 -0.3792383670806885 -0.001252317801117897 -0.0006035268306732178 0.0 0.0 0.0 0.0
1.049 -0.6460238099098206 -0.35618698596954346 -0.0014567123726010323 -0.0006592785939574242 0.0 0.0 0.0 0.0
1.05 -0.6552205085754395 -0.3301008343696594 -0.0015981579199433327 -0.0007089339196681976 0.0 0.0 0.0 0.0
1.051 -0.6591001152992249 -0.31689453125 -0.0016069747507572174 -0.0005117887631058693 0.0 0.0 0.0 0.0
1.052 -0.6674817204475403 -0.2937197983264923 -0.0015318682417273521 -0.00039889849722385406 0.0 0.0 0.0 0.0
1.053 -0.6733800768852234 -0.27783772349357605 -0.001497502438724041 -0.0006238901987671852 0.0 0.0 0.0 0.0
1.054 -0.6825365424156189 -0.25173550844192505 -0.001652429811656475 -0.00038625486195087433 0.0 0.0 0.0 0.0
1.055 -0.6848525404930115 -0.2338523417711258 -0.0015481850132346153 -0.00014689192175865173 0.0 0.0 0.0 0.0
1.056 -0.6920275688171387 -0.2144872397184372 -0.0014516795054078102 -0.0002511031925678253 0.0 0.0 0.0 0.0
1.057 -0.6919703483581543 -0.19089294970035553 -0.0016002953052520752 3.371480852365494e-05 0.0 0.0 0.0 0.0
1.058 -0.6976665258407593 -0.16380083560943604 -0.0015927907079458237 -0.0001398809254169464 0.0 0.0 0.0 0.0
1.059 -0.6982641816139221 -0.14778867363929749 -0.001352507621049881 -8.304044604301453e-05 0.0 0.0 0.0 0.0
1.06 -0.6998039484024048 -0.12097891420125961 -0.001544279046356678 0.0002035144716501236 0.0 0.0 0.0 0.0
1.061 -0.7007082104682922 -0.09965457022190094 -0.001681244932115078 3.725569695234299e-05 0.0 0.0 0.0 0.0
1.062 -0.698010265827179 -0.07842610031366348 -0.0016200980171561241 0.00032163597643375397 0.0 0.0 0.0 0.0
1.063 -0.6977648138999939 -0.05450225621461868 -0.001576937735080719 0.0001747533679008484 0.0 0.0 0.0 0.0
1.064 -0.6935903429985046 -0.030590619891881943 -0.0018705539405345917 0.0004458855837583542 0.0 0.0 0.0 0.0
1.065 -0.6902556419372559 -0.009911668486893177 -0.0015409020707011223 0.0004397928714752197 0.0 0.0 0.0 0.0
1.066 -0.685383677482605 0.010740910656750202 -0.0017018914222717285 0.0007801931351423264 0.0 0.0 0.0 0.0
1.067 -0.6828227043151855 0.03153064846992493 -0.0015946794301271439 0.0007339036092162132 0.0 0.0 0.0 0.0
1.068 -0.677579939365387 0.05151863768696785 -0.0016544321551918983 0.0008673323318362236 0.0 0.0 0.0 0.0
1.069 -0.672753095626831 0.07674962282180786 -0.001534205861389637 0.0008072545751929283 0.0 0.0 0.0 0.0
1.07 -0.6699893474578857 0.0968279018998146 -0.0017819041386246681 0.0009156130254268646 0.0 0.0 0.0 0.0
1.071 -0.6593947410583496 0.12191343307495117 -0.0016243364661931992 0.0010467953979969025 0.0 0.0 0.0 0.0
1.072 -0.6517239212989807 0.14003463089466095 -0.0014615729451179504 0.0012670587748289108 0.0 0.0 0.0 0.0
1.073 -0.642463743686676 0.16567209362983704 -0.0014070747420191765 0.001499975100159645 0.0 0.0 0.0 0.0
1.074 -0.6341118216514587 0.18106931447982788 -0.0014262879267334938 0.0016660336405038834 0.0 0.0 0.0 0.0
1.075 -0.623737096786499 0.20542994141578674 -0.0013116830959916115 0.001657199114561081 0.0 0.0 0.0 0.0
1.076 -0.6143269538879395 0.22122375667095184 -0.0010696537792682648 0.0017293160781264305 0.0 0.0 0.0 0.0
1.077 -0.6039458513259888 0.24605819582939148 -0.0009202053770422935 0.001783684827387333 0.0 0.0 0.0 0.0
1.078 -0.5933995246887207 0.2602962255477905 -0.0008971411734819412 0.0019599152728915215 0.0 0.0 0.0 0.0
1.079 -0.5785434246063232 0.2834417521953583 -0.0006484398618340492 0.0021369541063904762 0.0 0.0 0.0 0.0
1.08 -0.5633177161216736 0.30449700355529785 -0.0007221484556794167 0.0018549039959907532 0.0 0.0 0.0 0.0
1.081 -0.5524746179580688 0.31857770681381226 -0.0005289334803819656 0.002056797966361046 0.0 0.0 0.0 0.0
1.082 -0.5346059799194336 0.3385724723339081 -0.00028237421065568924 0.0022073956206440926 0.0 0.0 0.0 0.0
1.083 -0.5223938226699829 0.3520353138446808 -0.00039936602115631104 0.0020405398681759834 0.0 0.0 0.0 0.0
1.084 -0.5054432153701782 0.37203383445739746 -0.00014145579189062119 0.0019976356998085976 0.0 0.0 0.0 0.0
1.085 -0.49031439423561096 0.38445034623146057 -4.260241985321045e-05 0.0019355006515979767 0.0 0.0 0.0 0.0
1.086 -0.47424548864364624 0.40211358666419983 -0.00013960152864456177 0.0020058490335941315 0.0 0.0 0.0 0.0
1.087 -0.45608261227607727 0.4159178137779236 0.00026804301887750626 0.001917155459523201 0.0 0.0 0.0 0.0
1.088 -0.43993619084358215 0.4304035007953644 0.00030227936804294586 0.0018016370013356209 0.0 0.0 0.0 0.0
1.089 -0.4196320176124573 0.44374117255210876 0.0005614934489130974 0.0018157707527279854 0.0 0.0 0.0 0.0
1.09 -0.4037526249885559 0.45709872245788574 0.0008437503129243851 0.001899857074022293 0.0 0.0 0.0 0.0
1.091 -0.3820216953754425 0.4702133536338806 0.0005566077306866646 0.0017643840983510017 0.0 0.0 0.0 0.0
1.092 -0.36615657806396484 0.4808432459831238 0.0009675156325101852 0.0014702128246426582 0.0 0.0 0.0 0.0
1.093 -0.34367629885673523 0.4930683374404907 0.001071111299097538 0.001764136366546154 0.0 0.0 0.0 0.0
1.094 -0.32496392726898193 0.5037482976913452 0.001045004464685917 0.0015754811465740204 0.0 0.0 0.0 0.0
1.095 -0.3035658895969391 0.5170652866363525 0.0009417831897735596 0.001593349501490593 0.0 0.0 0.0 0.0
1.096 -0.2844645380973816 0.5224691033363342 0.0012046042829751968 0.0012807119637727737 0.0 0.0 0.0 0.0
1.097 -0.25980204343795776 0.5334694981575012 0.0012657074257731438 0.0014064488932490349 0.0 0.0 0.0 0.0
1.098 -0.24144643545150757 0.5394534468650818 0.0013984562829136848 0.0012570656836032867 0.0 0.0 0.0 0.0
1.099 -0.21789515018463135 0.5498190522193909 0.0014884890988469124 0.0012710494920611382 0.0 0.0 0.0 0.0
1.1 -0.19930237531661987 0.5561072826385498 0.0012814067304134369 0.0010888073593378067 0.0 0.0 0.0 0.0
1.101 -0.17392323911190033 0.5659198760986328 0.0013457341119647026 0.001168450340628624 0.0 0.0 0.0 0.0
1.102 -0.15580938756465912 0.5693097710609436 0.001454722136259079 0.0009993473067879677 0.0 0.0 0.0 0.0
1.103 -0.1322636604309082 0.5761166214942932 0.001414296217262745 0.0007468406111001968 0.0 0.0 0.0 0.0
1.104 -0.10141923278570175 0.5799858570098877 0.0013182777911424637 0.0007663695141673088 0.0 0.0 0.0 0.0
1.105 -0.0874655619263649 0.5828243494033813 0.001399611122906208 0.0006922418251633644 0.0 0.0 0.0 0.0
1.106 -0.06046868488192558 0.584659218788147 0.0014085108414292336 0.0007106680423021317 0.0 0.0 0.0 0.0
1.107 -0.041843898594379425 0.5868528485298157 0.001510036177933216 0.00041867606341838837 0.0 0.0 0.0 0.0
1.108 -0.014603055082261562 0.5878375768661499 0.0016643553972244263 0.000521540641784668 0.0 0.0 0.0 0.0
1.109 0.006086457520723343 0.5875855088233948 0.001657295972108841 0.0003930395469069481 0.0 0.0 0.0 0.0
1.11 0.0332808643579483 0.5879389047622681 0.0016471073031425476 0.00025468040257692337 0.0 0.0 0.0 0.0
1.111 0.051430121064186096 0.5857998132705688 0.0017638318240642548 0.0003721257671713829 0.0 0.0 0.0 0.0
1.112 0.07667813450098038 0.5858153104782104 0.0016613192856311798 0.00026235170662403107 0.0 0.0 0.0 0.0
1.113 0.10199692100286484 0.58226078748703 0.0016035251319408417 0.00014837924391031265 0.0 0.0 0.0 0.0
1.114 0.12406554073095322 0.5807443261146545 0.0016636969521641731 0.00021282583475112915 0.0 0.0 0.0 0.0
1.115 0.14551137387752533 0.5759159326553345 0.0017480533570051193 -3.288593143224716e-05 0.0 0.0 0.0 0.0
1.116 0.17274600267410278 0.5719124674797058 0.0016163680702447891 -4.430301487445831e-06 0.0 0.0 0.0 0.0
1.117 0.19530744850635529 0.5663185119628906 0.0016815010458230972 3.473833203315735e-05 0.0 0.0 0.0 0.0
1.118 0.21838392317295074 0.5626837015151978 0.0015505580231547356 -0.00023696571588516235 0.0 0.0 0.0 0.0
1.119 0.24050597846508026 0.5539552569389343 0.0017500454559922218 -0.00024556834250688553 0.0 0.0 0.0 0.0
1.12 0.2617049515247345 0.5492448210716248 0.0014999043196439743 -0.00040566641837358475 0.0 0.0 0.0 0.0
1.121 0.28698545694351196 0.540116548538208 0.00177797582000494 -0.00034251436591148376 0.0 0.0 0.0 0.0
1.122 0.3104746639728546 0.531254231929779 0.001427982933819294 -0.00038668327033519745 0.0 0.0 0.0 0.0
1.123 0.3348431885242462 0.5192885398864746 0.001628004014492035 -0.00052676722407341 0.0 0.0 0.0 0.0
1.124 0.3557097911834717 0.5104559659957886 0.0015246318653225899 -0.0007237512618303299 0.0 0.0 0.0 0.0
1.125 0.3809472322463989 0.4955548048019409 0.0015543857589364052 -0.0006045475602149963 0.0 0.0 0.0 0.0
1.126 0.3968451917171478 0.48601675033569336 0.001538928598165512 -0.0007675979286432266 0.0 0.0 0.0 0.0
1.127 0.4251968264579773 0.46990418434143066 0.0015661772340536118 -0.0007716752588748932 0.0 0.0 0.0 0.0
1.128 0.4466370940208435 0.45352256298065186 0.0015469472855329514 -0.0009956322610378265 0.0 0.0 0.0 0.0
1.129 0.4627956748008728 0.4422454535961151 0.0014641713351011276 -0.0010582087561488152 0.0 0.0 0.0 0.0
1.13 0.4842408299446106 0.4242947995662689 0.0013477019965648651 -0.0010616444051265717 0.0 0.0 0.0 0.0
1.131 0.5038341283798218 0.4079056978225708 0.0013259099796414375 -0.0013644332066178322 0.0 0.0 0.0 0.0
1.132 0.5228612422943115 0.3888157904148102 0.001355113461613655 -0.00136478990316391 0.0 0.0 0.0 0.0
1.133 0.5388475656509399 0.37330690026283264 0.0013044802471995354 -0.0011573582887649536 0.0 0.0 0.0 0.0
1.134 0.558753252029419 0.35295289754867554 0.0012072129175066948 -0.0011704722419381142 0.0 0.0 0.0 0.0
1.135 0.5738002061843872 0.3340429961681366 0.0008962824940681458 -0.0013958308845758438 0.0 0.0 0.0 0.0
1.136 0.5914536714553833 0.3114311397075653 0.0010357331484556198 -0.0014319401234388351 0.0 0.0 0.0 0.0
1.137 0.6044997572898865 0.29382142424583435 0.0007603820413351059 -0.001234365627169609 0.0 0.0 0.0 0.0
1.138 0.6216824054718018 0.2703877389431 0.000996527262032032 -0.0014655478298664093 0.0 0.0 0.0 0.0
1.139 0.6354691982269287 0.2470533698797226 0.0007945094257593155 -0.001320071518421173 0.0 0.0 0.0 0.0
1.14 0.6470463871955872 0.22665390372276306 0.0007605459541082382 -0.0016711493954062462 0.0 0.0 0.0 0.0
1.141 0.6597498059272766 0.20189815759658813 0.0007585883140563965 -0.00145783182233572 0.0 0.0 0.0 0.0
1.142 0.671805739402771 0.1824979931116104 0.0004661930724978447 -0.0013318387791514397 0.0 0.0 0.0 0.0
1.143 0.6835343241691589 0.15600226819515228 0.000608326867222786 -0.0013797413557767868 0.0 0.0 0.0 0.0
1.144 0.6937792897224426 0.13654369115829468 0.0003561805933713913 -0.0015049334615468979 0.0 0.0 0.0 0.0
1.145 0.7028219103813171 0.10566867142915726 0.0002740910276770592 -0.0015230877324938774 0.0 0.0 0.0 0.0
1.146 0.7109633088111877 0.0846358984708786 0.00044618546962738037 -0.0014082388952374458 0.0 0.0 0.0 0.0
1.147 0.7219309210777283 0.05484890192747116 0.0003118235617876053 -0.0014146910980343819 0.0 0.0 0.0 0.0
1.148 0.7258398532867432 0.030629301443696022 0.00018917396664619446 -0.0014773895964026451 0.0 0.0 0.0 0.0
1.149 0.7340439558029175 0.002764192409813404 0.0003936178982257843 -0.0014934306964278221 0.0 0.0 0.0 0.0
1.15 0.7348511219024658 -0.01935696229338646 0.00015340372920036316 -0.0015021739527583122 0.0 0.0 0.0 0.0
1.151 0.7398525476455688 -0.04725077003240585 -9.443610906600952e-07 -0.001412857323884964 0.0 0.0 0.0 0.0
1.152 0.7402352690696716 -0.07651287317276001 3.7400983273983e-05 -0.0014267601072788239 0.0 0.0 0.0 0.0
1.153 0.7435460686683655 -0.10303562134504318 -5.332194268703461e-05 -0.0016271555796265602 0.0 0.0 0.0 0.0
1.154 0.7425815463066101 -0.13130447268486023 -0.00013674329966306686 -0.0015074815601110458 0.0 0.0 0.0 0.0
1.155 0.7450603246688843 -0.1552327275276184 -1.026596873998642e-05 -0.001310083083808422 0.0 0.0 0.0 0.0
1.156 0.7437224388122559 -0.18814153969287872 -7.897242903709412e-05 -0.0014714673161506653 0.0 0.0 0.0 0.0
1.157 0.740420937538147 -0.2147688865661621 -0.00020630843937397003 -0.0015021152794361115 0.0 0.0 0.0 0.0
1.158 0.7345054149627686 -0.24483457207679749 -0.00019543804228305817 -0.0014120033010840416 0.0 0.0 0.0 0.0
1.159 0.7316464781761169 -0.2676997780799866 -0.00039972830563783646 -0.0016379225999116898 0.0 0.0 0.0 0.0
1.16 0.719735860824585 -0.2999858558177948 -0.0005075093358755112 -0.001494603231549263 0.0 0.0 0.0 0.0
1.161 0.7162081003189087 -0.32136091589927673 -0.0003621019423007965 -0.0014428645372390747 0.0 0.0 0.0 0.0
1.162 0.7045956254005432 -0.35419169068336487 -0.0004802905023097992 -0.0016358941793441772 0.0 0.0 0.0 0.0
1.163 0.6926636695861816 -0.37443992495536804 -0.0005444251000881195 -0.0013282839208841324 0.0 0.0 0.0 0.0
1.164 0.6841327548027039 -0.40529271960258484 -0.00033605657517910004 -0.0014441674575209618 0.0 0.0 0.0 0.0
1.165 0.6709510684013367 -0.4235095977783203 -0.0006107604131102562 -0.001485130749642849 0.0 0.0 0.0 0.0
1.166 0.6604124903678894 -0.45174142718315125 -0.0004939595237374306 -0.001404711976647377 0.0 0.0 0.0 0.0
1.167 0.6449552774429321 -0.4701854884624481 -0.0006339158862829208 -0.001261402852833271 0.0 0.0 0.0 0.0
1.168 0.6322298645973206 -0.496027410030365 -0.0007097227498888969 -0.0012869946658611298 0.0 0.0 0.0 0.0
1.169 0.6172397136688232 -0.5171390175819397 -0.0006038928404450417 -0.001418212428689003 0.0 0.0 0.0 0.0
1.17 0.5953129529953003 -0.544563353061676 -0.0008084084838628769 -0.0013665668666362762 0.0 0.0 0.0 0.0
1.171 0.5806593894958496 -0.5593330264091492 -0.0008357120677828789 -0.001286746934056282 0.0 0.0 0.0 0.0
1.172 0.5664385557174683 -0.5774160027503967 -0.0007404042407870293 -0.001346317119896412 0.0 0.0 0.0 0.0
1.173 0.5475654006004333 -0.6027354001998901 -0.0007348908111453056 -0.001285715028643608 0.0 0.0 0.0 0.0
1.174 0.5292239785194397 -0.614943265914917 -0.000950392335653305 -0.0014560557901859283 0.0 0.0 0.0 0.0
1.175 0.5073485970497131 -0.6370054483413696 -0.000870835967361927 -0.0011387253180146217 0.0 0.0 0.0 0.0
1.176 0.48915696144104004 -0.6478684544563293 -0.0008972799405455589 -0.0011106375604867935 0.0 0.0 0.0 0.0
1.177 0.467661052942276 -0.6627458930015564 -0.0012353193014860153 -0.0014794981107115746 0.0 0.0 0.0 0.0
1.178 0.44358357787132263 -0.6810624003410339 -0.0012014620006084442 -0.0012371884658932686 0.0 0.0 0.0 0.0
1.179 0.424704372882843 -0.6942071318626404 -0.0012001646682620049 -0.001229558140039444 0.0 0.0 0.0 0.0
1.18 0.40557605028152466 -0.7018510699272156 -0.0016655800864100456 -0.0011033415794372559 0.0 0.0 0.0 0.0
1.181 0.3849310874938965 -0.7151055335998535 -0.0014436431229114532 -0.0010560769587755203 0.0 0.0 0.0 0.0
1.182 0.3589882552623749 -0.7310749292373657 -0.0014659985899925232 -0.0010197237133979797 0.0 0.0 0.0 0.0
1.183 0.3439951241016388 -0.7376849055290222 -0.0015453333035111427 -0.0008873539045453072 0.0 0.0 0.0 0.0
1.184 0.3185182511806488 -0.7493260502815247 -0.0015407418832182884 -0.0007456699386239052 0.0 0.0 0.0 0.0
1.185 0.2996007800102234 -0.7572751045227051 -0.0014597102999687195 -0.0008839881047606468 0.0 0.0 0.0 0.0
1.186 0.26988011598587036 -0.7684770226478577 -0.001812758855521679 -0.0008706804364919662 0.0 0.0 0.0 0.0
1.187 0.2529745101928711 -0.7748571038246155 -0.0015856251120567322 -0.000751047395169735 0.0 0.0 0.0 0.0
1.188 0.22557981312274933 -0.7870048880577087 -0.0016209343448281288 -0.0006341151893138885 0.0 0.0 0.0 0.0
1.189 0.20042695105075836 -0.7898217439651489 -0.001805407926440239 -0.0005073528736829758 0.0 0.0 0.0 0.0
1.19 0.1787206083536148 -0.7950567603111267 -0.0018600355833768845 -0.0005363151431083679 0.0 0.0 0.0 0.0
1.191 0.15277542173862457 -0.7999379634857178 -0.001790597103536129 -0.0003503439947962761 0.0 0.0 0.0 0.0
1.192 0.13470587134361267 -0.803625226020813 -0.002081349492073059 -0.0003162110224366188 0.0 0.0 0.0 0.0
1.193 0.10775475203990936 -0.8038811087608337 -0.0019085314124822617 -0.00015695486217737198 0.0 0.0 0.0 0.0
1.194 0.08754443377256393 -0.8075574636459351 -0.0017920834943652153 -0.0001277383416891098 0.0 0.0 0.0 0.0
1.195 0.05909349396824837 -0.8051583766937256 -0.00196691881865263 -9.959284216165543e-05 0.0 0.0 0.0 0.0
1.196 0.03700282424688339 -0.8062105178833008 -0.0019486919045448303 9.149778634309769e-05 0.0 0.0 0.0 0.0
1.197 0.011689462698996067 -0.8082488775253296 -0.0017904238775372505 -0.00011556688696146011 0.0 0.0 0.0 0.0
1.198 -0.006532127037644386 -0.8049289584159851 -0.001962152309715748 4.318449646234512e-05 0.0 0.0 0.0 0.0
1.199 -0.03943151608109474 -0.8029575943946838 -0.0019568223506212234 6.37304037809372e-05 0.0 0.0 0.0 0.0
1.2 -0.0631011426448822 -0.7986565232276917 -0.0019662678241729736 0.0002779494971036911 0.0 0.0 0.0 0.0
1.201 -0.08393432945013046 -0.7956556677818298 -0.0022882362827658653 0.00017312448471784592 0.0 0.0 0.0 0.0
1.202 -0.10084934532642365 -0.791998565196991 -0.0020808428525924683 0.0002712514251470566 0.0 0.0 0.0 0.0
1.203 -0.13149644434452057 -0.7884029746055603 -0.0017633279785513878 0.00040092598646879196 0.0 0.0 0.0 0.0
1.204 -0.14573833346366882 -0.7803780436515808 -0.0021823784336447716 0.0005458611994981766 0.0 0.0 0.0 0.0
1.205 -0.16738270223140717 -0.7759753465652466 -0.002021128311753273 0.0007530031725764275 0.0 0.0 0.0 0.0
1.206 -0.19519218802452087 -0.7628347873687744 -0.0021941550076007843 0.0008332878351211548 0.0 0.0 0.0 0.0
1.207 -0.21399667859077454 -0.7589573860168457 -0.002154163084924221 0.0007687564939260483 0.0 0.0 0.0 0.0
1.208 -0.23913145065307617 -0.7478763461112976 -0.001962505280971527 0.0010693995282053947 0.0 0.0 0.0 0.0
1.209 -0.25218695402145386 -0.7398213744163513 -0.002233751118183136 0.0011253245174884796 0.0 0.0 0.0 0.0
1.21 -0.2777363657951355 -0.7252298593521118 -0.0021443720906972885 0.0014374619349837303 0.0 0.0 0.0 0.0
1.211 -0.2949141263961792 -0.7169370651245117 -0.0020937221124768257 0.001446031965315342 0.0 0.0 0.0 0.0
1.212 -0.3169787526130676 -0.7030251622200012 -0.001752825453877449 0.0016710655763745308 0.0 0.0 0.0 0.0
1.213 -0.3294159770011902 -0.6938933730125427 -0.0018905876204371452 0.0016216421499848366 0.0 0.0 0.0 0.0
1.214 -0.35325169563293457 -0.6809302568435669 -0.0017314394935965538 0.0018130093812942505 0.0 0.0 0.0 0.0
1.215 -0.36334991455078125 -0.6662011742591858 -0.0015112627297639847 0.0019129356369376183 0.0 0.0 0.0 0.0
1.216 -0.39244309067726135 -0.6458624601364136 -0.0015174057334661484 0.002111450769007206 0.0 0.0 0.0 0.0
1.217 -0.39873847365379333 -0.6354826092720032 -0.0014642253518104553 0.0021206391975283623 0.0 0.0 0.0 0.0
1.218 -0.4188154637813568 -0.6194561123847961 -0.0013567367568612099 0.0020196009427309036 0.0 0.0 0.0 0.0
1.219 -0.4330861270427704 -0.6067212820053101 -0.0012899618595838547 0.00230209156870842 0.0 0.0 0.0 0.0
1.22 -0.44765257835388184 -0.5896362066268921 -0.0011825188994407654 0.0024465974420309067 0.0 0.0 0.0 0.0
1.221 -0.4607316553592682 -0.5711358785629272 -0.0008491566404700279 0.0022366708144545555 0.0 0.0 0.0 0.0
1.222 -0.4696927070617676 -0.5593739151954651 -0.0008283928036689758 0.002576950006186962 0.0 0.0 0.0 0.0
1.223 -0.4888772964477539 -0.5390112400054932 -0.0006732502952218056 0.002450178377330303 0.0 0.0 0.0 0.0
1.224 -0.49712419509887695 -0.5269861817359924 -0.0006943121552467346 0.002343081869184971 0.0 0.0 0.0 0.0
1.225 -0.5115267634391785 -0.5088375806808472 -0.00036076735705137253 0.0024754097685217857 0.0 0.0 0.0 0.0
1.226 -0.5187255144119263 -0.4920729100704193 -0.00026104599237442017 0.002518332563340664 0.0 0.0 0.0 0.0
1.227 -0.5289729833602905 -0.47413763403892517 -7.169879972934723e-05 0.0024992702528834343 0.0 0.0 0.0 0.0
1.228 -0.5397312045097351 -0.4504852890968323 0.0001466004177927971 0.00258774496614933 0.0 0.0 0.0 0.0
1.229 -0.5460055470466614 -0.43549418449401855 0.0002797413617372513 0.002723041921854019 0.0 0.0 0.0 0.0
1.23 -0.5568126440048218 -0.4158550500869751 0.0003874730318784714 0.002535957843065262 0.0 0.0 0.0 0.0
1.231 -0.5627026557922363 -0.40172079205513 0.0004626801237463951 0.0024153394624590874 0.0 0.0 0.0 0.0
1.232 -0.5704970955848694 -0.37732386589050293 0.000520847737789154 0.0023813657462596893 0.0 0.0 0.0 0.0
1.233 -0.5745538473129272 -0.36352860927581787 0.0010085618123412132 0.002349063754081726 0.0 0.0 0.0 0.0
1.234 -0.5842368602752686 -0.34385937452316284 0.0008098511025309563 0.002185314893722534 0.0 0.0 0.0 0.0
1.235 -0.5872243046760559 -0.3282543122768402 0.0007679974660277367 0.002227647230029106 0.0 0.0 0.0 0.0
1.236 -0.591548502445221 -0.30489256978034973 0.0010869652032852173 0.002093244343996048 0.0 0.0 0.0 0.0
1.237 -0.596468985080719 -0.2919037640094757 0.0010452251881361008 0.002047508955001831 0.0 0.0 0.0 0.0
1.238 -0.6029004454612732 -0.2688572406768799 0.0012354692444205284 0.001894371584057808 0.0 0.0 0.0 0.0
1.239 -0.6037841439247131 -0.25414761900901794 0.001419132575392723 0.0019263848662376404 0.0 0.0 0.0 0.0
1.24 -0.6126142740249634 -0.2311277538537979 0.00133559200912714 0.0016660438850522041 0.0 0.0 0.0 0.0
1.241 -0.6114715933799744 -0.21603235602378845 0.0013502603396773338 0.001683514565229416 0.0 0.0 0.0 0.0
1.242 -0.614230751991272 -0.19468626379966736 0.0014208164066076279 0.0017759455367922783 0.0 0.0 0.0 0.0
1.243 -0.6145577430725098 -0.1726563721895218 0.0015273317694664001 0.0015645353123545647 0.0 0.0 0.0 0.0
1.244 -0.6167610287666321 -0.1547413170337677 0.0015275711193680763 0.0015304144471883774 0.0 0.0 0.0 0.0
1.245 -0.6170704364776611 -0.13050477206707 0.0016755061224102974 0.0013273637741804123 0.0 0.0 0.0 0.0
1.246 -0.6165366768836975 -0.11433551460504532 0.0017419131472706795 0.0014286721125245094 0.0 0.0 0.0 0.0
1.247 -0.6180716753005981 -0.09342457354068756 0.001751192845404148 0.0011050030589103699 0.0 0.0 0.0 0.0
1.248 -0.6125272512435913 -0.07906745374202728 0.00195270124822855 0.0007093073800206184 0.0 0.0 0.0 0.0
1.249 -0.6087013483047485 -0.054138924926519394 0.0020756814628839493 0.000994991511106491 0.0 0.0 0.0 0.0
1.25 -0.6071761250495911 -0.041850022971630096 0.0016571087762713432 0.0007517524063587189 0.0 0.0 0.0 0.0
1.251 -0.60518878698349 -0.016169540584087372 0.001912747509777546 0.0008920980617403984 0.0 0.0 0.0 0.0
1.252 -0.6013171672821045 -0.005054661072790623 0.001991618424654007 0.00078610610216856 0.0 0.0 0.0 0.0
1.253 -0.5979453921318054 0.016905436292290688 0.001967407763004303 0.0006473390385508537 0.0 0.0 0.0 0.0
1.254 -0.5935500264167786 0.0360235832631588 0.0019615059718489647 0.00036575738340616226 0.0 0.0 0.0 0.0
1.255 -0.5883051753044128 0.05535499006509781 0.001982077956199646 0.0005236566066741943 0.0 0.0 0.0 0.0
1.256 -0.5837239623069763 0.07342629879713058 0.0019101537764072418 0.00022306665778160095 0.0 0.0 0.0 0.0
1.257 -0.5753474831581116 0.09132549911737442 0.0019277026876807213 0.0002892967313528061 0.0 0.0 0.0 0.0
1.258 -0.5661423802375793 0.11369405686855316 0.002027609385550022 0.00044020358473062515 0.0 0.0 0.0 0.0
1.259 -0.5594488978385925 0.12583036720752716 0.00222221203148365 -1.069437712430954e-05 0.0 0.0 0.0 0.0
1.26 -0.547688364982605 0.14737197756767273 0.0020704371854662895 -3.738701343536377e-05 0.0 0.0 0.0 0.0
1.261 -0.5420514941215515 0.16174499690532684 0.0019697025418281555 -5.167722702026367e-05 0.0 0.0 0.0 0.0
1.262 -0.5314306616783142 0.17866739630699158 0.001965555362403393 -0.00019428227096796036 0.0 0.0 0.0 0.0
1.263 -0.5187958478927612 0.19394546747207642 0.0020401477813720703 -0.000347052700817585 0.0 0.0 0.0 0.0
1.264 -0.5080798864364624 0.20833781361579895 0.002137337811291218 -0.0003486117348074913 0.0 0.0 0.0 0.0
1.265 -0.4968755841255188 0.22586911916732788 0.0019512800499796867 -0.00046901311725378036 0.0 0.0 0.0 0.0
1.266 -0.487368643283844 0.2404918372631073 0.0016460791230201721 -0.0008079921826720238 0.0 0.0 0.0 0.0
1.267 -0.4728429615497589 0.25441932678222656 0.0019140243530273438 -0.0005654813721776009 0.0 0.0 0.0 0.0
1.268 -0.4632236063480377 0.26711592078208923 0.0016261609271168709 -0.0007932400330901146 0.0 0.0 0.0 0.0
1.269 -0.45060670375823975 0.28059691190719604 0.0016786791384220123 -0.0010810941457748413 0.0 0.0 0.0 0.0
1.27 -0.43775126338005066 0.2915964722633362 0.0016613118350505829 -0.0007529407739639282 0.0 0.0 0.0 0.0
1.271 -0.4235580861568451 0.30590009689331055 0.0017801187932491302 -0.0011193091049790382 0.0 0.0 0.0 0.0
1.272 -0.4124174416065216 0.31607624888420105 0.0014483435079455376 -0.0011465130373835564 0.0 0.0 0.0 0.0
1.273 -0.3988090753555298 0.3302026689052582 0.0016982760280370712 -0.0012213634327054024 0.0 0.0 0.0 0.0
1.274 -0.38614147901535034 0.33933937549591064 0.001593329943716526 -0.0013846047222614288 0.0 0.0 0.0 0.0
1.275 -0.37294045090675354 0.35240694880485535 0.0013195844367146492 -0.001301400363445282 0.0 0.0 0.0 0.0
1.276 -0.35795527696609497 0.36576876044273376 0.001226421445608139 -0.001491171307861805 0.0 0.0 0.0 0.0
1.277 -0.34528371691703796 0.3763781785964966 0.0011307252570986748 -0.0014028791338205338 0.0 0.0 0.0 0.0
1.278 -0.3287487030029297 0.38892367482185364 0.000994732603430748 -0.0015683090314269066 0.0 0.0 0.0 0.0
1.279 -0.3159126341342926 0.3965003192424774 0.0011113816872239113 -0.001759619452059269 0.0 0.0 0.0 0.0
1.28 -0.29645493626594543 0.4110308587551117 0.0007916800677776337 -0.0014919508248567581 0.0 0.0 0.0 0.0
1.281 -0.28223109245300293 0.417332261800766 0.0008949190378189087 -0.0017408384010195732 0.0 0.0 0.0 0.0
1.282 -0.2615028917789459 0.43041300773620605 0.0007077129557728767 -0.0014737360179424286 0.0 0.0 0.0 0.0
1.283 -0.24623477458953857 0.4343101680278778 0.0007022200152277946 -0.001829138956964016 0.0 0.0 0.0 0.0
1.284 -0.2277805656194687 0.44316577911376953 0.0004149181768298149 -0.0017614662647247314 0.0 0.0 0.0 0.0
1.285 -0.20948071777820587 0.4489538073539734 0.00031839869916439056 -0.0017370115965604782 0.0 0.0 0.0 0.0
1.286 -0.19447779655456543 0.4542238712310791 0.00027382373809814453 -0.0017440300434827805 0.0 0.0 0.0 0.0
1.287 -0.17153997719287872 0.4614390730857849 0.00023911334574222565 -0.001893332228064537 0.0 0.0 0.0 0.0
1.288 -0.15787263214588165 0.46515268087387085 0.0002367394044995308 -0.0018673697486519814 0.0 0.0 0.0 0.0
1.289 -0.1393520087003708 0.47043895721435547 2.7417205274105072e-05 -0.0018411623314023018 0.0 0.0 0.0 0.0
1.29 -0.11900033801794052 0.4762067496776581 -5.1087699830532074e-05 -0.0016565881669521332 0.0 0.0 0.0 0.0
1.291 -0.0993412658572197 0.48139679431915283 -0.00011611916124820709 -0.0016388744115829468 0.0 0.0 0.0 0.0
1.292 -0.08263712376356125 0.4823269844055176 -4.46271151304245e-05 -0.0016662022098898888 0.0 0.0 0.0 0.0
1.293 -0.06262307614088058 0.4868987202644348 -0.00033934973180294037 -0.0017373394221067429 0.0 0.0 0.0 0.0
1.294 -0.04262155666947365 0.4882088303565979 -0.00035250093787908554 -0.0013947449624538422 0.0 0.0 0.0 0.0
1.295 -0.02105088345706463 0.4881947338581085 -0.0005616769194602966 -0.0015123458579182625 0.0 0.0 0.0 0.0
1.296 -0.006538836285471916 0.48856988549232483 -0.0006608301773667336 -0.0016714343801140785 0.0 0.0 0.0 0.0
1.297 0.01749923825263977 0.4877837598323822 -0.0003299126401543617 -0.0013533150777220726 0.0 0.0 0.0 0.0
1.298 0.03393229469656944 0.4855446517467499 -0.0005861781537532806 -0.0014820294454693794 0.0 0.0 0.0 0.0
1.299 0.055393170565366745 0.48316189646720886 -0.0007078526541590691 -0.001486077904701233 0.0 0.0 0.0 0.0
1.3 0.07153775542974472 0.48158159852027893 -0.0006167357787489891 -0.0012634098529815674 0.0 0.0 0.0 0.0
1.301 0.08990073204040527 0.4798663258552551 -0.0008439011871814728 -0.001216001808643341 0.0 0.0 0.0 0.0
1.302 0.11216367036104202 0.4733687937259674 -0.0007529528811573982 -0.0013214219361543655 0.0 0.0 0.0 0.0
1.303 0.12977026402950287 0.4706111550331116 -0.000749015249311924 -0.001186576671898365 0.0 0.0 0.0 0.0
1.304 0.14715738594532013 0.46223342418670654 -0.0008033961057662964 -0.00111418217420578 0.0 0.0 0.0 0.0
1.305 0.16123342514038086 0.4582616984844208 -0.0009860405698418617 -0.0011174147948622704 0.0 0.0 0.0 0.0
1.306 0.18535131216049194 0.44815531373023987 -0.0008749924600124359 -0.0011460641399025917 0.0 0.0 0.0 0.0
1.307 0.1949673891067505 0.44417035579681396 -0.0010020630434155464 -0.0012261318042874336 0.0 0.0 0.0 0.0
1.308 0.20972928404808044 0.43880710005760193 -0.0011512544006109238 -0.0010557742789387703 0.0 0.0 0.0 0.0
1.309 0.2265091985464096 0.42853057384490967 -0.0012051481753587723 -0.0009499397128820419 0.0 0.0 0.0 0.0
1.31 0.2410401850938797 0.4242560565471649 -0.001233070157468319 -0.0010270299389958382 0.0 0.0 0.0 0.0
1.311 0.25623655319213867 0.4170996844768524 -0.0012575723230838776 -0.0007694680243730545 0.0 0.0 0.0 0.0
1.312 0.2740572988986969 0.4102170169353485 -0.001131444238126278 -0.0007616318762302399 0.0 0.0 0.0 0.0
1.313 0.28966307640075684 0.4022413194179535 -0.0015000887215137482 -0.0007586749270558357 0.0 0.0 0.0 0.0
1.314 0.3014453649520874 0.3968578577041626 -0.0015670564025640488 -0.0007722321897745132 0.0 0.0 0.0 0.0
1.315 0.32010310888290405 0.38505494594573975 -0.0013864301145076752 -0.0007524695247411728 0.0 0.0 0.0 0.0
1.316 0.33178967237472534 0.3798049986362457 -0.0013579558581113815 -0.0005788374692201614 0.0 0.0 0.0 0.0
1.317 0.35162124037742615 0.3708183765411377 -0.0013922005891799927 -0.0003933524712920189 0.0 0.0 0.0 0.0
1.318 0.36571648716926575 0.36103031039237976 -0.0016113417223095894 -0.0003076726570725441 0.0 0.0 0.0 0.0
1.319 0.3844583034515381 0.34974250197410583 -0.0015874756500124931 -0.00036758091300725937 0.0 0.0 0.0 0.0
1.32 0.3984420597553253 0.33782458305358887 -0.0014523938298225403 -0.0002164505422115326 0.0 0.0 0.0 0.0
1.321 0.4154316782951355 0.32816261053085327 -0.0016846871003508568 -8.850358426570892e-05 0.0 0.0 0.0 0.0
1.322 0.42941874265670776 0.31595465540885925 -0.0017952397465705872 -0.0001803562045097351 0.0 0.0 0.0 0.0
1.323 0.44638481736183167 0.3030869960784912 -0.0017745187506079674 0.0001859329640865326 0.0 0.0 0.0 0.0
1.324 0.46147122979164124 0.2865229547023773 -0.0017365990206599236 0.00012549106031656265 0.0 0.0 0.0 0.0
1.325 0.475838303565979 0.2708815038204193 -0.0017340630292892456 0.00023635104298591614 0.0 0.0 0.0 0.0
1.326 0.4906383752822876 0.25218963623046875 -0.0016743792220950127 0.000382385216653347 0.0 0.0 0.0 0.0
1.327 0.5007970929145813 0.24018442630767822 -0.0018030479550361633 0.00043806247413158417 0.0 0.0 0.0 0.0
1.328 0.5133427977561951 0.2206539511680603 -0.0015903608873486519 0.0005868356674909592 0.0 0.0 0.0 0.0
1.329 0.5231478214263916 0.20403963327407837 -0.0018482441082596779 0.0006434377282857895 0.0 0.0 0.0 0.0
1.33 0.5337595343589783 0.18513356149196625 -0.001857161521911621 0.0007778946310281754 0.0 0.0 0.0 0.0
1.331 0.5435980558395386 0.16901841759681702 -0.0016675814986228943 0.0008166274055838585 0.0 0.0 0.0 0.0
1.332 0.5523629188537598 0.1489039659500122 -0.0015511242672801018 0.0009921230375766754 0.0 0.0 0.0 0.0
1.333 0.5602720379829407 0.13498081266880035 -0.0014731502160429955 0.000997425988316536 0.0 0.0 0.0 0.0
1.334 0.5731444954872131 0.11204545199871063 -0.0013991855084896088 0.0010876283049583435 0.0 0.0 0.0 0.0
1.335 0.5799077153205872 0.0975382998585701 -0.001356915570795536 0.0012795720249414444 0.0 0.0 0.0 0.0
1.336 0.5892544984817505 0.07212474942207336 -0.0013124831020832062 0.0011597033590078354 0.0 0.0 0.0 0.0
1.337 0.5965614318847656 0.0543261356651783 -0.001240958459675312 0.0013894764706492424 0.0 0.0 0.0 0.0
1.338 0.6035916209220886 0.03377874940633774 -0.0012317327782511711 0.001519639976322651 0.0 0.0 0.0 0.0
1.339 0.6076984405517578 0.010433529503643513 -0.0010225018486380577 0.0014343848451972008 0.0 0.0 0.0 0.0
1.34 0.6115142107009888 -0.011899531818926334 -0.0012354152277112007 0.001776331104338169 0.0 0.0 0.0 0.0
1.341 0.6135937571525574 -0.038399588316679 -0.0007913410663604736 0.001645759679377079 0.0 0.0 0.0 0.0
1.342 0.6158586740493774 -0.05754999816417694 -0.000722578726708889 0.0016350671648979187 0.0 0.0 0.0 0.0
1.343 0.6159669160842896 -0.08293026685714722 -0.001017673872411251 0.001806851476430893 0.0 0.0 0.0 0.0
1.344 0.6168732643127441 -0.09792345017194748 -0.0006825551390647888 0.0016977479681372643 0.0 0.0 0.0 0.0
1.345 0.6159192323684692 -0.1281549036502838 -0.0006439648568630219 0.0016038836911320686 0.0 0.0 0.0 0.0
1.346 0.6143432259559631 -0.14565424621105194 -0.0005531338974833488 0.0018973862752318382 0.0 0.0 0.0 0.0
1.347 0.6122130751609802 -0.1709810197353363 -0.0003843652084469795 0.0017757080495357513 0.0 0.0 0.0 0.0
1.348 0.6072677373886108 -0.19013522565364838 -0.0004922244697809219 0.0018927576020359993 0.0 0.0 0.0 0.0
1.349 0.6028354167938232 -0.2133181244134903 -0.00015931762754917145 0.001945124939084053 0.0 0.0 0.0 0.0
1.35 0.5996394753456116 -0.2323939949274063 -9.80747863650322e-05 0.002000664360821247 0.0 0.0 0.0 0.0
1.351 0.5929816365242004 -0.25438612699508667 -0.00020290259271860123 0.0019124867394566536 0.0 0.0 0.0 0.0
1.352 0.5886786580085754 -0.27482590079307556 7.967837154865265e-05 0.0022131716832518578 0.0 0.0 0.0 0.0
1.353 0.5796453356742859 -0.3008248507976532 0.0004253219813108444 0.002112720161676407 0.0 0.0 0.0 0.0
1.354 0.5761457085609436 -0.3141038715839386 8.378736674785614e-05 0.0021882066503167152 0.0 0.0 0.0 0.0
1.355 0.5603892207145691 -0.34204694628715515 0.0004626261070370674 0.0022769002243876457 0.0 0.0 0.0 0.0
1.356 0.5499773025512695 -0.36935725808143616 0.0007640514522790909 0.002211291342973709 0.0 0.0 0.0 0.0
1.357 0.5368876457214355 -0.3834902048110962 0.0006824005395174026 0.002066386863589287 0.0 0.0 0.0 0.0
1.358 0.5248337388038635 -0.39953508973121643 0.0008320603519678116 0.002067071385681629 0.0 0.0 0.0 0.0
1.359 0.5085276365280151 -0.4245256185531616 0.0010359575971961021 0.002081410028040409 0.0 0.0 0.0 0.0
1.36 0.4947166442871094 -0.43858394026756287 0.0009944802150130272 0.0019827187061309814 0.0 0.0 0.0 0.0
1.361 0.4784261882305145 -0.4585551619529724 0.001394864171743393 0.0019868016242980957 0.0 0.0 0.0 0.0
1.362 0.46293485164642334 -0.4717599153518677 0.0012028291821479797 0.0019306018948554993 0.0 0.0 0.0 0.0
1.363 0.44428393244743347 -0.4893842935562134 0.0015104198828339577 0.001862470991909504 0.0 0.0 0.0 0.0
1.364 0.4291328191757202 -0.5001518726348877 0.00155600905418396 0.0017779991030693054 0.0 0.0 0.0 0.0
1.365 0.40687447786331177 -0.5169759392738342 0.001626504585146904 0.0018728263676166534 0.0 0.0 0.0 0.0
1.366 0.38773009181022644 -0.5280210375785828 0.001829393208026886 0.001875326968729496 0.0 0.0 0.0 0.0
1.367 0.3702349364757538 -0.5446879267692566 0.0020673098042607307 0.0017695454880595207 0.0 0.0 0.0 0.0
1.368 0.3488365709781647 -0.5492916107177734 0.0021747369319200516 0.0015404680743813515 0.0 0.0 0.0 0.0
1.369 0.334971159696579 -0.5593480467796326 0.002244786359369755 0.0015587136149406433 0.0 0.0 0.0 0.0
1.37 0.3072510063648224 -0.5724561214447021 0.0024889493361115456 0.001226525753736496 0.0 0.0 0.0 0.0
1.371 0.29406261444091797 -0.5734810829162598 0.0026516802608966827 0.0011752089485526085 0.0 0.0 0.0 0.0
1.372 0.2641851603984833 -0.5791814923286438 0.0023979181423783302 0.0010779639706015587 0.0 0.0 0.0 0.0
1.373 0.25449085235595703 -0.5807245969772339 0.002440541982650757 0.0008949460461735725 0.0 0.0 0.0 0.0
1.374 0.23260752856731415 -0.5856072306632996 0.002710665576159954 0.0007678363472223282 0.0 0.0 0.0 0.0
1.375 0.21508178114891052 -0.5890123844146729 0.0026323720812797546 0.00035229045897722244 0.0 0.0 0.0 0.0
1.376 0.18808051943778992 -0.5925893187522888 0.0026196222752332687 0.00034791789948940277 0.0 0.0 0.0 0.0
1.377 0.17543360590934753 -0.5919958353042603 0.0029607191681861877 0.00012924149632453918 0.0 0.0 0.0 0.0
1.378 0.15444542467594147 -0.5953794121742249 0.0029041701927781105 -0.0002071429044008255 0.0 0.0 0.0 0.0
1.379 0.13877911865711212 -0.5892547369003296 0.002662176266312599 -2.965424209833145e-05 0.0 0.0 0.0 0.0
1.38 0.12313991039991379 -0.5898706316947937 0.0028833942487835884 -0.0003298921510577202 0.0 0.0 0.0 0.0
1.381 0.10738543421030045 -0.5892044305801392 0.0028746090829372406 -0.00047643110156059265 0.0 0.0 0.0 0.0
1.382 0.08635368943214417 -0.5861961841583252 0.002861611545085907 -0.0006432812660932541 0.0 0.0 0.0 0.0
1.383 0.0731797069311142 -0.5816853642463684 0.0028067119419574738 -0.0008813729509711266 0.0 0.0 0.0 0.0
1.384 0.06089257448911667 -0.5818585157394409 0.0028858156874775887 -0.0010029058903455734 0.0 0.0 0.0 0.0
1.385 0.03928590565919876 -0.5766151547431946 0.0025630081072449684 -0.0012543071061372757 0.0 0.0 0.0 0.0
1.386 0.03416578844189644 -0.5728537440299988 0.002774409018456936 -0.0013867979869246483 0.0 0.0 0.0 0.0
1.387 0.01646079123020172 -0.5714496374130249 0.00261495728045702 -0.0015986636281013489 0.0 0.0 0.0 0.0
1.388 0.007118828594684601 -0.5665596723556519 0.0023479973897337914 -0.0015365583822131157 0.0 0.0 0.0 0.0
1.389 -0.00882964301854372 -0.5652942657470703 0.0025987252593040466 -0.0019170278683304787 0.0 0.0 0.0 0.0
1.39 -0.02103329822421074 -0.5605760216712952 0.0022849543020129204 -0.0018104109913110733 0.0 0.0 0.0 0.0
1.391 -0.036120034754276276 -0.5608382225036621 0.002356472425162792 -0.0020985072478652 0.0 0.0 0.0 0.0
1.392 -0.04482857137918472 -0.551409900188446 0.0021143732592463493 -0.002232307568192482 0.0 0.0 0.0 0.0
1.393 -0.06407520174980164 -0.5518149137496948 0.0019129514694213867 -0.002427668310701847 0.0 0.0 0.0 0.0
1.394 -0.07350985705852509 -0.5423975586891174 0.0018703043460845947 -0.002418261021375656 0.0 0.0 0.0 0.0
1.395 -0.08699537813663483 -0.5389509201049805 0.0017482368275523186 -0.0026068855077028275 0.0 0.0 0.0 0.0
1.396 -0.0952293649315834 -0.5373170375823975 0.0014991769567131996 -0.002703447826206684 0.0 0.0 0.0 0.0
1.397 -0.10720881074666977 -0.5300081968307495 0.0013787243515253067 -0.0027333488687872887 0.0 0.0 0.0 0.0
1.398 -0.119028739631176 -0.5248764753341675 0.0013915514573454857 -0.002679547294974327 0.0 0.0 0.0 0.0
1.399 -0.12951268255710602 -0.5207077860832214 0.0010229796171188354 -0.0027697645127773285 0.0 0.0 0.0 0.0
1.4 -0.14050166308879852 -0.5181570649147034 0.0010983888059854507 -0.002962532453238964 0.0 0.0 0.0 0.0
1.401 -0.15361176431179047 -0.5098621845245361 0.001007680781185627 -0.0029978519305586815 0.0 0.0 0.0 0.0
1.402 -0.16741739213466644 -0.5050694942474365 0.0008400492370128632 -0.003046640194952488 0.0 0.0 0.0 0.0
1.403 -0.17829199135303497 -0.49971437454223633 0.0004849778488278389 -0.0029210690408945084 0.0 0.0 0.0 0.0
1.404 -0.19136866927146912 -0.493162602186203 0.0005167471244931221 -0.0031112190335989 0.0 0.0 0.0 0.0
1.405 -0.20132604241371155 -0.4845568835735321 0.00024367216974496841 -0.0030618421733379364 0.0 0.0 0.0 0.0
1.406 -0.21238303184509277 -0.4804553687572479 0.00012612994760274887 -0.002990519627928734 0.0 0.0 0.0 0.0
1.407 -0.22672724723815918 -0.47089678049087524 -3.3942051231861115e-05 -0.0031325723975896835 0.0 0.0 0.0 0.0
1.408 -0.23236237466335297 -0.46329477429389954 -0.00027800537645816803 -0.003164871595799923 0.0 0.0 0.0 0.0
1.409 -0.2479582577943802 -0.4533270001411438 -0.000469183549284935 -0.0032108249142766 0.0 0.0 0.0 0.0
1.41 -0.253046452999115 -0.446003258228302 -0.00036312080919742584 -0.00312695000320673 0.0 0.0 0.0 0.0
1.411 -0.2648548483848572 -0.4387888014316559 -0.0006622495129704475 -0.0031718099489808083 0.0 0.0 0.0 0.0
1.412 -0.2714914381504059 -0.4291013777256012 -0.0010484885424375534 -0.003204602748155594 0.0 0.0 0.0 0.0
1.413 -0.28568655252456665 -0.41841360926628113 -0.0008982503786683083 -0.0029315007850527763 0.0 0.0 0.0 0.0
1.414 -0.2870071828365326 -0.4100772440433502 -0.0011068806052207947 -0.002963811159133911 0.0 0.0 0.0 0.0
1.415 -0.29913315176963806 -0.40085265040397644 -0.0013854177668690681 -0.0027421601116657257 0.0 0.0 0.0 0.0
1.416 -0.30799970030784607 -0.39063161611557007 -0.0013367077335715294 -0.0029287179931998253 0.0 0.0 0.0 0.0
1.417 -0.31587591767311096 -0.3818238079547882 -0.0017525972798466682 -0.00260065495967865 0.0 0.0 0.0 0.0
1.418 -0.3255787193775177 -0.37199825048446655 -0.0017646905034780502 -0.002572428435087204 0.0 0.0 0.0 0.0
1.419 -0.33491185307502747 -0.3617420792579651 -0.001837913878262043 -0.002709798514842987 0.0 0.0 0.0 0.0
1.42 -0.34363892674446106 -0.35416412353515625 -0.001907799392938614 -0.0024990467354655266 0.0 0.0 0.0 0.0
1.421 -0.3488163352012634 -0.3446158766746521 -0.002079254947602749 -0.002270270138978958 0.0 0.0 0.0 0.0
1.422 -0.361301451921463 -0.32924962043762207 -0.0023543015122413635 -0.0021861279383301735 0.0 0.0 0.0 0.0
1.423 -0.3644202649593353 -0.3207016885280609 -0.0024173976853489876 -0.002210254780948162 0.0 0.0 0.0 0.0
1.424 -0.3734579086303711 -0.30640894174575806 -0.002189687453210354 -0.0020528938621282578 0.0 0.0 0.0 0.0
1.425 -0.3777715861797333 -0.2956271171569824 -0.002392103895545006 -0.0019068755209445953 0.0 0.0 0.0 0.0
1.426 -0.3855572044849396 -0.28629833459854126 -0.0025605065748095512 -0.001981469802558422 0.0 0.0 0.0 0.0
1.427 -0.3930319845676422 -0.2700313329696655 -0.0028046080842614174 -0.0017175422981381416 0.0 0.0 0.0 0.0
1.428 -0.39666473865509033 -0.2560298442840576 -0.0026618381962180138 -0.0016065128147602081 0.0 0.0 0.0 0.0
1.429 -0.40273213386535645 -0.24541325867176056 -0.0028694728389382362 -0.0015340065583586693 0.0 0.0 0.0 0.0
1.43 -0.40425971150398254 -0.23034124076366425 -0.0030748359858989716 -0.001304163597524166 0.0 0.0 0.0 0.0
1.431 -0.41068166494369507 -0.21638791263103485 -0.002972720190882683 -0.0013308348134160042 0.0 0.0 0.0 0.0
1.432 -0.41045325994491577 -0.20596948266029358 -0.003201696090400219 -0.00090814009308815 0.0 0.0 0.0 0.0
1.433 -0.4118846654891968 -0.1915760189294815 -0.0030975351110100746 -0.0007154010236263275 0.0 0.0 0.0 0.0
1.434 -0.4155978262424469 -0.1828518807888031 -0.00312674418091774 -0.0009470796212553978 0.0 0.0 0.0 0.0
1.435 -0.418460488319397 -0.16544529795646667 -0.0034448178485035896 -0.0004460141062736511 0.0 0.0 0.0 0.0
1.436 -0.41900086402893066 -0.15656456351280212 -0.0032384544610977173 -0.00035287439823150635 0.0 0.0 0.0 0.0
1.437 -0.4211246967315674 -0.1435425579547882 -0.003275414928793907 -0.0003042183816432953 0.0 0.0 0.0 0.0
1.438 -0.42245203256607056 -0.1321295201778412 -0.0033318595960736275 -7.476937025785446e-05 0.0 0.0 0.0 0.0
1.439 -0.4251843988895416 -0.11652474105358124 -0.003461780957877636 0.00016896799206733704 0.0 0.0 0.0 0.0
1.44 -0.42431172728538513 -0.10878891497850418 -0.003249727189540863 8.007697761058807e-05 0.0 0.0 0.0 0.0
1.441 -0.42968884110450745 -0.09527058154344559 -0.003424977883696556 0.0004540523514151573 0.0 0.0 0.0 0.0
1.442 -0.4303843080997467 -0.08465159684419632 -0.0032563460990786552 0.0005341265350580215 0.0 0.0 0.0 0.0
1.443 -0.43052026629447937 -0.06888152658939362 -0.0034613609313964844 0.0006665484979748726 0.0 0.0 0.0 0.0
1.444 -0.43101975321769714 -0.05731199309229851 -0.0031776288524270058 0.0008909003809094429 0.0 0.0 0.0 0.0
1.445 -0.4315488934516907 -0.04759932681918144 -0.0031708236783742905 0.0009669298306107521 0.0 0.0 0.0 0.0
1.446 -0.4291437566280365 -0.03029743582010269 -0.003120572306215763 0.0011158809065818787 0.0 0.0 0.0 0.0
1.447 -0.4296650290489197 -0.021021146327257156 -0.0030188309028744698 0.001409902237355709 0.0 0.0 0.0 0.0
1.448 -0.4308408498764038 -0.006332988850772381 -0.0030221017077565193 0.0015750108286738396 0.0 0.0 0.0 0.0
1.449 -0.42829233407974243 0.0057433610782027245 -0.0029495665803551674 0.0015955865383148193 0.0 0.0 0.0 0.0
1.45 -0.4292156398296356 0.02078339271247387 -0.002933235839009285 0.001844853162765503 0.0 0.0 0.0 0.0
1.451 -0.4274700880050659 0.03448813408613205 -0.0025673583149909973 0.0017773127183318138 0.0 0.0 0.0 0.0
1.452 -0.4260690212249756 0.049966953694820404 -0.0025252187624573708 0.0019183028489351273 0.0 0.0 0.0 0.0
1.453 -0.4214267432689667 0.06404682993888855 -0.002544381655752659 0.00219122227281332 0.0 0.0 0.0 0.0
1.454 -0.4211428761482239 0.07415749132633209 -0.0022527435794472694 0.002283451147377491 0.0 0.0 0.0 0.0
1.455 -0.41622647643089294 0.09164300560951233 -0.002215278334915638 0.0024210577830672264 0.0 0.0 0.0 0.0
1.456 -0.4155156910419464 0.10313619673252106 -0.002167905680835247 0.002496396191418171 0.0 0.0 0.0 0.0
1.457 -0.40984562039375305 0.12039832770824432 -0.00181663129478693 0.002565222792327404 0.0 0.0 0.0 0.0
1.458 -0.4046826958656311 0.13193559646606445 -0.0019221901893615723 0.002458370290696621 0.0 0.0 0.0 0.0
1.459 -0.3985040783882141 0.1538115292787552 -0.0016840426251292229 0.0026724431663751602 0.0 0.0 0.0 0.0
1.46 -0.3933359682559967 0.16079331934452057 -0.001637401059269905 0.002744952216744423 0.0 0.0 0.0 0.0
1.461 -0.38574811816215515 0.1785157173871994 -0.0013969717547297478 0.002868696115911007 0.0 0.0 0.0 0.0
1.462 -0.3773530125617981 0.19277866184711456 -0.0012700874358415604 0.0028756745159626007 0.0 0.0 0.0 0.0
1.463 -0.3699193596839905 0.20571213960647583 -0.0010919580236077309 0.00296136736869812 0.0 0.0 0.0 0.0
1.464 -0.3630828559398651 0.2188132256269455 -0.0010749390348792076 0.0028439071029424667 0.0 0.0 0.0 0.0
1.465 -0.3531966209411621 0.23303429782390594 -0.0010525006800889969 0.0030188607051968575 0.0 0.0 0.0 0.0
1.466 -0.34217238426208496 0.24820613861083984 -0.0009341463446617126 0.002935434691607952 0.0 0.0 0.0 0.0
1.467 -0.3329758048057556 0.2585470676422119 -0.0007972931489348412 0.002953091636300087 0.0 0.0 0.0 0.0
1.468 -0.3222503364086151 0.2724642753601074 -0.0007609855383634567 0.003066090866923332 0.0 0.0 0.0 0.0
1.469 -0.311491459608078 0.28125256299972534 -0.000363851897418499 0.0031042555347085 0.0 0.0 0.0 0.0
1.47 -0.2969365119934082 0.2965812087059021 -0.000299820676445961 0.0032094409689307213 0.0 0.0 0.0 0.0
1.471 -0.28953737020492554 0.3034994304180145 -0.00013159774243831635 0.003042190335690975 0.0 0.0 0.0 0.0
1.472 -0.2739276587963104 0.31779032945632935 2.0663253962993622e-05 0.003086731769144535 0.0 0.0 0.0 0.0
1.473 -0.2654764652252197 0.32345232367515564 6.816629320383072e-05 0.003128672018647194 0.0 0.0 0.0 0.0
1.474 -0.25039318203926086 0.3379194736480713 0.00023865792900323868 0.0030110254883766174 0.0 0.0 0.0 0.0
1.475 -0.23969656229019165 0.3448044955730438 0.00036190636456012726 0.003033018670976162 0.0 0.0 0.0 0.0
1.476 -0.22556914389133453 0.3546946048736572 0.0004768380895256996 0.002728222869336605 0.0 0.0 0.0 0.0
1.477 -0.21209967136383057 0.36251524090766907 0.0006256420165300369 0.0028663817793130875 0.0 0.0 0.0 0.0
1.478 -0.19679556787014008 0.3692071735858917 0.0007387017831206322 0.003000226803123951 0.0 0.0 0.0 0.0
1.479 -0.18393391370773315 0.3781363070011139 0.000814804807305336 0.0029133781790733337 0.0 0.0 0.0 0.0
1.48 -0.1697884052991867 0.3862640857696533 0.0008889809250831604 0.0027999794110655785 0.0 0.0 0.0 0.0
1.481 -0.15208734571933746 0.39305976033210754 0.0010453937575221062 0.0027428222820162773 0.0 0.0 0.0 0.0
1.482 -0.14087137579917908 0.39644289016723633 0.0012502260506153107 0.0027686702087521553 0.0 0.0 0.0 0.0
1.483 -0.122367262840271 0.40348899364471436 0.00141080841422081 0.0028809159994125366 0.0 0.0 0.0 0.0
1.484 -0.1108938604593277 0.40678638219833374 0.0014164997264742851 0.0025990456342697144 0.0 0.0 0.0 0.0
1.485 -0.0924312025308609 0.4146932065486908 0.0014573289081454277 0.0025140056386590004 0.0 0.0 0.0 0.0
1.486 -0.07771547138690948 0.41868558526039124 0.0016602491959929466 0.0026407549157738686 0.0 0.0 0.0 0.0
1.487 -0.05931257829070091 0.42308858036994934 0.0017906548455357552 0.0023853201419115067 0.0 0.0 0.0 0.0
1.488 -0.045342858880758286 0.4261295199394226 0.0018316004425287247 0.002430303953588009 0.0 0.0 0.0 0.0
1.489 -0.025813408195972443 0.4280736744403839 0.002067924477159977 0.0022560805082321167 0.0 0.0 0.0 0.0
1.49 -0.011191588826477528 0.42792797088623047 0.0020665638148784637 0.0022938642650842667 0.0 0.0 0.0 0.0
1.491 0.0075434064492583275 0.4294503629207611 0.0019779708236455917 0.002081305719912052 0.0 0.0 0.0 0.0
1.492 0.025705166161060333 0.42864593863487244 0.002072407864034176 0.0020256340503692627 0.0 0.0 0.0 0.0
1.493 0.036392826586961746 0.42814669013023376 0.0023287320509552956 0.0021782750263810158 0.0 0.0 0.0 0.0
1.494 0.05139031261205673 0.4287753403186798 0.0023473482578992844 0.0019609639421105385 0.0 0.0 0.0 0.0
1.495 0.06528979539871216 0.4275818467140198 0.0023082373663783073 0.0018052607774734497 0.0 0.0 0.0 0.0
1.496 0.08444087952375412 0.4259887933731079 0.002548624761402607 0.0017659887671470642 0.0 0.0 0.0 0.0
1.497 0.0980272963643074 0.42212289571762085 0.002618430182337761 0.0017638206481933594 0.0 0.0 0.0 0.0
1.498 0.11454197764396667 0.42107412219047546 0.0028569959104061127 0.0015094270929694176 0.0 0.0 0.0 0.0
1.499 0.12710092961788177 0.41876742243766785 0.002803061157464981 0.0016027623787522316 0.0 0.0 0.0 0.0
1.5 0.14283537864685059 0.4167580306529999 0.002962294965982437 0.001266632229089737 0.0 0.0 0.0 0.0
1.501 0.1582685261964798 0.4130295217037201 0.0031627584248781204 0.0012601474300026894 0.0 0.0 0.0 0.0
1.502 0.17031452059745789 0.4111562967300415 0.003195522353053093 0.001041630282998085 0.0 0.0 0.0 0.0
1.503 0.18827340006828308 0.4048030972480774 0.0033477572724223137 0.001057530753314495 0.0 0.0 0.0 0.0
1.504 0.20084889233112335 0.40410977602005005 0.003269977867603302 0.0008322112262248993 0.0 0.0 0.0 0.0
1.505 0.2185598611831665 0.39823102951049805 0.0034109605476260185 0.000514863058924675 0.0 0.0 0.0 0.0
1.506 0.22827303409576416 0.39509469270706177 0.003636135719716549 0.00023823976516723633 0.0 0.0 0.0 0.0
1.507 0.2461155354976654 0.38945356011390686 0.0035940250381827354 0.00023928657174110413 0.0 0.0 0.0 0.0
1.508 0.2602001130580902 0.3842277228832245 0.003610949032008648 6.171595305204391e-05 0.0 0.0 0.0 0.0
1.509 0.27486327290534973 0.3792106807231903 0.00354109238833189 -7.943157106637955e-05 0.0 0.0 0.0 0.0
1.51 0.2893303334712982 0.37189987301826477 0.0036169420927762985 -0.000503898598253727 0.0 0.0 0.0 0.0
1.511 0.3024596869945526 0.3672851026058197 0.0034912656992673874 -0.0006591193377971649 0.0 0.0 0.0 0.0
1.512 0.32438161969184875 0.35649770498275757 0.003544554114341736 -0.0008418411016464233 0.0 0.0 0.0 0.0
1.513 0.3380441963672638 0.34965261816978455 0.003520013764500618 -0.0010486599057912827 0.0 0.0 0.0 0.0
1.514 0.3484084904193878 0.34305068850517273 0.0034695984795689583 -0.0012840311974287033 0.0 0.0 0.0 0.0
1.515 0.36497578024864197 0.3345644176006317 0.003320835530757904 -0.0014173388481140137 0.0 0.0 0.0 0.0
1.516 0.3790048360824585 0.32264629006385803 0.003265194594860077 -0.001740231178700924 0.0 0.0 0.0 0.0
1.517 0.393350213766098 0.3154985308647156 0.003183194436132908 -0.001828824169933796 0.0 0.0 0.0 0.0
1.518 0.4107465147972107 0.3006351590156555 0.0031150905415415764 -0.002130245789885521 0.0 0.0 0.0 0.0
1.519 0.4223940968513489 0.2895364761352539 0.0029765572398900986 -0.002198857255280018 0.0 0.0 0.0 0.0
1.52 0.4377804100513458 0.2739933729171753 0.0027113864198327065 -0.002501123584806919 0.0 0.0 0.0 0.0
1.521 0.447079598903656 0.2647591531276703 0.0026986589655280113 -0.002675304189324379 0.0 0.0 0.0 0.0
1.522 0.4618285298347473 0.24718399345874786 0.002471964806318283 -0.002787794917821884 0.0 0.0 0.0 0.0
1.523 0.4692853093147278 0.233174130320549 0.0021316073834896088 -0.003048999235033989 0.0 0.0 0.0 0.0
1.524 0.483129620552063 0.2100355178117752 0.0019199484959244728 -0.0030186446383595467 0.0 0.0 0.0 0.0
1.525 0.49045026302337646 0.20347416400909424 0.0016772300004959106 -0.003093382343649864 0.0 0.0 0.0 0.0
1.526 0.5000249743461609 0.1862747222185135 0.0014829058200120926 -0.003272688016295433 0.0 0.0 0.0 0.0
1.527 0.5093773007392883 0.17273306846618652 0.0012072660028934479 -0.003155834972858429 0.0 0.0 0.0 0.0
1.528 0.5170512795448303 0.1558954119682312 0.0010583680123090744 -0.0034361109137535095 0.0 0.0 0.0 0.0
1.529 0.5262835621833801 0.1362382471561432 0.0007235007360577583 -0.0030994154512882233 0.0 0.0 0.0 0.0
1.53 0.5325334668159485 0.12527525424957275 0.0004749791696667671 -0.003422706387937069 0.0 0.0 0.0 0.0
1.531 0.539060115814209 0.10501653701066971 0.0002506747841835022 -0.0032205479219555855 0.0 0.0 0.0 0.0
1.532 0.5440606474876404 0.09243526309728622 -3.323797136545181e-05 -0.0029953261837363243 0.0 0.0 0.0 0.0
1.533 0.5508047342300415 0.07143813371658325 -2.5085173547267914e-05 -0.00313548743724823 0.0 0.0 0.0 0.0
1.534 0.554553747177124 0.05717894807457924 -0.00028220005333423615 -0.0030813226476311684 0.0 0.0 0.0 0.0
1.535 0.5605795979499817 0.03888435289263725 -0.00023632310330867767 -0.0028081685304641724 0.0 0.0 0.0 0.0
1.536 0.5632283091545105 0.02540196292102337 -0.0005232049152255058 -0.00290672667324543 0.0 0.0 0.0 0.0
1.537 0.5690681338310242 0.004711265675723553 -0.000729079358279705 -0.002802968956530094 0.0 0.0 0.0 0.0
1.538 0.5740170478820801 -0.015065143816173077 -0.0006015254184603691 -0.002653326839208603 0.0 0.0 0.0 0.0
1.539 0.5793574452400208 -0.030153367668390274 -0.0008364338427782059 -0.002612695097923279 0.0 0.0 0.0 0.0
1.54 0.5769173502922058 -0.05438051372766495 -0.0012209424749016762 -0.0027684876695275307 0.0 0.0 0.0 0.0
1.541 0.5795295834541321 -0.06587328761816025 -0.0013858173042535782 -0.0026168813928961754 0.0 0.0 0.0 0.0
1.542 0.5798231959342957 -0.09340580552816391 -0.0012449463829398155 -0.002314293757081032 0.0 0.0 0.0 0.0
1.543 0.579378068447113 -0.10850425064563751 -0.0014064647257328033 -0.00202768761664629 0.0 0.0 0.0 0.0
1.544 0.578041136264801 -0.13067705929279327 -0.0016728388145565987 -0.0020987587049603462 0.0 0.0 0.0 0.0
1.545 0.5770391225814819 -0.14342552423477173 -0.0013448717072606087 -0.0017725378274917603 0.0 0.0 0.0 0.0
1.546 0.5735505819320679 -0.1698436737060547 -0.0017801569774746895 -0.0018742457032203674 0.0 0.0 0.0 0.0
1.547 0.57133549451828 -0.18391846120357513 -0.0016276231035590172 -0.0016494207084178925 0.0 0.0 0.0 0.0
1.548 0.566882848739624 -0.20196552574634552 -0.001694350503385067 -0.0015044920146465302 0.0 0.0 0.0 0.0
1.549 0.5611963272094727 -0.2219013124704361 -0.0018217898905277252 -0.0015924125909805298 0.0 0.0 0.0 0.0
1.55 0.5588480830192566 -0.2409110814332962 -0.0018106326460838318 -0.0012018652632832527 0.0 0.0 0.0 0.0
1.551 0.5514452457427979 -0.2657049596309662 -0.0017128335312008858 -0.0012512467801570892 0.0 0.0 0.0 0.0
1.552 0.5467633008956909 -0.2767335772514343 -0.0019981563091278076 -0.001074623316526413 0.0 0.0 0.0 0.0
1.553 0.5333731174468994 -0.30452725291252136 -0.0016397247090935707 -0.0008402075618505478 0.0 0.0 0.0 0.0
1.554 0.5334792733192444 -0.3116084337234497 -0.001811319962143898 -0.0009381240233778954 0.0 0.0 0.0 0.0
1.555 0.5175871253013611 -0.34008029103279114 -0.0017258552834391594 -0.000766444019973278 0.0 0.0 0.0 0.0
1.556 0.5084190368652344 -0.35216277837753296 -0.0016773967072367668 -0.0007265396416187286 0.0 0.0 0.0 0.0
1.557 0.500858724117279 -0.36801567673683167 -0.0016948534175753593 -0.0005555693060159683 0.0 0.0 0.0 0.0
1.558 0.48593008518218994 -0.38525477051734924 -0.001620674505829811 -0.00044122710824012756 0.0 0.0 0.0 0.0
1.559 0.4702112674713135 -0.4057675302028656 -0.0017106207087635994 -0.0003256341442465782 0.0 0.0 0.0 0.0
1.56 0.45453834533691406 -0.4198930263519287 -0.0016762353479862213 -0.0004446003586053848 0.0 0.0 0.0 0.0
1.561 0.44406363368034363 -0.4346725344657898 -0.001765333116054535 -0.00020216777920722961 0.0 0.0 0.0 0.0
1.562 0.4290294647216797 -0.4443221688270569 -0.0018054908141493797 -0.0003182878717780113 0.0 0.0 0.0 0.0
1.563 0.4133061468601227 -0.4596843421459198 -0.0017203046008944511 -0.0002780202776193619 0.0 0.0 0.0 0.0
1.564 0.3991958498954773 -0.47398436069488525 -0.0015242714434862137 7.712561637163162e-05 0.0 0.0 0.0 0.0
1.565 0.38316282629966736 -0.4860554337501526 -0.0019119763746857643 -0.00016492977738380432 0.0 0.0 0.0 0.0
1.566 0.36471691727638245 -0.49878549575805664 -0.0015107197687029839 0.0002207104116678238 0.0 0.0 0.0 0.0
1.567 0.35219624638557434 -0.5040340423583984 -0.001559634692966938 0.0003440864384174347 0.0 0.0 0.0 0.0
1.568 0.3298936188220978 -0.5170592069625854 -0.0014822185039520264 0.0003452058881521225 0.0 0.0 0.0 0.0
1.569 0.3218524754047394 -0.5194517970085144 -0.0012618806213140488 0.0004383046180009842 0.0 0.0 0.0 0.0
1.57 0.2967402935028076 -0.5336000919342041 -0.0015389788895845413 0.00026285089552402496 0.0 0.0 0.0 0.0
1.571 0.2821034789085388 -0.5389904975891113 -0.0014838576316833496 0.0003362763673067093 0.0 0.0 0.0 0.0
1.572 0.26666250824928284 -0.5451062321662903 -0.0012933863326907158 0.0004983488470315933 0.0 0.0 0.0 0.0
1.573 0.24918006360530853 -0.5482973456382751 -0.0012247152626514435 0.0004445398226380348 0.0 0.0 0.0 0.0
1.574 0.2260514348745346 -0.5599375367164612 -0.0013909963890910149 0.0005320720374584198 0.0 0.0 0.0 0.0
1.575 0.2143392115831375 -0.5612197518348694 -0.0013107238337397575 0.0006439806893467903 0.0 0.0 0.0 0.0
1.576 0.19688600301742554 -0.5660860538482666 -0.0011361641809344292 0.0007431302219629288 0.0 0.0 0.0 0.0
1.577 0.1759512573480606 -0.5679575204849243 -0.001323474571108818 0.0007068729028105736 0.0 0.0 0.0 0.0
1.578 0.16220587491989136 -0.5731801390647888 -0.0010077692568302155 0.0006823167204856873 0.0 0.0 0.0 0.0
1.579 0.13926294445991516 -0.5780148506164551 -0.0010001417249441147 0.0007751286029815674 0.0 0.0 0.0 0.0
1.58 0.123400017619133 -0.5773600935935974 -0.001288827508687973 0.0009144125506281853 0.0 0.0 0.0 0.0
1.581 0.10112359374761581 -0.580508291721344 -0.0009561683982610703 0.0008739680051803589 0.0 0.0 0.0 0.0
1.582 0.0902576595544815 -0.5807986259460449 -0.001031065359711647 0.0007594237104058266 0.0 0.0 0.0 0.0
1.583 0.07290208339691162 -0.5777986645698547 -0.0009952923282980919 0.0010823113843798637 0.0 0.0 0.0 0.0
1.584 0.04264238849282265 -0.5839504599571228 -0.0009269947186112404 0.001066606491804123 0.0 0.0 0.0 0.0
1.585 0.03593830391764641 -0.5766401290893555 -0.0009966809302568436 0.0010797986760735512 0.0 0.0 0.0 0.0
1.586 0.02103574387729168 -0.5733823180198669 -0.0008675288408994675 0.0012149317190051079 0.0 0.0 0.0 0.0
1.587 0.005775989964604378 -0.5744884610176086 -0.00036682188510894775 0.001114693470299244 0.0 0.0 0.0 0.0
1.588 -0.010065042413771152 -0.570351243019104 -0.0007316870614886284 0.0012079747393727303 0.0 0.0 0.0 0.0
1.589 -0.025100138038396835 -0.5664616227149963 -0.0005072737112641335 0.0014170408248901367 0.0 0.0 0.0 0.0
1.59 -0.04748282954096794 -0.5629156231880188 -0.00030502863228321075 0.0012459605932235718 0.0 0.0 0.0 0.0
1.591 -0.05786728486418724 -0.5583333969116211 -0.0004795510321855545 0.0011581303551793098 0.0 0.0 0.0 0.0
1.592 -0.07915046811103821 -0.5530635118484497 -0.00039303675293922424 0.0012901928275823593 0.0 0.0 0.0 0.0
1.593 -0.0983932763338089 -0.547308087348938 -0.0003399467095732689 0.0012380210682749748 0.0 0.0 0.0 0.0
1.594 -0.11183173209428787 -0.544035017490387 -0.00014759786427021027 0.0012030312791466713 0.0 0.0 0.0 0.0
1.595 -0.12246239185333252 -0.5386354327201843 4.32552769780159e-05 0.0013918867334723473 0.0 0.0 0.0 0.0
1.596 -0.13717536628246307 -0.5295425653457642 0.00022928696125745773 0.0012632114812731743 0.0 0.0 0.0 0.0
1.597 -0.1538109928369522 -0.5235278010368347 6.387941539287567e-06 0.001300932839512825 0.0 0.0 0.0 0.0
1.598 -0.16773495078086853 -0.5185714960098267 0.0002462780103087425 0.0013174060732126236 0.0 0.0 0.0 0.0
1.599 -0.1817755401134491 -0.5059036016464233 0.00019084475934505463 0.0011909371241927147 0.0 0.0 0.0 0.0
1.6 -0.19592492282390594 -0.4978490471839905 0.00018939469009637833 0.0013140169903635979 0.0 0.0 0.0 0.0
1.601 -0.21407221257686615 -0.4896112084388733 0.0004830630496144295 0.0011855047196149826 0.0 0.0 0.0 0.0
1.602 -0.2182583063840866 -0.47948381304740906 0.0003556348383426666 0.0011690463870763779 0.0 0.0 0.0 0.0
1.603 -0.2359231859445572 -0.4701364040374756 0.0005103694275021553 0.0011343713849782944 0.0 0.0 0.0 0.0
1.604 -0.24374131858348846 -0.45942145586013794 0.00051075778901577 0.0012061512097716331 0.0 0.0 0.0 0.0
1.605 -0.26224684715270996 -0.44390302896499634 0.0006900839507579803 0.0010168971493840218 0.0 0.0 0.0 0.0
1.606 -0.2652667760848999 -0.44001078605651855 0.0006397217512130737 0.0009499276056885719 0.0 0.0 0.0 0.0
1.607 -0.27613168954849243 -0.43125036358833313 0.000669172964990139 0.0009228745475411415 0.0 0.0 0.0 0.0
1.608 -0.28508445620536804 -0.4235941469669342 0.0009970767423510551 0.0006415555253624916 0.0 0.0 0.0 0.0
1.609 -0.2960735857486725 -0.40783992409706116 0.0007220441475510597 0.0008835336193442345 0.0 0.0 0.0 0.0
1.61 -0.3057660460472107 -0.3997652530670166 0.0008097514510154724 0.0009631821885704994 0.0 0.0 0.0 0.0
1.611 -0.3142434358596802 -0.3887461721897125 0.0008267313241958618 0.0007958086207509041 0.0 0.0 0.0 0.0
1.612 -0.3277616500854492 -0.37516000866889954 0.0009435573592782021 0.000512491911649704 0.0 0.0 0.0 0.0
1.613 -0.33391591906547546 -0.3678785562515259 0.0009950874373316765 0.0004346836358308792 0.0 0.0 0.0 0.0
1.614 -0.34003233909606934 -0.35359400510787964 0.0008677057921886444 0.00038928911089897156 0.0 0.0 0.0 0.0
1.615 -0.34832966327667236 -0.34442442655563354 0.0010242452844977379 0.00048640184104442596 0.0 0.0 0.0 0.0
1.616 -0.36178508400917053 -0.328569620847702 0.0010049520060420036 0.0002274801954627037 0.0 0.0 0.0 0.0
1.617 -0.36690226197242737 -0.3207989037036896 0.0012767501175403595 0.0001140376552939415 0.0 0.0 0.0 0.0
1.618 -0.3759573996067047 -0.3091149628162384 0.0010331254452466965 0.00024117249995470047 0.0 0.0 0.0 0.0
1.619 -0.3840823173522949 -0.2988818883895874 0.0009450428187847137 0.00010903459042310715 0.0 0.0 0.0 0.0
1.62 -0.38673996925354004 -0.2899792194366455 0.0010817060247063637 -3.608129918575287e-05 0.0 0.0 0.0 0.0
1.621 -0.39866042137145996 -0.27364131808280945 0.0011279769241809845 -7.441546767950058e-05 0.0 0.0 0.0 0.0
1.622 -0.40506815910339355 -0.25950998067855835 0.0009238692000508308 -9.879469871520996e-06 0.0 0.0 0.0 0.0
1.623 -0.41325634717941284 -0.24676816165447235 0.0011064456775784492 -0.00022285524755716324 0.0 0.0 0.0 0.0
1.624 -0.41819727420806885 -0.23488777875900269 0.001024436205625534 -0.00012029428035020828 0.0 0.0 0.0 0.0
1.625 -0.4252817630767822 -0.2168746441602707 0.0009817946702241898 -0.0003587566316127777 0.0 0.0 0.0 0.0
1.626 -0.42491614818573 -0.20779502391815186 0.0007668826729059219 -0.0002820594236254692 0.0 0.0 0.0 0.0
1.627 -0.43446728587150574 -0.1898449808359146 0.000908910296857357 -0.00028506480157375336 0.0 0.0 0.0 0.0
1.628 -0.4368129074573517 -0.17992036044597626 0.0009644152596592903 -0.00039228610694408417 0.0 0.0 0.0 0.0
1.629 -0.44148173928260803 -0.16164852678775787 0.0008578235283493996 -0.0001987311989068985 0.0 0.0 0.0 0.0
1.63 -0.44355881214141846 -0.14581982791423798 0.0007293671369552612 -0.0002817949280142784 0.0 0.0 0.0 0.0
1.631 -0.4495846629142761 -0.13290627300739288 0.0007461234927177429 -0.00044843554496765137 0.0 0.0 0.0 0.0
1.632 -0.4483173191547394 -0.1255311220884323 0.0009586596861481667 -0.0006506424397230148 0.0 0.0 0.0 0.0
1.633 -0.4531073272228241 -0.10426261276006699 0.0006635254248976707 -0.00040945224463939667 0.0 0.0 0.0 0.0
1.634 -0.4553057849407196 -0.08618456870317459 0.0008405260741710663 -0.0004369812086224556 0.0 0.0 0.0 0.0
1.635 -0.45672357082366943 -0.07498855888843536 0.0008835410699248314 -0.00035617221146821976 0.0 0.0 0.0 0.0
1.636 -0.45742344856262207 -0.05780508741736412 0.0007153218612074852 -0.0006626229733228683 0.0 0.0 0.0 0.0
1.637 -0.45839178562164307 -0.048558253794908524 0.0006721476092934608 -0.0005839802324771881 0.0 0.0 0.0 0.0
1.638 -0.4602360725402832 -0.02724216692149639 0.000614396296441555 -0.0008514011278748512 0.0 0.0 0.0 0.0
1.639 -0.45971694588661194 -0.015628652647137642 0.0005078287795186043 -0.0007064985111355782 0.0 0.0 0.0 0.0
1.64 -0.4571601152420044 0.0025987448170781136 0.0007432764396071434 -0.0007477188482880592 0.0 0.0 0.0 0.0
1.641 -0.456908255815506 0.01275071781128645 0.0007441993802785873 -0.001061026006937027 0.0 0.0 0.0 0.0
1.642 -0.45662760734558105 0.033658284693956375 0.000634191557765007 -0.00097612664103508 0.0 0.0 0.0 0.0
1.643 -0.45113226771354675 0.04905247315764427 0.00048301462084054947 -0.0008419519290328026 0.0 0.0 0.0 0.0
1.644 -0.4512558579444885 0.06780224293470383 0.0004532579332590103 -0.0009603742510080338 0.0 0.0 0.0 0.0
1.645 -0.4454381465911865 0.08395344018936157 0.00026501715183258057 -0.0007727453485131264 0.0 0.0 0.0 0.0
1.646 -0.4422367811203003 0.09261807799339294 0.0005087051540613174 -0.0010005151852965355 0.0 0.0 0.0 0.0
1.647 -0.43668535351753235 0.11192977428436279 0.00032216310501098633 -0.0008925888687372208 0.0 0.0 0.0 0.0
1.648 -0.4331980347633362 0.12372719496488571 0.0001289835199713707 -0.0011102603748440742 0.0 0.0 0.0 0.0
1.649 -0.4283716082572937 0.14024606347084045 0.00014541670680046082 -0.0010871784761548042 0.0 0.0 0.0 0.0
1.65 -0.41877150535583496 0.1593671590089798 0.00012472644448280334 -0.0011556698009371758 0.0 0.0 0.0 0.0
1.651 -0.41878554224967957 0.1670628786087036 0.0001776004210114479 -0.00126600731164217 0.0 0.0 0.0 0.0
1.652 -0.4108141362667084 0.17859791219234467 0.00021037831902503967 -0.0012975027784705162 0.0 0.0 0.0 0.0
1.653 -0.4068267345428467 0.19218102097511292 -0.00014230329543352127 -0.0012988150119781494 0.0 0.0 0.0 0.0
1.654 -0.39795562624931335 0.2055569440126419 -8.787214756011963e-05 -0.0010714847594499588 0.0 0.0 0.0 0.0
1.655 -0.3906227946281433 0.22147327661514282 -0.00015603285282850266 -0.001118355430662632 0.0 0.0 0.0 0.0
1.656 -0.3839836120605469 0.23202644288539886 -0.0001333523541688919 -0.0012005865573883057 0.0 0.0 0.0 0.0
1.657 -0.3746829628944397 0.2477555274963379 -0.00032291188836097717 -0.0011742440983653069 0.0 0.0 0.0 0.0
1.658 -0.3661682903766632 0.26055607199668884 -0.00034928321838378906 -0.0013009263202548027 0.0 0.0 0.0 0.0
1.659 -0.3572230637073517 0.2703177034854889 -0.00020927190780639648 -0.0009992104023694992 0.0 0.0 0.0 0.0
1.66 -0.34854763746261597 0.28321799635887146 -0.0002490375190973282 -0.0013305963948369026 0.0 0.0 0.0 0.0
1.661 -0.34116727113723755 0.2971031665802002 -0.0005019092932343483 -0.001154659315943718 0.0 0.0 0.0 0.0
1.662 -0.33041924238204956 0.304775595664978 -0.00046409759670495987 -0.0010698148980736732 0.0 0.0 0.0 0.0
1.663 -0.32063987851142883 0.31959474086761475 -0.0005026943981647491 -0.0013115936890244484 0.0 0.0 0.0 0.0
1.664 -0.3089330494403839 0.33189186453819275 -0.0006819479167461395 -0.0011586183682084084 0.0 0.0 0.0 0.0
1.665 -0.30386102199554443 0.33848461508750916 -0.0009352127090096474 -0.0012836325913667679 0.0 0.0 0.0 0.0
1.666 -0.2876775860786438 0.3531877100467682 -0.0009255539625883102 -0.0011503277346491814 0.0 0.0 0.0 0.0
1.667 -0.27612578868865967 0.3621465861797333 -0.000906212255358696 -0.0010240552946925163 0.0 0.0 0.0 0.0
1.668 -0.2670619487762451 0.3702683448791504 -0.0011025480926036835 -0.0011154431849718094 0.0 0.0 0.0 0.0
1.669 -0.2552029490470886 0.3797787129878998 -0.00116024911403656 -0.0009974483400583267 0.0 0.0 0.0 0.0
1.67 -0.24143993854522705 0.3912692666053772 -0.0011229552328586578 -0.0008372440934181213 0.0 0.0 0.0 0.0
1.671 -0.2272152602672577 0.40225642919540405 -0.0013317381963133812 -0.0010714083909988403 0.0 0.0 0.0 0.0
1.672 -0.2172936499118805 0.41167783737182617 -0.001270500011742115 -0.0008823815733194351 0.0 0.0 0.0 0.0
1.673 -0.20363068580627441 0.41823580861091614 -0.0009968671947717667 -0.0007069315761327744 0.0 0.0 0.0 0.0
1.674 -0.18767967820167542 0.4304647147655487 -0.0014054244384169579 -0.0006283214315772057 0.0 0.0 0.0 0.0
1.675 -0.172898530960083 0.43701478838920593 -0.0013333186507225037 -0.0005674688145518303 0.0 0.0 0.0 0.0
1.676 -0.16406862437725067 0.4434998333454132 -0.0013331566005945206 -0.0004481170326471329 0.0 0.0 0.0 0.0
1.677 -0.14428289234638214 0.4526526629924774 -0.0014275675639510155 -0.00025525689125061035 0.0 0.0 0.0 0.0
1.678 -0.1340963989496231 0.45852458477020264 -0.0014237882569432259 -0.00041108764708042145 0.0 0.0 0.0 0.0
1.679 -0.11727066338062286 0.4658321142196655 -0.001603289507329464 -0.0002812584862112999 0.0 0.0 0.0 0.0
1.68 -0.11498263478279114 0.46441519260406494 -0.0016881059855222702 -0.00036626216024160385 0.0 0.0 0.0 0.0
1.681 -0.0903419777750969 0.4777222275733948 -0.0015458641573786736 0.00015926361083984375 0.0 0.0 0.0 0.0
1.682 -0.07579547166824341 0.48216867446899414 -0.001499139703810215 4.796963185071945e-05 0.0 0.0 0.0 0.0
1.683 -0.05875697359442711 0.491447776556015 -0.0016271770000457764 0.00011632777750492096 0.0 0.0 0.0 0.0
1.684 -0.03691919893026352 0.4968374967575073 -0.0015839505940675735 0.00041700806468725204 0.0 0.0 0.0 0.0
1.685 -0.02674255706369877 0.4992823004722595 -0.0012777876108884811 0.00030309148132801056 0.0 0.0 0.0 0.0
1.686 -0.004000410437583923 0.5043033361434937 -0.0011997176334261894 0.0004489738494157791 0.0 0.0 0.0 0.0
1.687 0.007767725735902786 0.5084326267242432 -0.0013668909668922424 0.00048786308616399765 0.0 0.0 0.0 0.0
1.688 0.027331214398145676 0.5125111937522888 -0.0013657044619321823 0.000549735501408577 0.0 0.0 0.0 0.0
1.689 0.0419330932199955 0.5126163363456726 -0.0013182200491428375 0.0006907936185598373 0.0 0.0 0.0 0.0
1.69 0.06560108065605164 0.5157641172409058 -0.0011605219915509224 0.0007875887677073479 0.0 0.0 0.0 0.0
1.691 0.08235161751508713 0.5147663950920105 -0.001218920573592186 0.0005563469603657722 0.0 0.0 0.0 0.0
1.692 0.10223335027694702 0.5151844620704651 -0.0011063581332564354 0.0007802601903676987 0.0 0.0 0.0 0.0
1.693 0.1204066127538681 0.5155161023139954 -0.000903228297829628 0.0007939515635371208 0.0 0.0 0.0 0.0
1.694 0.13837696611881256 0.5162110328674316 -0.0010280562564730644 0.0009400490671396255 0.0 0.0 0.0 0.0
1.695 0.16222421824932098 0.5112989544868469 -0.0009129513055086136 0.001035449095070362 0.0 0.0 0.0 0.0
1.696 0.17585238814353943 0.509547770023346 -0.000712432898581028 0.0009499844163656235 0.0 0.0 0.0 0.0
1.697 0.19902917742729187 0.5057905316352844 -0.0007638782262802124 0.0008365465328097343 0.0 0.0 0.0 0.0
1.698 0.2164173722267151 0.5018960237503052 -0.0007524900138378143 0.0009011365473270416 0.0 0.0 0.0 0.0
1.699 0.23582643270492554 0.49668651819229126 -0.0007230862975120544 0.0008150991052389145 0.0 0.0 0.0 0.0
1.7 0.252975732088089 0.49253034591674805 -0.0007456699386239052 0.0008094655349850655 0.0 0.0 0.0 0.0
1.701 0.2712983191013336 0.48909685015678406 -0.0007590781897306442 0.0008799927309155464 0.0 0.0 0.0 0.0
1.702 0.2911362946033478 0.4802258312702179 -0.0005934620276093483 0.0009913789108395576 0.0 0.0 0.0 0.0
1.703 0.31452617049217224 0.4722239375114441 -0.0006191087886691093 0.0011239126324653625 0.0 0.0 0.0 0.0
1.704 0.3351602554321289 0.4549855589866638 -0.0003758929669857025 0.0010113483294844627 0.0 0.0 0.0 0.0
1.705 0.3483162224292755 0.45451560616493225 -0.0005323216319084167 0.0009150151163339615 0.0 0.0 0.0 0.0
1.706 0.36715978384017944 0.4404294192790985 -0.0005265530198812485 0.0010728202760219574 0.0 0.0 0.0 0.0
1.707 0.3819960355758667 0.4306555688381195 -0.00017814617604017258 0.0009866617619991302 0.0 0.0 0.0 0.0
1.708 0.4011457562446594 0.41882002353668213 -0.00022507086396217346 0.0009748237207531929 0.0 0.0 0.0 0.0
1.709 0.4139016270637512 0.4095540940761566 -0.00014877133071422577 0.0008664363995194435 0.0 0.0 0.0 0.0
1.71 0.4310603141784668 0.39801111817359924 -0.00022733118385076523 0.0011052461341023445 0.0 0.0 0.0 0.0
1.711 0.4481421113014221 0.3804408311843872 -0.00016805995255708694 0.0009059067815542221 0.0 0.0 0.0 0.0
1.712 0.46590062975883484 0.36500415205955505 -0.00010863877832889557 0.0009850384667515755 0.0 0.0 0.0 0.0
1.713 0.4800480008125305 0.3470137417316437 -0.00033718906342983246 0.0009205155074596405 0.0 0.0 0.0 0.0
1.714 0.4944911599159241 0.3302913010120392 -0.0001322394236922264 0.000655781477689743 0.0 0.0 0.0 0.0
1.715 0.5047925710678101 0.3159273862838745 -0.0001518717035651207 0.0008450718596577644 0.0 0.0 0.0 0.0
1.716 0.5210128426551819 0.2931467890739441 -0.0002871006727218628 0.0008536102250218391 0.0 0.0 0.0 0.0
1.717 0.5300388336181641 0.2801046371459961 5.044043064117432e-06 0.0008627315983176231 0.0 0.0 0.0 0.0
1.718 0.5418189764022827 0.26594290137290955 -0.00024742819368839264 0.0009597251191735268 0.0 0.0 0.0 0.0
1.719 0.5515588521957397 0.2445179522037506 -2.5964342057704926e-05 0.000730595551431179 0.0 0.0 0.0 0.0
1.72 0.559788167476654 0.22815854847431183 3.3892691135406494e-05 0.0009116241708397865 0.0 0.0 0.0 0.0
1.721 0.5705417394638062 0.20107778906822205 -0.00010854098945856094 0.000712815672159195 0.0 0.0 0.0 0.0
1.722 0.5764949917793274 0.1924857348203659 -0.00011804699897766113 0.0008616568520665169 0.0 0.0 0.0 0.0
1.723 0.5877314805984497 0.1667507439851761 -9.617023169994354e-05 0.0008209552615880966 0.0 0.0 0.0 0.0
1.724 0.5906267166137695 0.1458059847354889 -0.0001804102212190628 0.0008033495396375656 0.0 0.0 0.0 0.0
1.725 0.5991787314414978 0.12641610205173492 -4.8500485718250275e-05 0.0011095069348812103 0.0 0.0 0.0 0.0
1.726 0.6029790043830872 0.10644962638616562 3.789179027080536e-05 0.0009621800854802132 0.0 0.0 0.0 0.0
1.727 0.6063947677612305 0.09006921947002411 5.939789116382599e-05 0.0009099738672375679 0.0 0.0 0.0 0.0
1.728 0.6107314825057983 0.07353580743074417 1.7493031919002533e-05 0.0010525751858949661 0.0 0.0 0.0 0.0
1.729 0.6134519577026367 0.04783928394317627 1.9604340195655823e-05 0.001027468591928482 0.0 0.0 0.0 0.0
1.73 0.6171359419822693 0.02044852264225483 0.0001919623464345932 0.001084321178495884 0.0 0.0 0.0 0.0
1.731 0.6142507791519165 0.004286578856408596 0.00025827158242464066 0.0011676633730530739 0.0 0.0 0.0 0.0
1.732 0.615644097328186 -0.02006494253873825 2.642907202243805e-05 0.00101370457559824 0.0 0.0 0.0 0.0
1.733 0.6136302351951599 -0.03800015524029732 0.00011574383825063705 0.0009605558589100838 0.0 0.0 0.0 0.0
1.734 0.614507794380188 -0.06233004853129387 0.00018383748829364777 0.0010291682556271553 0.0 0.0 0.0 0.0
1.735 0.6093599200248718 -0.08304004371166229 0.0001444350928068161 0.0009815525263547897 0.0 0.0 0.0 0.0
1.736 0.6109514832496643 -0.09841252118349075 0.00026978645473718643 0.0010281223803758621 0.0 0.0 0.0 0.0
1.737 0.605623722076416 -0.12156713008880615 0.0002911016345024109 0.0011182939633727074 0.0 0.0 0.0 0.0
1.738 0.5998333692550659 -0.1399509161710739 0.000524202361702919 0.0009489068761467934 0.0 0.0 0.0 0.0
1.739 0.5944396257400513 -0.16933535039424896 0.000514661893248558 0.001013367436826229 0.0 0.0 0.0 0.0
1.74 0.588650643825531 -0.17473728954792023 0.0005782544612884521 0.0011641718447208405 0.0 0.0 0.0 0.0
1.741 0.577313244342804 -0.21026264131069183 0.0006683347746729851 0.0008931411430239677 0.0 0.0 0.0 0.0
1.742 0.5712683200836182 -0.22436314821243286 0.0006557032465934753 0.0009848829358816147 0.0 0.0 0.0 0.0
1.743 0.5652980804443359 -0.23961018025875092 0.0007195426151156425 0.001131707802414894 0.0 0.0 0.0 0.0
1.744 0.5525277853012085 -0.26132968068122864 0.0007777204737067223 0.0010080654174089432 0.0 0.0 0.0 0.0
1.745 0.541526734828949 -0.28366273641586304 0.0008501503616571426 0.0007860269397497177 0.0 0.0 0.0 0.0
1.746 0.5268265008926392 -0.30242547392845154 0.0008731735870242119 0.0007825363427400589 0.0 0.0 0.0 0.0
1.747 0.5180309414863586 -0.31444886326789856 0.0007776524871587753 0.0007772818207740784 0.0 0.0 0.0 0.0
1.748 0.5077448487281799 -0.32990342378616333 0.0007644053548574448 0.0007797004655003548 0.0 0.0 0.0 0.0
1.749 0.49606046080589294 -0.34582850337028503 0.0010183313861489296 0.0007561305537819862 0.0 0.0 0.0 0.0
1.75 0.47903719544410706 -0.36342474818229675 0.0008882004767656326 0.0007393034175038338 0.0 0.0 0.0 0.0
1.751 0.46720385551452637 -0.3748246729373932 0.0007949629798531532 0.0008620470762252808 0.0 0.0 0.0 0.0
1.752 0.44855526089668274 -0.39550524950027466 0.0011494727805256844 0.0007677115499973297 0.0 0.0 0.0 0.0
1.753 0.4349760115146637 -0.4040276110172272 0.0008282866328954697 0.0006945384666323662 0.0 0.0 0.0 0.0
1.754 0.4216235876083374 -0.4208417236804962 0.0010753534734249115 0.000649426132440567 0.0 0.0 0.0 0.0
1.755 0.4129489064216614 -0.4255920648574829 0.0012410804629325867 0.0005731610581278801 0.0 0.0 0.0 0.0
1.756 0.3904748260974884 -0.44278591871261597 0.0009296480566263199 0.0005276119336485863 0.0 0.0 0.0 0.0
1.757 0.3744555115699768 -0.4535728693008423 0.0010538259521126747 0.0005574570968747139 0.0 0.0 0.0 0.0
1.758 0.35219937562942505 -0.4695883095264435 0.0012328270822763443 0.0003634011372923851 0.0 0.0 0.0 0.0
1.759 0.3378511965274811 -0.47390416264533997 0.0011621005833148956 0.000293816439807415 0.0 0.0 0.0 0.0
1.76 0.32402685284614563 -0.4850621521472931 0.0012335795909166336 0.00046546850353479385 0.0 0.0 0.0 0.0
1.761 0.305965781211853 -0.4903876483440399 0.0010874997824430466 0.00028114765882492065 0.0 0.0 0.0 0.0
1.762 0.2914484143257141 -0.49764665961265564 0.0010737236589193344 0.00033525191247463226 0.0 0.0 0.0 0.0
1.763 0.26886647939682007 -0.509961724281311 0.0013169627636671066 9.152665734291077e-05 0.0 0.0 0.0 0.0
1.764 0.2612612247467041 -0.5089744329452515 0.0013787904754281044 8.322857320308685e-05 0.0 0.0 0.0 0.0
1.765 0.23035098612308502 -0.5235180854797363 0.001089164987206459 5.414709448814392e-05 0.0 0.0 0.0 0.0
1.766 0.2190534621477127 -0.5257009863853455 0.0012111319229006767 4.37665730714798e-05 0.0 0.0 0.0 0.0
1.767 0.19740284979343414 -0.5325121283531189 0.0011978810653090477 0.00016617029905319214 0.0 0.0 0.0 0.0
1.768 0.18316534161567688 -0.5353213548660278 0.001244300976395607 -3.3562071621418e-05 0.0 0.0 0.0 0.0
1.769 0.16104775667190552 -0.5400298237800598 0.0010379785671830177 9.164959192276001e-05 0.0 0.0 0.0 0.0
1.77 0.14549243450164795 -0.5408288240432739 0.0012507671490311623 -0.0001423349604010582 0.0 0.0 0.0 0.0
1.771 0.12323914468288422 -0.5436080098152161 0.0010766470804810524 -6.630364805459976e-05 0.0 0.0 0.0 0.0
1.772 0.10062845051288605 -0.5453798770904541 0.0011592963710427284 -0.00033569615334272385 0.0 0.0 0.0 0.0
1.773 0.08432236313819885 -0.5458062887191772 0.0010398654267191887 -0.00024254433810710907 0.0 0.0 0.0 0.0
1.774 0.05748768895864487 -0.5457571744918823 0.0009618280455470085 -0.00037243589758872986 0.0 0.0 0.0 0.0
1.775 0.04834587499499321 -0.542895495891571 0.0010700654238462448 -0.00013243872672319412 0.0 0.0 0.0 0.0
1.776 0.025898778811097145 -0.5404272079467773 0.0011481856927275658 -0.0003752438351511955 0.0 0.0 0.0 0.0
1.777 0.010090731084346771 -0.539138913154602 0.001233852468430996 -0.00025389716029167175 0.0 0.0 0.0 0.0
1.778 -0.012750402092933655 -0.5410401821136475 0.0012850221246480942 -0.0003189379349350929 0.0 0.0 0.0 0.0
1.779 -0.027906998991966248 -0.5326524376869202 0.0011335965245962143 -0.00047864578664302826 0.0 0.0 0.0 0.0
1.78 -0.05291203781962395 -0.5338404774665833 0.0013096975162625313 -0.0006520608440041542 0.0 0.0 0.0 0.0
1.781 -0.062393952161073685 -0.5277697443962097 0.0013527218252420425 -0.0005727540701627731 0.0 0.0 0.0 0.0
1.782 -0.08599664270877838 -0.5214189291000366 0.0010436316952109337 -0.0008366666734218597 0.0 0.0 0.0 0.0
1.783 -0.10512179881334305 -0.5142478346824646 0.0011206846684217453 -0.0006893118843436241 0.0 0.0 0.0 0.0
1.784 -0.12147924304008484 -0.5102178454399109 0.0011915555223822594 -0.0008547529578208923 0.0 0.0 0.0 0.0
1.785 -0.1360723376274109 -0.502842128276825 0.001107390969991684 -0.000863400287926197 0.0 0.0 0.0 0.0
1.786 -0.15314945578575134 -0.4938834309577942 0.0010011522099375725 -0.0006606243550777435 0.0 0.0 0.0 0.0
1.787 -0.1707812249660492 -0.4851394295692444 0.0010101813822984695 -0.0007144473493099213 0.0 0.0 0.0 0.0
1.788 -0.18148593604564667 -0.481150358915329 0.0009278114885091782 -0.0008716126903891563 0.0 0.0 0.0 0.0
1.789 -0.20377382636070251 -0.4698064923286438 0.0007951278239488602 -0.0010424470528960228 0.0 0.0 0.0 0.0
1.79 -0.21413393318653107 -0.4599728584289551 0.0009602494537830353 -0.000864851288497448 0.0 0.0 0.0 0.0
1.791 -0.2355208694934845 -0.44630101323127747 0.0008689146488904953 -0.0010325880721211433 0.0 0.0 0.0 0.0
1.792 -0.24760961532592773 -0.44116437435150146 0.0007876846939325333 -0.0010302877053618431 0.0 0.0 0.0 0.0
1.793 -0.26431334018707275 -0.43016016483306885 0.0010102270171046257 -0.0009524021297693253 0.0 0.0 0.0 0.0
1.794 -0.27391067147254944 -0.4161319434642792 0.0007772911339998245 -0.001016923226416111 0.0 0.0 0.0 0.0
1.795 -0.2884805202484131 -0.4039795994758606 0.0005442854017019272 -0.0011231284588575363 0.0 0.0 0.0 0.0
1.796 -0.30206194519996643 -0.3937308192253113 0.0007729129865765572 -0.0011930502951145172 0.0 0.0 0.0 0.0
1.797 -0.31017985939979553 -0.3823627531528473 0.0005378639325499535 -0.0009263781830668449 0.0 0.0 0.0 0.0
1.798 -0.3249158263206482 -0.3665926158428192 0.0005728853866457939 -0.0009570177644491196 0.0 0.0 0.0 0.0
1.799 -0.3374618589878082 -0.35445258021354675 0.0006877360865473747 -0.001005447469651699 0.0 0.0 0.0 0.0
1.8 -0.3506186306476593 -0.33723628520965576 0.0008042650297284126 -0.001065772958099842 0.0 0.0 0.0 0.0
1.801 -0.3579542338848114 -0.3271661102771759 0.0005774330347776413 -0.0010983757674694061 0.0 0.0 0.0 0.0
1.802 -0.3733856678009033 -0.31097903847694397 0.0003297682851552963 -0.0011744629591703415 0.0 0.0 0.0 0.0
1.803 -0.3772260546684265 -0.30319228768348694 0.0006815530359745026 -0.0012605274096131325 0.0 0.0 0.0 0.0
1.804 -0.3930332660675049 -0.2774670124053955 0.0003185141831636429 -0.0012246305122971535 0.0 0.0 0.0 0.0
1.805 -0.3978319764137268 -0.2694076597690582 0.00040582194924354553 -0.0013532480224967003 0.0 0.0 0.0 0.0
1.806 -0.4074693024158478 -0.2535146176815033 0.000531734898686409 -0.0015407884493470192 0.0 0.0 0.0 0.0
1.807 -0.4134873151779175 -0.23619206249713898 0.00026416219770908356 -0.0014075040817260742 0.0 0.0 0.0 0.0
1.808 -0.4184968173503876 -0.22104540467262268 0.00015129148960113525 -0.0012781638652086258 0.0 0.0 0.0 0.0
1.809 -0.42417389154434204 -0.20521359145641327 0.00010155141353607178 -0.0016006818041205406 0.0 0.0 0.0 0.0
1.81 -0.4330592155456543 -0.19008149206638336 0.00018077250570058823 -0.001750824972987175 0.0 0.0 0.0 0.0
1.811 -0.4355783760547638 -0.17370618879795074 0.00018101930618286133 -0.0014638807624578476 0.0 0.0 0.0 0.0
1.812 -0.4435994029045105 -0.1578475683927536 0.00012717675417661667 -0.0017888899892568588 0.0 0.0 0.0 0.0
1.813 -0.44434618949890137 -0.1459888219833374 -1.2285076081752777e-05 -0.0016175145283341408 0.0 0.0 0.0 0.0
1.814 -0.44954270124435425 -0.13064420223236084 -0.00018069706857204437 -0.0016018245369195938 0.0 0.0 0.0 0.0
1.815 -0.4530709385871887 -0.11278247088193893 -7.259007543325424e-05 -0.0017166994512081146 0.0 0.0 0.0 0.0
1.816 -0.4545106291770935 -0.09368997067213058 -0.00028517935425043106 -0.0016923248767852783 0.0 0.0 0.0 0.0
1.817 -0.45930102467536926 -0.07885737717151642 -0.00011870637536048889 -0.0016241827979683876 0.0 0.0 0.0 0.0
1.818 -0.46153363585472107 -0.06223007291555405 -0.00043075624853372574 -0.0017397254705429077 0.0 0.0 0.0 0.0
1.819 -0.46282076835632324 -0.045455384999513626 -0.0004664761945605278 -0.0016744956374168396 0.0 0.0 0.0 0.0
1.82 -0.4599253535270691 -0.03272571787238121 -0.0006387997418642044 -0.001486317254602909 0.0 0.0 0.0 0.0
1.821 -0.46237578988075256 -0.02080448344349861 -0.0008645402267575264 -0.0018197325989603996 0.0 0.0 0.0 0.0
1.822 -0.464729368686676 0.0038568731397390366 -0.000866561196744442 -0.0016255052760243416 0.0 0.0 0.0 0.0
1.823 -0.4644376039505005 0.010490193031728268 -0.0008394569158554077 -0.0015652524307370186 0.0 0.0 0.0 0.0
1.824 -0.463789701461792 0.03592731058597565 -0.0010758303105831146 -0.0015195999294519424 0.0 0.0 0.0 0.0
1.825 -0.46326807141304016 0.04499899595975876 -0.001138666644692421 -0.0013828352093696594 0.0 0.0 0.0 0.0
1.826 -0.4606322944164276 0.06504722684621811 -0.0013423217460513115 -0.0011993879452347755 0.0 0.0 0.0 0.0
1.827 -0.4593029022216797 0.07159847766160965 -0.0011936482042074203 -0.0012418050318956375 0.0 0.0 0.0 0.0
1.828 -0.4571659564971924 0.09059217572212219 -0.0011732736602425575 -0.0011340901255607605 0.0 0.0 0.0 0.0
1.829 -0.4544902443885803 0.10344068706035614 -0.0014104675501585007 -0.0011267978698015213 0.0 0.0 0.0 0.0
1.83 -0.4558587074279785 0.12530648708343506 -0.001583889126777649 -0.0013619707897305489 0.0 0.0 0.0 0.0
1.831 -0.44801461696624756 0.13973088562488556 -0.00153319351375103 -0.00099861528724432 0.0 0.0 0.0 0.0
1.832 -0.4434990882873535 0.1530866175889969 -0.0016959039494395256 -0.0007166583091020584 0.0 0.0 0.0 0.0
1.833 -0.441864550113678 0.16935357451438904 -0.001771685667335987 -0.0010831234976649284 0.0 0.0 0.0 0.0
1.834 -0.4392646253108978 0.18042951822280884 -0.0015133321285247803 -0.0006183013319969177 0.0 0.0 0.0 0.0
1.835 -0.4314895272254944 0.20055386424064636 -0.0016759969294071198 -0.0005960837006568909 0.0 0.0 0.0 0.0
1.836 -0.43040579557418823 0.2101232409477234 -0.0014978274703025818 -0.000509786419570446 0.0 0.0 0.0 0.0
1.837 -0.42039990425109863 0.23112373054027557 -0.001756015233695507 -0.00029151421040296555 0.0 0.0 0.0 0.0
1.838 -0.41494929790496826 0.24579434096813202 -0.0017129862681031227 -0.00042070820927619934 0.0 0.0 0.0 0.0
1.839 -0.4081546366214752 0.25724294781684875 -0.001788894645869732 -0.00031392741948366165 0.0 0.0 0.0 0.0
1.84 -0.40378400683403015 0.27048295736312866 -0.001744687557220459 -0.000410483218729496 0.0 0.0 0.0 0.0
1.841 -0.3921744227409363 0.2909858226776123 -0.0014594830572605133 -0.000171782448887825 0.0 0.0 0.0 0.0
1.842 -0.38948965072631836 0.29985901713371277 -0.0018026158213615417 -0.00019671209156513214 0.0 0.0 0.0 0.0
1.843 -0.37853989005088806 0.3180469870567322 -0.00151810422539711 -0.0003090081736445427 0.0 0.0 0.0 0.0
1.844 -0.36691898107528687 0.3291659951210022 -0.0016063693910837173 9.37432050704956e-05 0.0 0.0 0.0 0.0
1.845 -0.3591797947883606 0.34287768602371216 -0.0018662726506590843 -9.621120989322662e-05 0.0 0.0 0.0 0.0
1.846 -0.34698280692100525 0.35839948058128357 -0.001385694369673729 0.00021490361541509628 0.0 0.0 0.0 0.0
1.847 -0.3392958641052246 0.37012767791748047 -0.001742732711136341 0.0004131905734539032 0.0 0.0 0.0 0.0
1.848 -0.3200085461139679 0.3844950497150421 -0.0014590360224246979 0.0006270837038755417 0.0 0.0 0.0 0.0
1.849 -0.3130248188972473 0.39686980843544006 -0.0013591619208455086 0.0003354772925376892 0.0 0.0 0.0 0.0
1.85 -0.3036523461341858 0.40724000334739685 -0.0014799274504184723 0.0003627939149737358 0.0 0.0 0.0 0.0
1.851 -0.28825291991233826 0.4203268587589264 -0.001259571872651577 0.00039619673043489456 0.0 0.0 0.0 0.0
1.852 -0.2710133194923401 0.4323050081729889 -0.0014494340866804123 0.000799473375082016 0.0 0.0 0.0 0.0
1.853 -0.26068249344825745 0.4434773921966553 -0.0013446789234876633 0.0006928900256752968 0.0 0.0 0.0 0.0
1.854 -0.24379894137382507 0.4567683935165405 -0.0014115842059254646 0.0006606746464967728 0.0 0.0 0.0 0.0
1.855 -0.23025836050510406 0.46162205934524536 -0.0012978781014680862 0.0007879044860601425 0.0 0.0 0.0 0.0
1.856 -0.21037709712982178 0.4738937318325043 -0.0011736992746591568 0.0009535448625683784 0.0 0.0 0.0 0.0
1.857 -0.20665915310382843 0.47666406631469727 -0.0010849162936210632 0.0006311899051070213 0.0 0.0 0.0 0.0
1.858 -0.18438933789730072 0.4917055070400238 -0.0012170011177659035 0.0008643502369523048 0.0 0.0 0.0 0.0
1.859 -0.17303594946861267 0.4926118552684784 -0.0009013768285512924 0.000981546938419342 0.0 0.0 0.0 0.0
1.86 -0.16147658228874207 0.5001909732818604 -0.0009941216558218002 0.0007509905844926834 0.0 0.0 0.0 0.0
1.861 -0.13684473931789398 0.5050287246704102 -0.0009284950792789459 0.0009326562285423279 0.0 0.0 0.0 0.0
1.862 -0.12587617337703705 0.5099237561225891 -0.0010373303666710854 0.0010097222402691841 0.0 0.0 0.0 0.0
1.863 -0.10805943608283997 0.5165388584136963 -0.0007669413462281227 0.0008390182629227638 0.0 0.0 0.0 0.0
1.864 -0.09691279381513596 0.5200731754302979 -0.0008035982027649879 0.0009453613311052322 0.0 0.0 0.0 0.0
1.865 -0.07023212313652039 0.5251079201698303 -0.0008675223216414452 0.0011383555829524994 0.0 0.0 0.0 0.0
1.866 -0.058495134115219116 0.5277697443962097 -0.0009713834151625633 0.000986773520708084 0.0 0.0 0.0 0.0
1.867 -0.047363702207803726 0.5307510495185852 -0.0006247106939554214 0.0013379091396927834 0.0 0.0 0.0 0.0
1.868 -0.027701018378138542 0.5306252837181091 -0.00048273056745529175 0.0012114150449633598 0.0 0.0 0.0 0.0
1.869 -0.011641263961791992 0.53532475233078 -0.0008077351376414299 0.0013454379513859749 0.0 0.0 0.0 0.0
1.87 0.0012619756162166595 0.5380527377128601 -0.0002583162859082222 0.0010838452726602554 0.0 0.0 0.0 0.0
1.871 0.012056231498718262 0.5371482372283936 -0.00015662051737308502 0.0011469768360257149 0.0 0.0 0.0 0.0
1.872 0.0478382483124733 0.5412782430648804 -0.0004955800250172615 0.0010046707466244698 0.0 0.0 0.0 0.0
1.873 0.04947446286678314 0.5420619249343872 -7.125921547412872e-05 0.0011994140222668648 0.0 0.0 0.0 0.0
1.874 0.06446175277233124 0.5409970283508301 -0.0001748502254486084 0.0014636917039752007 0.0 0.0 0.0 0.0
1.875 0.07749759405851364 0.5418137311935425 -0.00018429197371006012 0.0011050933972001076 0.0 0.0 0.0 0.0
1.876 0.10454048961400986 0.5396939516067505 -0.0002321070060133934 0.001097097061574459 0.0 0.0 0.0 0.0
1.877 0.11375030130147934 0.5372713804244995 1.698918640613556e-05 0.0011716671288013458 0.0 0.0 0.0 0.0
1.878 0.132052481174469 0.5362130403518677 -0.00019919034093618393 0.001136835664510727 0.0 0.0 0.0 0.0
1.879 0.1431007832288742 0.5367183089256287 0.00011730659753084183 0.0012674229219555855 0.0 0.0 0.0 0.0
1.88 0.16688136756420135 0.530781090259552 0.0001282859593629837 0.0013442356139421463 0.0 0.0 0.0 0.0
1.881 0.17985692620277405 0.5288037657737732 0.00019147712737321854 0.00103779137134552 0.0 0.0 0.0 0.0
1.882 0.1994335800409317 0.5276190638542175 0.00012633297592401505 0.0013314737007021904 0.0 0.0 0.0 0.0
1.883 0.21210543811321259 0.5209768414497375 0.00037298910319805145 0.001288359984755516 0.0 0.0 0.0 0.0
1.884 0.23580613732337952 0.5180678367614746 1.8631108105182648e-05 0.001262451522052288 0.0 0.0 0.0 0.0
1.885 0.2464655190706253 0.5103949308395386 0.0003740871325135231 0.0013768123462796211 0.0 0.0 0.0 0.0
1.886 0.26461270451545715 0.5026264190673828 0.00019854772835969925 0.0011086566373705864 0.0 0.0 0.0 0.0
1.887 0.2754989266395569 0.49725666642189026 0.0008161971345543861 0.001266774721443653 0.0 0.0 0.0 0.0
1.888 0.28996533155441284 0.4882253110408783 0.0005083363503217697 0.0009421175345778465 0.0 0.0 0.0 0.0
1.889 0.3109593391418457 0.4763026237487793 0.0006877770647406578 0.001235414296388626 0.0 0.0 0.0 0.0
1.89 0.3234681189060211 0.4700094163417816 0.0010136300697922707 0.0008029229938983917 0.0 0.0 0.0 0.0
1.891 0.33940598368644714 0.4638500511646271 0.0007622344419360161 0.0009382525458931923 0.0 0.0 0.0 0.0
1.892 0.35210853815078735 0.4544617831707001 0.0010762251913547516 0.0007027201354503632 0.0 0.0 0.0 0.0
1.893 0.37319621443748474 0.43463951349258423 0.0008030962198972702 0.00045028701424598694 0.0 0.0 0.0 0.0
1.894 0.3780849277973175 0.43351680040359497 0.0011238567531108856 0.0005577336996793747 0.0 0.0 0.0 0.0
1.895 0.3962654769420624 0.41799601912498474 0.0007743937894701958 0.00033171381801366806 0.0 0.0 0.0 0.0
1.896 0.41181492805480957 0.4088272452354431 0.0010466771200299263 0.00046051107347011566 0.0 0.0 0.0 0.0
1.897 0.4208851456642151 0.39560917019844055 0.0007651345804333687 0.00010509323328733444 0.0 0.0 0.0 0.0
1.898 0.4288724958896637 0.38249003887176514 0.0009888680651783943 0.00016150157898664474 0.0 0.0 0.0 0.0
1.899 0.4429318606853485 0.3659679591655731 0.001015862450003624 0.0001320336014032364 0.0 0.0 0.0 0.0
1.9 0.45144614577293396 0.3560490012168884 0.0011751065030694008 -0.00019132066518068314 0.0 0.0 0.0 0.0
1.901 0.4629347026348114 0.34609514474868774 0.00046575162559747696 -7.30445608496666e-05 0.0 0.0 0.0 0.0
1.902 0.47030001878738403 0.329107403755188 0.0007898313924670219 0.00023781601339578629 0.0 0.0 0.0 0.0
1.903 0.4802643358707428 0.3186613917350769 0.0009061004966497421 -0.00016786064952611923 0.0 0.0 0.0 0.0
1.904 0.4942704439163208 0.2988622486591339 0.0006356276571750641 0.00014840997755527496 0.0 0.0 0.0 0.0
1.905 0.49599573016166687 0.2931246757507324 0.0008419333025813103 -0.00022685620933771133 0.0 0.0 0.0 0.0
1.906 0.5135442614555359 0.2678639888763428 0.0007987776771187782 -0.0002378830686211586 0.0 0.0 0.0 0.0
1.907 0.5145336389541626 0.25737321376800537 0.0005230233073234558 -0.00023144204169511795 0.0 0.0 0.0 0.0
1.908 0.5264201760292053 0.24072474241256714 0.0006835628300905228 -8.932594209909439e-05 0.0 0.0 0.0 0.0
1.909 0.5309889912605286 0.2258388251066208 0.00019731931388378143 -0.0003650570288300514 0.0 0.0 0.0 0.0
1.91 0.5389525890350342 0.20801198482513428 0.00021233689039945602 -0.0003996826708316803 0.0 0.0 0.0 0.0
1.911 0.5466058254241943 0.18481002748012543 0.0005962932482361794 -0.00047925952821969986 0.0 0.0 0.0 0.0
1.912 0.5496978163719177 0.17420828342437744 9.453389793634415e-05 -0.0007182899862527847 0.0 0.0 0.0 0.0
1.913 0.5540214776992798 0.15685513615608215 0.00033883843570947647 -0.00052693672478199 0.0 0.0 0.0 0.0
1.914 0.5595118999481201 0.13844986259937286 0.0004935013130307198 -0.0004459396004676819 0.0 0.0 0.0 0.0
1.915 0.5622363090515137 0.12016157060861588 0.00019702501595020294 -0.0006487155333161354 0.0 0.0 0.0 0.0
1.916 0.5663615465164185 0.10371387749910355 0.00012411735951900482 -0.0006646234542131424 0.0 0.0 0.0 0.0
1.917 0.5719295144081116 0.08260395377874374 1.3498589396476746e-05 -0.0003509940579533577 0.0 0.0 0.0 0.0
1.918 0.5698264241218567 0.07205440104007721 -0.00013376027345657349 -0.00035574380308389664 0.0 0.0 0.0 0.0
1.919 0.5707638263702393 0.041102733463048935 -0.0001833755522966385 -0.00025729089975357056 0.0 0.0 0.0 0.0
1.92 0.5696689486503601 0.025868818163871765 -7.990468293428421e-05 -0.00030121859163045883 0.0 0.0 0.0 0.0
1.921 0.5727934241294861 0.006689811125397682 2.802535891532898e-05 -0.00044359825551509857 0.0 0.0 0.0 0.0
1.922 0.5699899792671204 -0.008322740904986858 -3.506988286972046e-05 -0.0002897316589951515 0.0 0.0 0.0 0.0
1.923 0.5642207264900208 -0.03475751727819443 -7.260777056217194e-05 -0.0004826569929718971 0.0 0.0 0.0 0.0
1.924 0.5643748044967651 -0.0489022321999073 -0.00023232772946357727 -9.329896420240402e-05 0.0 0.0 0.0 0.0
1.925 0.5620787739753723 -0.06595741212368011 -0.00032528769224882126 0.00012538395822048187 0.0 0.0 0.0 0.0
1.926 0.5549266338348389 -0.08003047108650208 -0.00040200352668762207 -8.415058255195618e-05 0.0 0.0 0.0 0.0
1.927 0.5496912598609924 -0.09848672896623611 -0.0001239599660038948 -0.0005724178627133369 0.0 0.0 0.0 0.0
1.928 0.5434733629226685 -0.12060517817735672 -0.0004947567358613014 -0.00026304181665182114 0.0 0.0 0.0 0.0
1.929 0.5388804078102112 -0.13567957282066345 -0.00019516795873641968 3.853440284729004e-05 0.0 0.0 0.0 0.0
1.93 0.5269371867179871 -0.15791234374046326 -0.00048269424587488174 -0.00020275823771953583 0.0 0.0 0.0 0.0
1.931 0.5226486325263977 -0.17063291370868683 -5.8902427554130554e-05 -0.0001760898157954216 0.0 0.0 0.0 0.0
1.932 0.5106187462806702 -0.18898898363113403 -0.00010389648377895355 -0.00023272261023521423 0.0 0.0 0.0 0.0
1.933 0.5059793591499329 -0.20314939320087433 -0.00010195188224315643 -0.0002984004095196724 0.0 0.0 0.0 0.0
1.934 0.4953854978084564 -0.222048819065094 -0.0002914872020483017 0.00013366155326366425 0.0 0.0 0.0 0.0
1.935 0.4839633107185364 -0.23907680809497833 -0.00022057723253965378 -0.00013438239693641663 0.0 0.0 0.0 0.0
1.936 0.4710961878299713 -0.2583063244819641 -0.00021160393953323364 -0.000319099985063076 0.0 0.0 0.0 0.0
1.937 0.4605364203453064 -0.2642900347709656 -0.00032426975667476654 -0.00011486466974020004 0.0 0.0 0.0 0.0
1.938 0.4472067952156067 -0.2869028151035309 -0.00020392891019582748 -0.00018839258700609207 0.0 0.0 0.0 0.0
1.939 0.43852460384368896 -0.2984178364276886 -0.0002897968515753746 0.00014067068696022034 0.0 0.0 0.0 0.0
1.94 0.42622050642967224 -0.3106612265110016 -0.0006690947338938713 0.00012437347322702408 0.0 0.0 0.0 0.0
1.941 0.4092251658439636 -0.3249375820159912 -0.0004150606691837311 -0.0001664441078901291 0.0 0.0 0.0 0.0
1.942 0.4017171263694763 -0.32962387800216675 -0.0007725069299340248 9.903870522975922e-05 0.0 0.0 0.0 0.0
1.943 0.3809225559234619 -0.34945496916770935 -0.0007964139804244041 0.00014616642147302628 0.0 0.0 0.0 0.0
1.944 0.3681688904762268 -0.3631088435649872 -0.0005377288907766342 0.0005203774198889732 0.0 0.0 0.0 0.0
1.945 0.3518346846103668 -0.372787743806839 -0.0005563655868172646 0.0004765847697854042 0.0 0.0 0.0 0.0
1.946 0.3438892960548401 -0.3773641884326935 -0.00034795980900526047 0.0005893828347325325 0.0 0.0 0.0 0.0
1.947 0.3179253339767456 -0.39325186610221863 -0.000572986900806427 0.0006151022389531136 0.0 0.0 0.0 0.0
1.948 0.30847784876823425 -0.3985324203968048 -0.0003316625952720642 0.0005442127585411072 0.0 0.0 0.0 0.0
1.949 0.2902270555496216 -0.4134061932563782 -0.0002668183296918869 0.0006759315729141235 0.0 0.0 0.0 0.0
1.95 0.27090713381767273 -0.41961604356765747 -0.00013312231749296188 0.0004759291186928749 0.0 0.0 0.0 0.0
1.951 0.26069918274879456 -0.42364078760147095 -0.00016081426292657852 0.0007637804374098778 0.0 0.0 0.0 0.0
1.952 0.23523196578025818 -0.4346635341644287 -0.000167173333466053 0.0005090823397040367 0.0 0.0 0.0 0.0
1.953 0.21839766204357147 -0.4398127496242523 2.1222978830337524e-05 0.0005070138722658157 0.0 0.0 0.0 0.0
1.954 0.20039375126361847 -0.4442732036113739 -0.0002507288008928299 0.000993836671113968 0.0 0.0 0.0 0.0
1.955 0.18030734360218048 -0.4478268325328827 -0.00019407551735639572 0.0008187294006347656 0.0 0.0 0.0 0.0
1.956 0.1575801521539688 -0.4532044529914856 -0.00036324746906757355 0.0006318846717476845 0.0 0.0 0.0 0.0
1.957 0.15010257065296173 -0.456085205078125 -0.00030993856489658356 0.0008849557489156723 0.0 0.0 0.0 0.0
1.958 0.12921413779258728 -0.4569196105003357 -5.032867193222046e-05 0.000783347524702549 0.0 0.0 0.0 0.0
1.959 0.10718168318271637 -0.4630410969257355 0.00012271106243133545 0.00077084731310606 0.0 0.0 0.0 0.0
1.96 0.09183409065008163 -0.46025872230529785 7.323641330003738e-05 0.0007408689707517624 0.0 0.0 0.0 0.0
1.961 0.06949099153280258 -0.46285131573677063 0.0002604294568300247 0.0007676240056753159 0.0 0.0 0.0 0.0
1.962 0.051178839057683945 -0.4613317847251892 0.00031760986894369125 0.0010873973369598389 0.0 0.0 0.0 0.0
1.963 0.034896064549684525 -0.4608605206012726 -0.00013007503002882004 0.0012275772169232368 0.0 0.0 0.0 0.0
1.964 0.011944304220378399 -0.4595351219177246 0.0002883234992623329 0.0010285330936312675 0.0 0.0 0.0 0.0
1.965 -0.00653719250112772 -0.4544888734817505 6.52167946100235e-05 0.0008368454873561859 0.0 0.0 0.0 0.0
1.966 -0.025919528678059578 -0.44936424493789673 0.00019090715795755386 0.0011638710275292397 0.0 0.0 0.0 0.0
1.967 -0.0391198992729187 -0.4478164315223694 8.816458284854889e-05 0.001160506159067154 0.0 0.0 0.0 0.0
1.968 -0.05898401141166687 -0.44301465153694153 0.00048643071204423904 0.00115283764898777 0.0 0.0 0.0 0.0
1.969 -0.0799599289894104 -0.43936339020729065 0.0004482865333557129 0.0007900027558207512 0.0 0.0 0.0 0.0
1.97 -0.09819118678569794 -0.43319427967071533 0.0004613734781742096 0.0008454900234937668 0.0 0.0 0.0 0.0
1.971 -0.11258058995008469 -0.42671433091163635 0.0005689552053809166 0.0011552795767784119 0.0 0.0 0.0 0.0
1.972 -0.1372275948524475 -0.41675320267677307 0.0006802184507250786 0.0008002109825611115 0.0 0.0 0.0 0.0
1.973 -0.14585193991661072 -0.413659006357193 0.0006895018741488457 0.0011050309985876083 0.0 0.0 0.0 0.0
1.974 -0.1714513748884201 -0.40320050716400146 0.001081499271094799 0.0008264044299721718 0.0 0.0 0.0 0.0
1.975 -0.18150897324085236 -0.3959161043167114 0.0007111635059118271 0.0008722627535462379 0.0 0.0 0.0 0.0
1.976 -0.1963280290365219 -0.38784459233283997 0.0011533759534358978 0.0012412387877702713 0.0 0.0 0.0 0.0
1.977 -0.21302306652069092 -0.3744477927684784 0.0009592529386281967 0.0010584564879536629 0.0 0.0 0.0 0.0
1.978 -0.228929340839386 -0.36581501364707947 0.0011977562680840492 0.0011868691071867943 0.0 0.0 0.0 0.0
1.979 -0.24598576128482819 -0.35304126143455505 0.0014410335570573807 0.0008365204557776451 0.0 0.0 0.0 0.0
1.98 -0.25312352180480957 -0.3454509377479553 0.0014769341796636581 0.0008283592760562897 0.0 0.0 0.0 0.0
1.981 -0.27205193042755127 -0.33066192269325256 0.0013401350006461143 0.0008362913504242897 0.0 0.0 0.0 0.0
1.982 -0.28163421154022217 -0.3199388086795807 0.0015808893367648125 0.0006868885830044746 0.0 0.0 0.0 0.0
1.983 -0.29575830698013306 -0.3033212423324585 0.001589667983353138 0.0008565522730350494 0.0 0.0 0.0 0.0
1.984 -0.3041105270385742 -0.2931484878063202 0.0015604561194777489 0.0008069789037108421 0.0 0.0 0.0 0.0
1.985 -0.31944942474365234 -0.281436562538147 0.001962084323167801 0.00045855622738599777 0.0 0.0 0.0 0.0
1.986 -0.3288997709751129 -0.26684248447418213 0.0017741462215781212 0.0004576863721013069 0.0 0.0 0.0 0.0
1.987 -0.3423282206058502 -0.25160452723503113 0.0016979249194264412 0.00019228365272283554 0.0 0.0 0.0 0.0
1.988 -0.3493865728378296 -0.24016006290912628 0.00226511899381876 0.00044318847358226776 0.0 0.0 0.0 0.0
1.989 -0.3631695806980133 -0.22557155787944794 0.002060703933238983 -0.00021509826183319092 0.0 0.0 0.0 0.0
1.99 -0.3667129576206207 -0.21295925974845886 0.0021263975650072098 3.078393638134003e-05 0.0 0.0 0.0 0.0
1.991 -0.3796878457069397 -0.1975833922624588 0.0019890880212187767 -0.0003142058849334717 0.0 0.0 0.0 0.0
1.992 -0.3864043653011322 -0.1800847202539444 0.002031482756137848 -0.00023890100419521332 0.0 0.0 0.0 0.0
1.993 -0.3947278559207916 -0.1705687940120697 0.001962859183549881 -0.0005874345079064369 0.0 0.0 0.0 0.0
1.994 -0.4048852026462555 -0.15189023315906525 0.0020302962511777878 -0.0007998859509825706 0.0 0.0 0.0 0.0
1.995 -0.41118237376213074 -0.1377481371164322 0.0021157050505280495 -0.00089314766228199 0.0 0.0 0.0 0.0
1.996 -0.41763418912887573 -0.11445865780115128 0.0019006356596946716 -0.0009341435506939888 0.0 0.0 0.0 0.0
1.997 -0.4209187626838684 -0.10799118131399155 0.0020397137850522995 -0.000867295078933239 0.0 0.0 0.0 0.0
1.998 -0.4271588921546936 -0.09053460508584976 0.0018939636647701263 -0.0011332733556628227 0.0 0.0 0.0 0.0
1.999 -0.4314791262149811 -0.06872758269309998 0.001802179031074047 -0.0008509941399097443 0.0 0.0 0.0 0.0
2.0 -0.43707475066185 -0.059005603194236755 0.0018077502027153969 -0.0011367537081241608 0.0 0.0 0.0 0.0
2.001 -0.4386742115020752 -0.028166763484477997 0.0017921114340424538 -0.0015843268483877182 0.0 0.0 0.0 0.0
2.002 -0.4380325675010681 -0.017230046913027763 0.0013535358011722565 -0.0016831951215863228 0.0 0.0 0.0 0.0
2.003 -0.44200316071510315 -0.008309297263622284 0.0015744157135486603 -0.0017170198261737823 0.0 0.0 0.0 0.0
2.004 -0.4434029757976532 0.019014818593859673 0.0014013070613145828 -0.0018956279382109642 0.0 0.0 0.0 0.0
2.005 -0.4460228383541107 0.024497663602232933 0.0014668507501482964 -0.0017752209678292274 0.0 0.0 0.0 0.0
2.006 -0.4443190097808838 0.04717956483364105 0.0009429743513464928 -0.0021080654114484787 0.0 0.0 0.0 0.0
2.007 -0.4458748400211334 0.06167948618531227 0.0008095381781458855 -0.0018717730417847633 0.0 0.0 0.0 0.0
2.008 -0.44805553555488586 0.07784143090248108 0.0011415500193834305 -0.0020235804840922356 0.0 0.0 0.0 0.0
2.009 -0.44756537675857544 0.09322141855955124 0.0010122880339622498 -0.0019629523158073425 0.0 0.0 0.0 0.0
2.01 -0.44632551074028015 0.10860400646924973 0.0006325403228402138 -0.00209086574614048 0.0 0.0 0.0 0.0
2.011 -0.4452192187309265 0.12870122492313385 0.0006628725677728653 -0.0021827323362231255 0.0 0.0 0.0 0.0
2.012 -0.4443932771682739 0.14373323321342468 0.0003928663209080696 -0.0023944703862071037 0.0 0.0 0.0 0.0
2.013 -0.4429314136505127 0.16295520961284637 0.00032724253833293915 -0.0023290421813726425 0.0 0.0 0.0 0.0
2.014 -0.438450425863266 0.17257793247699738 0.00025381892919540405 -0.002364254556596279 0.0 0.0 0.0 0.0
2.015 -0.4335002601146698 0.19496090710163116 7.741153240203857e-05 -0.0022056782618165016 0.0 0.0 0.0 0.0
2.016 -0.4314410388469696 0.2087116241455078 3.9900653064250946e-05 -0.0021665990352630615 0.0 0.0 0.0 0.0
2.017 -0.42671602964401245 0.22454188764095306 3.931857645511627e-05 -0.0022401101887226105 0.0 0.0 0.0 0.0
2.018 -0.41970130801200867 0.24099457263946533 -0.0002592373639345169 -0.0025921612977981567 0.0 0.0 0.0 0.0
2.019 -0.41577592492103577 0.2569482624530792 -0.00015180371701717377 -0.0023946035653352737 0.0 0.0 0.0 0.0
2.02 -0.4078192710876465 0.2721119821071625 -0.0006246436387300491 -0.0020497730001807213 0.0 0.0 0.0 0.0
2.021 -0.4030466079711914 0.28335481882095337 -0.00032157450914382935 -0.002114471048116684 0.0 0.0 0.0 0.0
2.022 -0.3941892385482788 0.3034169673919678 -0.0006670588627457619 -0.0023541292175650597 0.0 0.0 0.0 0.0
2.023 -0.38990911841392517 0.3115285038948059 -0.00047762133181095123 -0.0021465886384248734 0.0 0.0 0.0 0.0
2.024 -0.3806014955043793 0.3302309215068817 -0.0008642654865980148 -0.002115846611559391 0.0 0.0 0.0 0.0
2.025 -0.37336280941963196 0.3434796929359436 -0.0009387275204062462 -0.0020211562514305115 0.0 0.0 0.0 0.0
2.026 -0.360161155462265 0.3607366383075714 -0.00122832041233778 -0.0020167436450719833 0.0 0.0 0.0 0.0
2.027 -0.3546507954597473 0.3703484535217285 -0.001047755591571331 -0.0022249016910791397 0.0 0.0 0.0 0.0
2.028 -0.34002795815467834 0.3867078125476837 -0.0011714184656739235 -0.0016599399968981743 0.0 0.0 0.0 0.0
2.029 -0.3301186263561249 0.3974440097808838 -0.001436048187315464 -0.0019722552970051765 0.0 0.0 0.0 0.0
2.03 -0.3217988908290863 0.4104626178741455 -0.001363726332783699 -0.0016981596127152443 0.0 0.0 0.0 0.0
2.031 -0.30972450971603394 0.4202573299407959 -0.0014555426314473152 -0.0016758870333433151 0.0 0.0 0.0 0.0
2.032 -0.30148106813430786 0.4292582869529724 -0.0016576992347836494 -0.001642456278204918 0.0 0.0 0.0 0.0
2.033 -0.28737586736679077 0.4435226321220398 -0.0015757512301206589 -0.0020125070586800575 0.0 0.0 0.0 0.0
2.034 -0.27889248728752136 0.4517294466495514 -0.0017833979800343513 -0.0015671644359827042 0.0 0.0 0.0 0.0
2.035 -0.26233726739883423 0.46619439125061035 -0.0015785926952958107 -0.0017780140042304993 0.0 0.0 0.0 0.0
2.036 -0.25220629572868347 0.47169309854507446 -0.0016075922176241875 -0.0016030967235565186 0.0 0.0 0.0 0.0
2.037 -0.23813346028327942 0.4845658540725708 -0.001919969916343689 -0.0016439985483884811 0.0 0.0 0.0 0.0
2.038 -0.22722621262073517 0.4908115267753601 -0.0020868228748440742 -0.0015847738832235336 0.0 0.0 0.0 0.0
2.039 -0.2110522836446762 0.5009272694587708 -0.002048228867352009 -0.0013114707544445992 0.0 0.0 0.0 0.0
2.04 -0.20038661360740662 0.5058544278144836 -0.0021179644390940666 -0.0013753501698374748 0.0 0.0 0.0 0.0
2.041 -0.18715880811214447 0.5163014531135559 -0.0024422649294137955 -0.0011889338493347168 0.0 0.0 0.0 0.0
2.042 -0.17830559611320496 0.5214966535568237 -0.002310803160071373 -0.0011382829397916794 0.0 0.0 0.0 0.0
2.043 -0.16029155254364014 0.533202052116394 -0.002396099269390106 -0.0010026665404438972 0.0 0.0 0.0 0.0
2.044 -0.1481829136610031 0.5344542264938354 -0.0025525903329253197 -0.0008265180513262749 0.0 0.0 0.0 0.0
2.045 -0.13080310821533203 0.5441449284553528 -0.002542552538216114 -0.0007477104663848877 0.0 0.0 0.0 0.0
2.046 -0.11528012901544571 0.5465205907821655 -0.0024233348667621613 -0.0006892196834087372 0.0 0.0 0.0 0.0
2.047 -0.10493844747543335 0.555002748966217 -0.0026138154789805412 -0.0003170119598507881 0.0 0.0 0.0 0.0
2.048 -0.08290385454893112 0.5596799850463867 -0.0027572084218263626 -0.00037914980202913284 0.0 0.0 0.0 0.0
2.049 -0.07419557869434357 0.565536379814148 -0.00260316114872694 -0.0003648744896054268 0.0 0.0 0.0 0.0
2.05 -0.05483989790081978 0.569878101348877 -0.002698819153010845 -0.00011769309639930725 0.0 0.0 0.0 0.0
2.051 -0.04201065003871918 0.5719255208969116 -0.0028918432071805 0.00011113565415143967 0.0 0.0 0.0 0.0
2.052 -0.024019496515393257 0.5728124976158142 -0.002730392850935459 0.0003628171980381012 0.0 0.0 0.0 0.0
2.053 -0.009059172123670578 0.5752092599868774 -0.002773408778011799 0.0004112599417567253 0.0 0.0 0.0 0.0
2.054 0.004657388664782047 0.5775604248046875 -0.0025498541072010994 0.0002377443015575409 0.0 0.0 0.0 0.0
2.055 0.023184750229120255 0.5774270296096802 -0.00267651304602623 0.0003934605047106743 0.0 0.0 0.0 0.0
2.056 0.03478505089879036 0.5790801048278809 -0.002570192329585552 0.0008028037846088409 0.0 0.0 0.0 0.0
2.057 0.057256847620010376 0.5778616666793823 -0.0028317971155047417 0.0010423390194773674 0.0 0.0 0.0 0.0
2.058 0.06983619928359985 0.5805674195289612 -0.0023520831018686295 0.0010532420128583908 0.0 0.0 0.0 0.0
2.059 0.08652067184448242 0.5769549608230591 -0.002492351457476616 0.0011936696246266365 0.0 0.0 0.0 0.0
2.06 0.09891936182975769 0.5772759318351746 -0.002734827809035778 0.0012282095849514008 0.0 0.0 0.0 0.0
2.061 0.11868660897016525 0.5720656514167786 -0.002433474175632 0.001659388653934002 0.0 0.0 0.0 0.0
2.062 0.12931138277053833 0.5675878524780273 -0.002329515293240547 0.0015856223180890083 0.0 0.0 0.0 0.0
2.063 0.14691020548343658 0.567437469959259 -0.0024657733738422394 0.0017180480062961578 0.0 0.0 0.0 0.0
2.064 0.15845054388046265 0.5636969208717346 -0.0021114805713295937 0.001928861252963543 0.0 0.0 0.0 0.0
2.065 0.17685598134994507 0.5618746280670166 -0.002083064988255501 0.002074768766760826 0.0 0.0 0.0 0.0
2.066 0.18867547810077667 0.5541948080062866 -0.0020387163385748863 0.002158333547413349 0.0 0.0 0.0 0.0
2.067 0.204893559217453 0.5510239005088806 -0.0017652744427323341 0.0023325104266405106 0.0 0.0 0.0 0.0
2.068 0.21275922656059265 0.5445635318756104 -0.0017897924408316612 0.00235770083963871 0.0 0.0 0.0 0.0
2.069 0.23102600872516632 0.5420643091201782 -0.001804710365831852 0.0025410782545804977 0.0 0.0 0.0 0.0
2.07 0.24439644813537598 0.5333307981491089 -0.0014833193272352219 0.002371053211390972 0.0 0.0 0.0 0.0
2.071 0.25749751925468445 0.5280319452285767 -0.0014497088268399239 0.002932202070951462 0.0 0.0 0.0 0.0
2.072 0.2738998234272003 0.5210710763931274 -0.0013484843075275421 0.002601408399641514 0.0 0.0 0.0 0.0
2.073 0.2829519212245941 0.5162070393562317 -0.0010455893352627754 0.0027381237596273422 0.0 0.0 0.0 0.0
2.074 0.2996569275856018 0.5067005753517151 -0.0005353111773729324 0.0027446793392300606 0.0 0.0 0.0 0.0
2.075 0.3057411313056946 0.5046890377998352 -0.0009643072262406349 0.002804541029036045 0.0 0.0 0.0 0.0
2.076 0.3234722316265106 0.4939481317996979 -0.0003501046448945999 0.002870689146220684 0.0 0.0 0.0 0.0
2.077 0.3312291204929352 0.48554033041000366 -0.0003774277865886688 0.0028451280668377876 0.0 0.0 0.0 0.0
2.078 0.3487127125263214 0.4751735329627991 -0.0004460718482732773 0.002820417284965515 0.0 0.0 0.0 0.0
2.079 0.35585156083106995 0.4672464430332184 8.239131420850754e-05 0.0027312124148011208 0.0 0.0 0.0 0.0
2.08 0.3728226125240326 0.4564565420150757 0.00027916859835386276 0.0029051322489976883 0.0 0.0 0.0 0.0
2.081 0.3830459415912628 0.4443361461162567 0.00024349428713321686 0.002804126590490341 0.0 0.0 0.0 0.0
2.082 0.39509886503219604 0.4357609152793884 0.0005221264436841011 0.0024911807850003242 0.0 0.0 0.0 0.0
2.083 0.40537071228027344 0.4223485291004181 0.0005249502137303352 0.0023956652730703354 0.0 0.0 0.0 0.0
2.084 0.4148983061313629 0.41510647535324097 0.0008506551384925842 0.002486836165189743 0.0 0.0 0.0 0.0
2.085 0.43047934770584106 0.39558935165405273 0.0006251456215977669 0.0024830587208271027 0.0 0.0 0.0 0.0
2.086 0.43552377820014954 0.3936816155910492 0.0008384594693779945 0.0023533543571829796 0.0 0.0 0.0 0.0
2.087 0.4507211446762085 0.37096962332725525 0.001126328483223915 0.0023522311821579933 0.0 0.0 0.0 0.0
2.088 0.4544640779495239 0.366190105676651 0.0010067876428365707 0.0021983105689287186 0.0 0.0 0.0 0.0
2.089 0.4670180082321167 0.3448708653450012 0.0013651829212903976 0.0019433563575148582 0.0 0.0 0.0 0.0
2.09 0.47257521748542786 0.33380576968193054 0.0012461794540286064 0.0020903702825307846 0.0 0.0 0.0 0.0
2.091 0.4797612726688385 0.31480124592781067 0.0013372674584388733 0.0018863538280129433 0.0 0.0 0.0 0.0
2.092 0.4862916171550751 0.3043079078197479 0.0014239568263292313 0.0019758278504014015 0.0 0.0 0.0 0.0
2.093 0.49671822786331177 0.28267955780029297 0.0016134083271026611 0.001742752268910408 0.0 0.0 0.0 0.0
2.094 0.4956039786338806 0.27642300724983215 0.0016145408153533936 0.0017695808783173561 0.0 0.0 0.0 0.0
2.095 0.5081504583358765 0.25574713945388794 0.0015616072341799736 0.0018226690590381622 0.0 0.0 0.0 0.0
2.096 0.5094839930534363 0.24206137657165527 0.0018502864986658096 0.0016286233440041542 0.0 0.0 0.0 0.0
2.097 0.5153385996818542 0.2252725213766098 0.0019943881779909134 0.0015628188848495483 0.0 0.0 0.0 0.0
2.098 0.5169466733932495 0.20557387173175812 0.001741926185786724 0.0013371864333748817 0.0 0.0 0.0 0.0
2.099 0.5206718444824219 0.19182635843753815 0.0018658479675650597 0.001128355972468853 0.0 0.0 0.0 0.0
2.1 0.5229691863059998 0.1720285415649414 0.001960848458111286 0.0012308750301599503 0.0 0.0 0.0 0.0
2.101 0.5189068913459778 0.15939758718013763 0.0018177581951022148 0.0010648192837834358 0.0 0.0 0.0 0.0
2.102 0.5221338272094727 0.1364762783050537 0.001968586817383766 0.0007534539327025414 0.0 0.0 0.0 0.0
2.103 0.5197550058364868 0.12734566628932953 0.0018958384171128273 0.0008622733876109123 0.0 0.0 0.0 0.0
2.104 0.519902229309082 0.1064102053642273 0.0017746882513165474 0.000661083497107029 0.0 0.0 0.0 0.0
2.105 0.5151591897010803 0.09178640693426132 0.002011643722653389 0.0008641947060823441 0.0 0.0 0.0 0.0
2.106 0.5135295987129211 0.07248154282569885 0.0020995549857616425 0.0002867504954338074 0.0 0.0 0.0 0.0
2.107 0.5102912187576294 0.06014971435070038 0.0019142534583806992 0.0004452727735042572 0.0 0.0 0.0 0.0
2.108 0.5075403451919556 0.048339515924453735 0.001877879723906517 0.0004850616678595543 0.0 0.0 0.0 0.0
2.109 0.5038319826126099 0.028742652386426926 0.0019087409600615501 0.00023002084344625473 0.0 0.0 0.0 0.0
2.11 0.5006908178329468 0.01984158717095852 0.0019990820437669754 0.0002653142437338829 0.0 0.0 0.0 0.0
2.111 0.4964963495731354 0.000547332689166069 0.001797480508685112 9.045284241437912e-05 0.0 0.0 0.0 0.0
2.112 0.4927885830402374 -0.008348383940756321 0.0020448677241802216 0.0001084785908460617 0.0 0.0 0.0 0.0
2.113 0.48495030403137207 -0.028630772605538368 0.0019470956176519394 -0.0003216434270143509 0.0 0.0 0.0 0.0
2.114 0.47964754700660706 -0.03921252489089966 0.0019006310030817986 -0.0002035563811659813 0.0 0.0 0.0 0.0
2.115 0.4726971387863159 -0.05574909225106239 0.0017072847113013268 -2.054590731859207e-05 0.0 0.0 0.0 0.0
2.116 0.46607327461242676 -0.06819688528776169 0.0020072786137461662 -0.00013666972517967224 0.0 0.0 0.0 0.0
2.117 0.45998650789260864 -0.08073046803474426 0.0018334109336137772 -0.00017555709928274155 0.0 0.0 0.0 0.0
2.118 0.4506279528141022 -0.09467414766550064 0.0018613394349813461 -0.00043945759534835815 0.0 0.0 0.0 0.0
2.119 0.44213616847991943 -0.10582055896520615 0.00194651260972023 -0.0005382690578699112 0.0 0.0 0.0 0.0
2.12 0.4329404830932617 -0.11535783857107162 0.001927454024553299 -0.0003701401874423027 0.0 0.0 0.0 0.0
2.121 0.4254249334335327 -0.12907658517360687 0.0018916204571723938 -0.0007179444655776024 0.0 0.0 0.0 0.0
2.122 0.4142244756221771 -0.1445406973361969 0.0019076252356171608 -0.0008514020591974258 0.0 0.0 0.0 0.0
2.123 0.406620591878891 -0.14924366772174835 0.001822170801460743 -0.0008284440264105797 0.0 0.0 0.0 0.0
2.124 0.39697200059890747 -0.16243770718574524 0.0018078815191984177 -0.0011318279430270195 0.0 0.0 0.0 0.0
2.125 0.38653701543807983 -0.17026729881763458 0.0017316099256277084 -0.0009343139827251434 0.0 0.0 0.0 0.0
2.126 0.37665119767189026 -0.1841934621334076 0.0015833647921681404 -0.0011515505611896515 0.0 0.0 0.0 0.0
2.127 0.36888039112091064 -0.19163291156291962 0.0016158875077962875 -0.001024867407977581 0.0 0.0 0.0 0.0
2.128 0.35901322960853577 -0.2054457813501358 0.0012976843863725662 -0.0012303004041314125 0.0 0.0 0.0 0.0
2.129 0.34672674536705017 -0.21321937441825867 0.0014850916340947151 -0.0011545652523636818 0.0 0.0 0.0 0.0
2.13 0.3369413912296295 -0.2255105823278427 0.0014693411067128181 -0.0011440468952059746 0.0 0.0 0.0 0.0
2.131 0.32420018315315247 -0.23068039119243622 0.0011986717581748962 -0.0012404564768075943 0.0 0.0 0.0 0.0
2.132 0.31250008940696716 -0.24297316372394562 0.0014204112812876701 -0.0014019999653100967 0.0 0.0 0.0 0.0
2.133 0.2974441349506378 -0.2515864074230194 0.0012122513726353645 -0.0013907020911574364 0.0 0.0 0.0 0.0
2.134 0.2867969870567322 -0.25915583968162537 0.0010630078613758087 -0.0015550684183835983 0.0 0.0 0.0 0.0
2.135 0.27184656262397766 -0.26763805747032166 0.0009224787354469299 -0.0014414573088288307 0.0 0.0 0.0 0.0
2.136 0.25920525193214417 -0.27443498373031616 0.0009082918986678123 -0.001622343435883522 0.0 0.0 0.0 0.0
2.137 0.24087610840797424 -0.28404125571250916 0.0008144024759531021 -0.0018115611746907234 0.0 0.0 0.0 0.0
2.138 0.2324596792459488 -0.2859603464603424 0.000878247432410717 -0.001763124018907547 0.0 0.0 0.0 0.0
2.139 0.2144557386636734 -0.29587414860725403 0.0007304605096578598 -0.0015965690836310387 0.0 0.0 0.0 0.0
2.14 0.20336157083511353 -0.29889005422592163 0.0007277689874172211 -0.001689019612967968 0.0 0.0 0.0 0.0
2.141 0.1883252114057541 -0.30423441529273987 0.0005434341728687286 -0.0015128115192055702 0.0 0.0 0.0 0.0
2.142 0.1717497855424881 -0.30798718333244324 0.00020130909979343414 -0.0017605116590857506 0.0 0.0 0.0 0.0
2.143 0.158091202378273 -0.3112669587135315 0.00018305331468582153 -0.0018695816397666931 0.0 0.0 0.0 0.0
2.144 0.1382511854171753 -0.31649157404899597 0.00021215993911027908 -0.0018142759799957275 0.0 0.0 0.0 0.0
2.145 0.12612010538578033 -0.3182314336299896 3.2413750886917114e-05 -0.001748574897646904 0.0 0.0 0.0 0.0
2.146 0.10753471404314041 -0.3226225674152374 0.00015712156891822815 -0.0017717927694320679 0.0 0.0 0.0 0.0
2.147 0.09406132996082306 -0.32280030846595764 7.15525820851326e-05 -0.0017998740077018738 0.0 0.0 0.0 0.0
2.148 0.07550042122602463 -0.3260638117790222 -0.00029754359275102615 -0.0018263673409819603 0.0 0.0 0.0 0.0
2.149 0.06146598234772682 -0.32609492540359497 -0.00021954718977212906 -0.001559484750032425 0.0 0.0 0.0 0.0
2.15 0.042938992381095886 -0.3271152377128601 -0.0001895790919661522 -0.0016695773229002953 0.0 0.0 0.0 0.0
2.151 0.026904897764325142 -0.32337650656700134 -0.00037738028913736343 -0.0015837056562304497 0.0 0.0 0.0 0.0
2.152 0.0128413625061512 -0.3246987462043762 -0.0003346223384141922 -0.0013382751494646072 0.0 0.0 0.0 0.0
2.153 -0.009388135746121407 -0.32235002517700195 -0.0005016271024942398 -0.0013589980080723763 0.0 0.0 0.0 0.0
2.154 -0.021785536780953407 -0.3186822533607483 -0.0007921447977423668 -0.0014347666874527931 0.0 0.0 0.0 0.0
2.155 -0.03894501179456711 -0.316117525100708 -0.00046467501670122147 -0.0013447608798742294 0.0 0.0 0.0 0.0
2.156 -0.053635355085134506 -0.31162843108177185 -0.0005642380565404892 -0.001267833635210991 0.0 0.0 0.0 0.0
2.157 -0.07258976250886917 -0.30840936303138733 -0.0007357243448495865 -0.0012786183506250381 0.0 0.0 0.0 0.0
2.158 -0.08492318540811539 -0.30170708894729614 -0.0008198833093047142 -0.0011387486010789871 0.0 0.0 0.0 0.0
2.159 -0.10519178211688995 -0.29681676626205444 -0.0008665919303894043 -0.0013505183160305023 0.0 0.0 0.0 0.0
2.16 -0.11506707221269608 -0.2934390902519226 -0.0008976971730589867 -0.0011825459077954292 0.0 0.0 0.0 0.0
2.161 -0.13453280925750732 -0.28228554129600525 -0.0010629836469888687 -0.0010000001639127731 0.0 0.0 0.0 0.0
2.162 -0.14922164380550385 -0.27600425481796265 -0.0009833518415689468 -0.0011588335037231445 0.0 0.0 0.0 0.0
2.163 -0.16290144622325897 -0.26950278878211975 -0.0010317573323845863 -0.0010372409597039223 0.0 0.0 0.0 0.0
2.164 -0.17808179557323456 -0.2611333429813385 -0.0008304798975586891 -0.0008587408810853958 0.0 0.0 0.0 0.0
2.165 -0.1908847540616989 -0.25191521644592285 -0.001318288967013359 -0.0007720468565821648 0.0 0.0 0.0 0.0
2.166 -0.20833982527256012 -0.24111826717853546 -0.0010875193402171135 -0.0007185470312833786 0.0 0.0 0.0 0.0
2.167 -0.21958744525909424 -0.23459063470363617 -0.0010761534795165062 -0.000735321082174778 0.0 0.0 0.0 0.0
2.168 -0.2326870560646057 -0.22117410600185394 -0.001189890317618847 -0.0004914840683341026 0.0 0.0 0.0 0.0
2.169 -0.24409939348697662 -0.21239115297794342 -0.0011103004217147827 -0.00033863820135593414 0.0 0.0 0.0 0.0
2.17 -0.25904005765914917 -0.20051132142543793 -0.0009036054834723473 -0.0004580030217766762 0.0 0.0 0.0 0.0
2.171 -0.2692568004131317 -0.18916992843151093 -0.0011672833934426308 -0.0003527095541357994 0.0 0.0 0.0 0.0
2.172 -0.2803422212600708 -0.17552269995212555 -0.0009803175926208496 -0.0001617753878235817 0.0 0.0 0.0 0.0
2.173 -0.289980947971344 -0.16736231744289398 -0.0010208487510681152 -0.00010212883353233337 0.0 0.0 0.0 0.0
2.174 -0.3028513193130493 -0.15269379317760468 -0.0008351961150765419 -0.00011833198368549347 0.0 0.0 0.0 0.0
2.175 -0.31039610505104065 -0.14046739041805267 -0.0009404830634593964 0.00019737984985113144 0.0 0.0 0.0 0.0
2.176 -0.3229556381702423 -0.12365265190601349 -0.0010883882641792297 -9.51867550611496e-05 0.0 0.0 0.0 0.0
2.177 -0.3322926461696625 -0.11191310733556747 -0.0009323544800281525 -0.00010026060044765472 0.0 0.0 0.0 0.0
2.178 -0.3433971703052521 -0.09621553868055344 -0.0007659364491701126 6.313342601060867e-05 0.0 0.0 0.0 0.0
2.179 -0.35081157088279724 -0.0784449428319931 -0.0007996745407581329 0.0001003313809633255 0.0 0.0 0.0 0.0
2.18 -0.35854554176330566 -0.06889710575342178 -0.0005507450550794601 3.154110163450241e-05 0.0 0.0 0.0 0.0
2.181 -0.3629564344882965 -0.05092751607298851 -0.0006708716973662376 0.0003261333331465721 0.0 0.0 0.0 0.0
2.182 -0.3723996877670288 -0.03905995562672615 -0.0004205061122775078 8.091237396001816e-05 0.0 0.0 0.0 0.0
2.183 -0.3787110149860382 -0.01757797971367836 -0.0006621787324547768 6.101001054048538e-05 0.0 0.0 0.0 0.0
2.184 -0.3838760554790497 -0.005880805663764477 -0.0006123194471001625 -1.1225230991840363e-05 0.0 0.0 0.0 0.0
2.185 -0.38783755898475647 0.015230710618197918 -0.0006066029891371727 -9.81055200099945e-06 0.0 0.0 0.0 0.0
2.186 -0.3909561336040497 0.025422366335988045 -0.0004203878343105316 -3.205426037311554e-05 0.0 0.0 0.0 0.0
2.187 -0.39625146985054016 0.04746190086007118 -0.0005122637376189232 0.0001267092302441597 0.0 0.0 0.0 0.0
2.188 -0.3972988426685333 0.058979783207178116 -0.0002511879429221153 8.476711809635162e-05 0.0 0.0 0.0 0.0
2.189 -0.4000069797039032 0.07617828994989395 -0.00034819263964891434 0.00011756829917430878 0.0 0.0 0.0 0.0
2.19 -0.40300583839416504 0.09223931282758713 -0.00042571406811475754 -1.282431185245514e-05 0.0 0.0 0.0 0.0
2.191 -0.40464869141578674 0.11033467203378677 -0.0005130358040332794 4.47053462266922e-05 0.0 0.0 0.0 0.0
2.192 -0.40290164947509766 0.12662701308727264 -0.00048196595162153244 0.00022551324218511581 0.0 0.0 0.0 0.0
2.193 -0.4048176407814026 0.14282822608947754 -0.0003029964864253998 0.00014548655599355698 0.0 0.0 0.0 0.0
2.194 -0.4018906354904175 0.16419795155525208 -0.0004507526755332947 -0.0001149466261267662 0.0 0.0 0.0 0.0
2.195 -0.4020923674106598 0.17169761657714844 -0.0003428785130381584 0.00014877598732709885 0.0 0.0 0.0 0.0
2.196 -0.39809584617614746 0.19661566615104675 -0.0005611693486571312 7.199496030807495e-05 0.0 0.0 0.0 0.0
2.197 -0.3969668745994568 0.2092287540435791 -0.0004059998318552971 0.00018564239144325256 0.0 0.0 0.0 0.0
2.198 -0.3924599587917328 0.2274947613477707 -0.0005803713575005531 0.00010318681597709656 0.0 0.0 0.0 0.0
2.199 -0.3900544047355652 0.2378734052181244 -0.0004098284989595413 6.531644612550735e-05 0.0 0.0 0.0 0.0
2.2 -0.38809674978256226 0.25486668944358826 -0.0003567058593034744 -0.00022111833095550537 0.0 0.0 0.0 0.0
2.201 -0.38251495361328125 0.2678180932998657 -0.0004011085256934166 5.72744756937027e-05 0.0 0.0 0.0 0.0
2.202 -0.37941721081733704 0.2847018241882324 -0.0003325939178466797 -0.00017325859516859055 0.0 0.0 0.0 0.0
2.203 -0.36616581678390503 0.30329185724258423 -0.00033866241574287415 2.6357360184192657e-05 0.0 0.0 0.0 0.0
2.204 -0.36792850494384766 0.31019359827041626 -0.000698246993124485 0.00018323026597499847 0.0 0.0 0.0 0.0
2.205 -0.35614633560180664 0.3303855061531067 -0.0005317023023962975 2.9789283871650696e-05 0.0 0.0 0.0 0.0
2.206 -0.35315120220184326 0.3417833149433136 -0.00041583459824323654 -7.398705929517746e-05 0.0 0.0 0.0 0.0
2.207 -0.34165117144584656 0.35848021507263184 -0.0005361158400774002 -6.251968443393707e-05 0.0 0.0 0.0 0.0
2.208 -0.33751171827316284 0.3624354302883148 -0.0005022110417485237 0.00015739724040031433 0.0 0.0 0.0 0.0
2.209 -0.32635006308555603 0.3824259042739868 -0.0007180739194154739 -3.0594877898693085e-05 0.0 0.0 0.0 0.0
2.21 -0.321158230304718 0.3901582658290863 -0.0007178075611591339 -1.5391968190670013e-05 0.0 0.0 0.0 0.0
2.211 -0.3098394572734833 0.4067652225494385 -0.0005100173875689507 5.3637661039829254e-05 0.0 0.0 0.0 0.0
2.212 -0.3048458397388458 0.41291147470474243 -0.0006902310997247696 1.4530494809150696e-05 0.0 0.0 0.0 0.0
2.213 -0.2931195795536041 0.42903193831443787 -0.0009186407551169395 -1.1468306183815002e-05 0.0 0.0 0.0 0.0
2.214 -0.28543776273727417 0.4368891716003418 -0.0006712032482028008 0.00013216957449913025 0.0 0.0 0.0 0.0
2.215 -0.27639707922935486 0.4509069621562958 -0.0006620986387133598 3.5596080124378204e-05 0.0 0.0 0.0 0.0
2.216 -0.2653587758541107 0.45774731040000916 -0.0010123997926712036 0.00032170675694942474 0.0 0.0 0.0 0.0
2.217 -0.2545267939567566 0.46851417422294617 -0.000651990994811058 0.00046893488615751266 0.0 0.0 0.0 0.0
2.218 -0.24005195498466492 0.48224157094955444 -0.0008406983688473701 0.00033170077949762344 0.0 0.0 0.0 0.0
2.219 -0.2338906079530716 0.4872708320617676 -0.0005761962383985519 0.0005097026005387306 0.0 0.0 0.0 0.0
2.22 -0.2182435691356659 0.49766790866851807 -0.0007524248212575912 0.00041987095028162 0.0 0.0 0.0 0.0
2.221 -0.2108723223209381 0.5052064061164856 -0.0006401622667908669 0.0006526811048388481 0.0 0.0 0.0 0.0
2.222 -0.1960110068321228 0.515765905380249 -0.0006808731704950333 0.0005676522850990295 0.0 0.0 0.0 0.0
2.223 -0.18967196345329285 0.522028923034668 -0.0006038937717676163 0.0007862122729420662 0.0 0.0 0.0 0.0
2.224 -0.17401857674121857 0.5293276309967041 -0.0005796756595373154 0.00093107670545578 0.0 0.0 0.0 0.0
2.225 -0.16446998715400696 0.5344892144203186 -0.0004597418010234833 0.0006934227421879768 0.0 0.0 0.0 0.0
2.226 -0.14802035689353943 0.5449874997138977 -0.0004649646580219269 0.0009962329640984535 0.0 0.0 0.0 0.0
2.227 -0.13828307390213013 0.5482436418533325 -0.00035732612013816833 0.000957162119448185 0.0 0.0 0.0 0.0
2.228 -0.12943719327449799 0.5553763508796692 -0.0004063183441758156 0.0007995003834366798 0.0 0.0 0.0 0.0
2.229 -0.11191336810588837 0.5610643625259399 -0.00040422752499580383 0.0009951181709766388 0.0 0.0 0.0 0.0
2.23 -0.11004596203565598 0.5663747787475586 -0.00016228388994932175 0.0009987354278564453 0.0 0.0 0.0 0.0
2.231 -0.08657481521368027 0.5698180794715881 -5.8327801525592804e-05 0.0010616099461913109 0.0 0.0 0.0 0.0
2.232 -0.07281430810689926 0.5742501020431519 -0.00012036412954330444 0.0012075407430529594 0.0 0.0 0.0 0.0
2.233 -0.058786652982234955 0.5802851319313049 0.00013504363596439362 0.0008997423574328423 0.0 0.0 0.0 0.0
2.234 -0.05741538852453232 0.5817767381668091 -0.0001052655279636383 0.000979243777692318 0.0 0.0 0.0 0.0
2.235 -0.035038478672504425 0.5863446593284607 1.2414529919624329e-05 0.000864141620695591 0.0 0.0 0.0 0.0
2.236 -0.027148734778165817 0.5878593325614929 5.109887570142746e-05 0.0010553011670708656 0.0 0.0 0.0 0.0
2.237 -0.01209899503737688 0.5900219678878784 7.204897701740265e-05 0.0007130876183509827 0.0 0.0 0.0 0.0
2.238 -0.0013250838965177536 0.5922544002532959 0.00026082247495651245 0.000741688534617424 0.0 0.0 0.0 0.0
2.239 0.01027416717261076 0.595813512802124 0.00012747570872306824 0.0009826244786381721 0.0 0.0 0.0 0.0
2.24 0.031056663021445274 0.5947237610816956 0.0002637207508087158 0.0010206960141658783 0.0 0.0 0.0 0.0
2.241 0.0337572880089283 0.5983134508132935 0.00031576864421367645 0.0007199691608548164 0.0 0.0 0.0 0.0
2.242 0.053996533155441284 0.6004535555839539 0.0005835564807057381 0.0008197352290153503 0.0 0.0 0.0 0.0
2.243 0.058070920407772064 0.6011529564857483 0.00035641342401504517 0.0008420776575803757 0.0 0.0 0.0 0.0
2.244 0.07840830087661743 0.6006328463554382 0.00048393476754426956 0.0007632002234458923 0.0 0.0 0.0 0.0
2.245 0.08764608204364777 0.6023304462432861 0.0003916751593351364 0.0006674276664853096 0.0 0.0 0.0 0.0
2.246 0.1088765561580658 0.6011901497840881 0.0004233960062265396 0.00036332663148641586 0.0 0.0 0.0 0.0
2.247 0.11145418882369995 0.6023653149604797 0.0004151230677962303 0.0006049703806638718 0.0 0.0 0.0 0.0
2.248 0.13543851673603058 0.5995805263519287 0.0005701258778572083 0.0003474252298474312 0.0 0.0 0.0 0.0
2.249 0.13867159187793732 0.5992039442062378 0.0006754165515303612 0.000561196357011795 0.0 0.0 0.0 0.0
2.25 0.15643277764320374 0.5950697064399719 0.0006195595487952232 0.0005613900721073151 0.0 0.0 0.0 0.0
2.251 0.1739877611398697 0.5935593843460083 0.0006421273574233055 0.0003806827589869499 0.0 0.0 0.0 0.0
2.252 0.1785150021314621 0.5948925614356995 0.0005916934460401535 0.0002709021791815758 0.0 0.0 0.0 0.0
2.253 0.1955091506242752 0.5888935327529907 0.0007692696526646614 0.0004057493060827255 0.0 0.0 0.0 0.0
2.254 0.20060144364833832 0.5906484127044678 0.0005087722092866898 0.00039036665111780167 0.0 0.0 0.0 0.0
2.255 0.2213975191116333 0.5843663215637207 0.0005773603916168213 0.0004926593974232674 0.0 0.0 0.0 0.0
2.256 0.23284415900707245 0.5784363150596619 0.0007038060575723648 0.0003963019698858261 0.0 0.0 0.0 0.0
2.257 0.24847696721553802 0.5739055871963501 0.0005183322355151176 0.0005325032398104668 0.0 0.0 0.0 0.0
2.258 0.2595682442188263 0.5676807165145874 0.0004583708941936493 0.000311276875436306 0.0 0.0 0.0 0.0
2.259 0.27049538493156433 0.5644729137420654 0.000893821008503437 0.0002512773498892784 0.0 0.0 0.0 0.0
2.26 0.2834932208061218 0.5578166246414185 0.0007785549387335777 0.00041661132127046585 0.0 0.0 0.0 0.0
2.261 0.2972949147224426 0.553508996963501 0.00063372403383255 0.00017255917191505432 0.0 0.0 0.0 0.0
2.262 0.30876970291137695 0.5472437739372253 0.0006776051595807076 0.00015585962682962418 0.0 0.0 0.0 0.0
2.263 0.31863099336624146 0.5425467491149902 0.0007075946778059006 0.0002496270462870598 0.0 0.0 0.0 0.0
2.264 0.33689653873443604 0.5325403213500977 0.0005692336708307266 0.00036321021616458893 0.0 0.0 0.0 0.0
2.265 0.3433926999568939 0.5276412963867188 0.0008927462622523308 0.0001312941312789917 0.0 0.0 0.0 0.0
2.266 0.35999277234077454 0.5182433724403381 0.0007528895512223244 0.0002646688371896744 0.0 0.0 0.0 0.0
2.267 0.3653760850429535 0.5135203003883362 0.0006670374423265457 0.0002301875501871109 0.0 0.0 0.0 0.0
2.268 0.38149183988571167 0.5002149939537048 0.0008654007688164711 -2.1809712052345276e-05 0.0 0.0 0.0 0.0
2.269 0.38897567987442017 0.4940843880176544 0.0006899284198880196 0.00013913866132497787 0.0 0.0 0.0 0.0
2.27 0.40428972244262695 0.4863055348396301 0.0008543413132429123 0.00028496794402599335 0.0 0.0 0.0 0.0
2.271 0.4143510162830353 0.47342851758003235 0.0008879648521542549 5.243625491857529e-05 0.0 0.0 0.0 0.0
2.272 0.42589297890663147 0.46549808979034424 0.0010746093466877937 7.574446499347687e-05 0.0 0.0 0.0 0.0
2.273 0.43632763624191284 0.4526560604572296 0.0006830198690295219 -5.937088280916214e-05 0.0 0.0 0.0 0.0
2.274 0.4436712861061096 0.4441312551498413 0.0007968554273247719 0.00011028163135051727 0.0 0.0 0.0 0.0
2.275 0.45511069893836975 0.4309288263320923 0.001032092608511448 -4.3422915041446686e-05 0.0 0.0 0.0 0.0
2.276 0.4645025134086609 0.4213075041770935 0.0008063288405537605 -0.00023832451552152634 0.0 0.0 0.0 0.0
2.277 0.4779473543167114 0.4035695493221283 0.0010988693684339523 -0.0002710344269871712 0.0 0.0 0.0 0.0
2.278 0.4819871187210083 0.39828410744667053 0.000935080461204052 -0.0003507239744067192 0.0 0.0 0.0 0.0
2.279 0.49552232027053833 0.37801551818847656 0.000747140496969223 -0.00023817643523216248 0.0 0.0 0.0 0.0
2.28 0.5003800988197327 0.36977532505989075 0.0009590703994035721 -0.00033704284578561783 0.0 0.0 0.0 0.0
2.281 0.5101987719535828 0.3517140746116638 0.0009756926447153091 -0.0003666570410132408 0.0 0.0 0.0 0.0
2.282 0.5131349563598633 0.3436207175254822 0.0009294291958212852 -0.0005273576825857162 0.0 0.0 0.0 0.0
2.283 0.5224280953407288 0.32427361607551575 0.0008362382650375366 -0.0006900355219841003 0.0 0.0 0.0 0.0
2.284 0.5294647812843323 0.3066430985927582 0.0006432207301259041 -0.0005220016464591026 0.0 0.0 0.0 0.0
2.285 0.5359365940093994 0.29387393593788147 0.0008489685133099556 -0.0003153802827000618 0.0 0.0 0.0 0.0
2.286 0.5420503616333008 0.2734837532043457 0.0009119585156440735 -0.0006652660667896271 0.0 0.0 0.0 0.0
2.287 0.5433705449104309 0.26292815804481506 0.0006951401010155678 -0.0005684280768036842 0.0 0.0 0.0 0.0
2.288 0.5504401922225952 0.23863066732883453 0.0006851628422737122 -0.0007434980943799019 0.0 0.0 0.0 0.0
2.289 0.5494881272315979 0.22934000194072723 0.0006286194548010826 -0.0007708342745900154 0.0 0.0 0.0 0.0
2.29 0.5534137487411499 0.20845095813274384 0.0008249441161751747 -0.0008012279868125916 0.0 0.0 0.0 0.0
2.291 0.5513384342193604 0.19695083796977997 0.0005770577117800713 -0.0006436025723814964 0.0 0.0 0.0 0.0
2.292 0.5567824840545654 0.1707112044095993 0.0005858819931745529 -0.0007373644039034843 0.0 0.0 0.0 0.0
2.293 0.5559921264648438 0.16451923549175262 0.0006973380222916603 -0.000844024121761322 0.0 0.0 0.0 0.0
2.294 0.5587993860244751 0.143185093998909 0.000636586919426918 -0.0010336972773075104 0.0 0.0 0.0 0.0
2.295 0.5565658807754517 0.12769249081611633 0.0006824173033237457 -0.0009803790599107742 0.0 0.0 0.0 0.0
2.296 0.556304931640625 0.11132604628801346 0.0006736516952514648 -0.001206783577799797 0.0 0.0 0.0 0.0
2.297 0.5550798177719116 0.09100668132305145 0.0004763687029480934 -0.0011730194091796875 0.0 0.0 0.0 0.0
2.298 0.5508274435997009 0.07598413527011871 0.0006674304604530334 -0.0013627121224999428 0.0 0.0 0.0 0.0
2.299 0.5504844188690186 0.05732214078307152 0.00022995565086603165 -0.0010294411331415176 0.0 0.0 0.0 0.0
2.3 0.5466514825820923 0.04307638108730316 0.0003640260547399521 -0.0010942276567220688 0.0 0.0 0.0 0.0
2.301 0.5436220169067383 0.02058262564241886 0.00035926420241594315 -0.0012988494709134102 0.0 0.0 0.0 0.0
2.302 0.5374864339828491 0.01607273705303669 0.00014567282050848007 -0.0014491602778434753 0.0 0.0 0.0 0.0
2.303 0.531681478023529 -0.01282387413084507 0.00016819778829813004 -0.0013590008020401 0.0 0.0 0.0 0.0
2.304 0.5251350402832031 -0.023597517982125282 0.00016129575669765472 -0.0013841371983289719 0.0 0.0 0.0 0.0
2.305 0.5197941064834595 -0.050102509558200836 2.313125878572464e-05 -0.001286161132156849 0.0 0.0 0.0 0.0
2.306 0.5110194087028503 -0.05404544249176979 -0.00030000414699316025 -0.0012712320312857628 0.0 0.0 0.0 0.0
2.307 0.5042561888694763 -0.07784124463796616 -0.00033198483288288116 -0.0016005374491214752 0.0 0.0 0.0 0.0
2.308 0.4941874146461487 -0.0874849259853363 -0.0003597540780901909 -0.0015070103108882904 0.0 0.0 0.0 0.0
2.309 0.48651447892189026 -0.10463407635688782 -0.0004335213452577591 -0.0014803186058998108 0.0 0.0 0.0 0.0
2.31 0.47455137968063354 -0.12051277607679367 -0.0007704645395278931 -0.001375827006995678 0.0 0.0 0.0 0.0
2.311 0.46674802899360657 -0.13671106100082397 -0.00038288068026304245 -0.0013306913897395134 0.0 0.0 0.0 0.0
2.312 0.4547801911830902 -0.1516290307044983 -0.0007037818431854248 -0.001360335387289524 0.0 0.0 0.0 0.0
2.313 0.44421684741973877 -0.16390429437160492 -0.0008181091398000717 -0.00140360277146101 0.0 0.0 0.0 0.0
2.314 0.4316112995147705 -0.18070390820503235 -0.0006659766659140587 -0.0013364162296056747 0.0 0.0 0.0 0.0
2.315 0.41999351978302 -0.19198563694953918 -0.0007479088380932808 -0.001216147094964981 0.0 0.0 0.0 0.0
2.316 0.40361663699150085 -0.21200326085090637 -0.0009875055402517319 -0.0013683931902050972 0.0 0.0 0.0 0.0
2.317 0.391824334859848 -0.21888940036296844 -0.0010134456679224968 -0.0011313576251268387 0.0 0.0 0.0 0.0
2.318 0.37521204352378845 -0.23422059416770935 -0.0011273128911852837 -0.0009968485683202744 0.0 0.0 0.0 0.0
2.319 0.36249640583992004 -0.24262367188930511 -0.0010725241154432297 -0.0010036667808890343 0.0 0.0 0.0 0.0
2.32 0.3429899215698242 -0.26215511560440063 -0.0011148257181048393 -0.0009020110592246056 0.0 0.0 0.0 0.0
2.321 0.33068859577178955 -0.26760873198509216 -0.0011712834239006042 -0.0010812589898705482 0.0 0.0 0.0 0.0
2.322 0.3121027648448944 -0.27787962555885315 -0.0014324299991130829 -0.0009002592414617538 0.0 0.0 0.0 0.0
2.323 0.2959211766719818 -0.28774189949035645 -0.0011515794321894646 -0.0007454510778188705 0.0 0.0 0.0 0.0
2.324 0.27482685446739197 -0.29801279306411743 -0.0014330996200442314 -0.000626792199909687 0.0 0.0 0.0 0.0
2.325 0.25951847434043884 -0.3044879138469696 -0.0013645226135849953 -0.0006375722587108612 0.0 0.0 0.0 0.0
2.326 0.23786209523677826 -0.31533241271972656 -0.0015066619962453842 -0.0007436294108629227 0.0 0.0 0.0 0.0
2.327 0.22075261175632477 -0.3193308413028717 -0.0014947149902582169 -0.000348101370036602 0.0 0.0 0.0 0.0
2.328 0.2109772115945816 -0.3190740644931793 -0.0015571648254990578 -0.0003964565694332123 0.0 0.0 0.0 0.0
2.329 0.18181125819683075 -0.33073538541793823 -0.0014864327386021614 -0.0003967098891735077 0.0 0.0 0.0 0.0
2.33 0.16129758954048157 -0.33423274755477905 -0.001640058122575283 -0.0003415830433368683 0.0 0.0 0.0 0.0
2.331 0.14277875423431396 -0.3377404808998108 -0.0015560192987322807 -0.00012463610619306564 0.0 0.0 0.0 0.0
2.332 0.12612493336200714 -0.336958110332489 -0.001722581684589386 -4.828907549381256e-06 0.0 0.0 0.0 0.0
2.333 0.1015397235751152 -0.34186866879463196 -0.0016496535390615463 0.00010030623525381088 0.0 0.0 0.0 0.0
2.334 0.08369723707437515 -0.3405963182449341 -0.0016635386273264885 0.00018798839300870895 0.0 0.0 0.0 0.0
2.335 0.06322023272514343 -0.3419904410839081 -0.001830393448472023 0.00017179176211357117 0.0 0.0 0.0 0.0
2.336 0.04101518914103508 -0.3413298726081848 -0.0014489591121673584 0.00027405843138694763 0.0 0.0 0.0 0.0
2.337 0.019807681441307068 -0.33969298005104065 -0.001780746504664421 0.0004876749590039253 0.0 0.0 0.0 0.0
2.338 -0.003196483477950096 -0.3381778299808502 -0.0015600323677062988 0.00047213397920131683 0.0 0.0 0.0 0.0
2.339 -0.019431982189416885 -0.33396148681640625 -0.0014358116313815117 0.000601254403591156 0.0 0.0 0.0 0.0
2.34 -0.04121020436286926 -0.32737764716148376 -0.001680801622569561 0.0007117390632629395 0.0 0.0 0.0 0.0
2.341 -0.05970039963722229 -0.325472354888916 -0.0014314381405711174 0.0006922958418726921 0.0 0.0 0.0 0.0
2.342 -0.08053936809301376 -0.3176455497741699 -0.0014742380008101463 0.0008939485996961594 0.0 0.0 0.0 0.0
2.343 -0.09784968942403793 -0.3132361173629761 -0.0013745417818427086 0.000868460163474083 0.0 0.0 0.0 0.0
2.344 -0.12147156894207001 -0.30464431643486023 -0.0013372506946325302 0.0009297626093029976 0.0 0.0 0.0 0.0
2.345 -0.13770313560962677 -0.2971045970916748 -0.0012178141623735428 0.0011872779577970505 0.0 0.0 0.0 0.0
2.346 -0.15942415595054626 -0.287181556224823 -0.0012579197064042091 0.0011081509292125702 0.0 0.0 0.0 0.0
2.347 -0.17568281292915344 -0.2765949070453644 -0.0013080686330795288 0.0012682313099503517 0.0 0.0 0.0 0.0
2.348 -0.19368501007556915 -0.26683297753334045 -0.0012009255588054657 0.0011228062212467194 0.0 0.0 0.0 0.0
2.349 -0.21055352687835693 -0.25330719351768494 -0.0011802734807133675 0.001478690654039383 0.0 0.0 0.0 0.0
2.35 -0.2247028648853302 -0.24530626833438873 -0.000901591032743454 0.0014371015131473541 0.0 0.0 0.0 0.0
2.351 -0.24385979771614075 -0.22842368483543396 -0.0007499177008867264 0.0014021536335349083 0.0 0.0 0.0 0.0
2.352 -0.2553778886795044 -0.215304896235466 -0.0008712559938430786 0.0016462914645671844 0.0 0.0 0.0 0.0
2.353 -0.2721420228481293 -0.20001569390296936 -0.0006426572799682617 0.0015719709917902946 0.0 0.0 0.0 0.0
2.354 -0.283114492893219 -0.18987694382667542 -0.00046304240822792053 0.0016457932069897652 0.0 0.0 0.0 0.0
2.355 -0.29695379734039307 -0.1741696298122406 -0.000393071211874485 0.001581769436597824 0.0 0.0 0.0 0.0
2.356 -0.3090779483318329 -0.1587175577878952 -0.0003461334854364395 0.001567816361784935 0.0 0.0 0.0 0.0
2.357 -0.3232772946357727 -0.14249934256076813 -0.00048300065100193024 0.0014960374683141708 0.0 0.0 0.0 0.0
2.358 -0.33243227005004883 -0.13002879917621613 -0.00027436763048171997 0.001638328656554222 0.0 0.0 0.0 0.0
2.359 -0.34454742074012756 -0.10646721720695496 -0.00014813989400863647 0.0015492448583245277 0.0 0.0 0.0 0.0
2.36 -0.35158735513687134 -0.09671036899089813 -4.203338176012039e-05 0.0017162086442112923 0.0 0.0 0.0 0.0
2.361 -0.36239853501319885 -0.0787632018327713 -4.479847848415375e-05 0.0016739284619688988 0.0 0.0 0.0 0.0
2.362 -0.37051036953926086 -0.057770986109972 0.0001499224454164505 0.001615956425666809 0.0 0.0 0.0 0.0
2.363 -0.38009777665138245 -0.04606937989592552 0.00020010489970445633 0.001556280069053173 0.0 0.0 0.0 0.0
2.364 -0.38460373878479004 -0.025554398074746132 0.00036649778485298157 0.0016784444451332092 0.0 0.0 0.0 0.0
2.365 -0.39074864983558655 -0.010572095401585102 0.00036744680255651474 0.0016019437462091446 0.0 0.0 0.0 0.0
2.366 -0.3978865146636963 0.009422631934285164 0.0006300099194049835 0.0012444071471691132 0.0 0.0 0.0 0.0
2.367 -0.40227216482162476 0.023291777819395065 0.0005744369700551033 0.0014248890802264214 0.0 0.0 0.0 0.0
2.368 -0.4083011746406555 0.04538669064640999 0.0007101520895957947 0.0013025226071476936 0.0 0.0 0.0 0.0
2.369 -0.4110007584095001 0.05857931450009346 0.0007181577384471893 0.0013217031955718994 0.0 0.0 0.0 0.0
2.37 -0.41456136107444763 0.08099931478500366 0.000782424584031105 0.0013095363974571228 0.0 0.0 0.0 0.0
2.371 -0.4154093563556671 0.09720369428396225 0.0007303059101104736 0.001279250718653202 0.0 0.0 0.0 0.0
2.372 -0.41894933581352234 0.11833155900239944 0.0008371379226446152 0.0009685494005680084 0.0 0.0 0.0 0.0
2.373 -0.4182077646255493 0.13167701661586761 0.0009876443073153496 0.0010532243177294731 0.0 0.0 0.0 0.0
2.374 -0.42132189869880676 0.14660155773162842 0.0008450830355286598 0.0012028003111481667 0.0 0.0 0.0 0.0
2.375 -0.4181385040283203 0.16642290353775024 0.0010819556191563606 0.001192975789308548 0.0 0.0 0.0 0.0
2.376 -0.4178318679332733 0.1842079609632492 0.0009405640885233879 0.0010237116366624832 0.0 0.0 0.0 0.0
2.377 -0.4177243411540985 0.20217420160770416 0.0010741660371422768 0.0008197249844670296 0.0 0.0 0.0 0.0
2.378 -0.41517174243927 0.21609775722026825 0.0012060590088367462 0.0006905701011419296 0.0 0.0 0.0 0.0
2.379 -0.40682584047317505 0.24296250939369202 0.0010263565927743912 0.0008281571790575981 0.0 0.0 0.0 0.0
2.38 -0.4084446430206299 0.2520807385444641 0.0010572317987680435 0.0006771469488739967 0.0 0.0 0.0 0.0
2.381 -0.4033324420452118 0.27025938034057617 0.0010908618569374084 0.0006632125005125999 0.0 0.0 0.0 0.0
2.382 -0.4028632938861847 0.28057509660720825 0.000993821769952774 0.0005321800708770752 0.0 0.0 0.0 0.0
2.383 -0.39541521668434143 0.3001367151737213 0.0009449319913983345 0.0006558001041412354 0.0 0.0 0.0 0.0
2.384 -0.38770028948783875 0.3164883255958557 0.001097830943763256 0.0004994915798306465 0.0 0.0 0.0 0.0
2.385 -0.38501644134521484 0.32949700951576233 0.0010009035468101501 0.00037697236984968185 0.0 0.0 0.0 0.0
2.386 -0.37686941027641296 0.3475663661956787 0.001070079393684864 0.0003486191853880882 0.0 0.0 0.0 0.0
2.387 -0.3722758889198303 0.3574821650981903 0.0011614318937063217 0.0002922229468822479 0.0 0.0 0.0 0.0
2.388 -0.3613353669643402 0.37526339292526245 0.0012138457968831062 0.0004091067239642143 0.0 0.0 0.0 0.0
2.389 -0.36192187666893005 0.3824506998062134 0.0012238435447216034 0.0002254042774438858 0.0 0.0 0.0 0.0
2.39 -0.3485982120037079 0.40121135115623474 0.0012431321665644646 0.00023336615413427353 0.0 0.0 0.0 0.0
2.391 -0.3441964387893677 0.4103832542896271 0.001177281141281128 0.00017881765961647034 0.0 0.0 0.0 0.0
2.392 -0.33414778113365173 0.42722129821777344 0.0012126043438911438 0.00010527297854423523 0.0 0.0 0.0 0.0
2.393 -0.3279116153717041 0.4372471272945404 0.0011002793908119202 9.697861969470978e-06 0.0 0.0 0.0 0.0
2.394 -0.3174588084220886 0.4528469443321228 0.0010502347722649574 0.00015960633754730225 0.0 0.0 0.0 0.0
2.395 -0.30949437618255615 0.4604348838329315 0.0012772874906659126 0.00020203739404678345 0.0 0.0 0.0 0.0
2.396 -0.2978278696537018 0.47444042563438416 0.0012622913345694542 0.00011096708476543427 0.0 0.0 0.0 0.0
2.397 -0.2871508300304413 0.48636138439178467 0.0010367892682552338 -0.00010540895164012909 0.0 0.0 0.0 0.0
2.398 -0.2822451889514923 0.4951373040676117 0.0010386165231466293 -0.00015804171562194824 0.0 0.0 0.0 0.0
2.399 -0.2673110067844391 0.5054178833961487 0.0009424006566405296 3.5404227674007416e-05 0.0 0.0 0.0 0.0
2.4 -0.26093587279319763 0.5154068470001221 0.0012452825903892517 -0.00022650603204965591 0.0 0.0 0.0 0.0
2.401 -0.2468664050102234 0.526852011680603 0.001186060719192028 -0.00031821802258491516 0.0 0.0 0.0 0.0
2.402 -0.24133573472499847 0.5346318483352661 0.0010391175746917725 -0.0004587369039654732 0.0 0.0 0.0 0.0
2.403 -0.2234036922454834 0.5466016530990601 0.0011014146730303764 -0.0003430834040045738 0.0 0.0 0.0 0.0
2.404 -0.2149171680212021 0.5530291199684143 0.0011886581778526306 -0.00025413837283849716 0.0 0.0 0.0 0.0
2.405 -0.1992391049861908 0.5642173886299133 0.0009750649333000183 -0.0004811575636267662 0.0 0.0 0.0 0.0
2.406 -0.19237183034420013 0.5689261555671692 0.0010859407484531403 -0.00042244791984558105 0.0 0.0 0.0 0.0
2.407 -0.1732984334230423 0.5797306299209595 0.0009749839082360268 -0.0005274685099720955 0.0 0.0 0.0 0.0
2.408 -0.17076386511325836 0.5815885066986084 0.0009159166365861893 -0.00044328998774290085 0.0 0.0 0.0 0.0
2.409 -0.14792655408382416 0.5935319066047668 0.0011304635554552078 -0.0005926340818405151 0.0 0.0 0.0 0.0
2.41 -0.14336617290973663 0.5956302285194397 0.001085752621293068 -0.0006027910858392715 0.0 0.0 0.0 0.0
2.411 -0.12501773238182068 0.6036239862442017 0.0008344072848558426 -0.0008345702663064003 0.0 0.0 0.0 0.0
2.412 -0.12207020074129105 0.6086217164993286 0.0008986229076981544 -0.0005774721503257751 0.0 0.0 0.0 0.0
2.413 -0.09366369992494583 0.6152418851852417 0.0007558241486549377 -0.000736357644200325 0.0 0.0 0.0 0.0
2.414 -0.09187433123588562 0.6167597770690918 0.0006978875026106834 -0.0007342072203755379 0.0 0.0 0.0 0.0
2.415 -0.08008334785699844 0.6216814517974854 0.0007322663441300392 -0.0009090807288885117 0.0 0.0 0.0 0.0
2.416 -0.05905991047620773 0.6243963241577148 0.0006955796852707863 -0.0006893863901495934 0.0 0.0 0.0 0.0
2.417 -0.05403120815753937 0.6287458539009094 0.0005911830812692642 -0.0010078735649585724 0.0 0.0 0.0 0.0
2.418 -0.03199201822280884 0.6311598420143127 0.0007359897717833519 -0.0009189974516630173 0.0 0.0 0.0 0.0
2.419 -0.027617070823907852 0.6315534710884094 0.0005706166848540306 -0.0007993215695023537 0.0 0.0 0.0 0.0
2.42 -0.00781872309744358 0.6361287832260132 0.0005779704079031944 -0.0008996725082397461 0.0 0.0 0.0 0.0
2.421 0.00209667906165123 0.6352196931838989 0.0005109701305627823 -0.0008527636528015137 0.0 0.0 0.0 0.0
2.422 0.015437348745763302 0.6377728581428528 0.0006238436326384544 -0.0008497145026922226 0.0 0.0 0.0 0.0
2.423 0.028795497491955757 0.6375306248664856 0.0004090946167707443 -0.0009274426847696304 0.0 0.0 0.0 0.0
2.424 0.03610324114561081 0.640281081199646 0.0004526805132627487 -0.0009480919688940048 0.0 0.0 0.0 0.0
2.425 0.05470898747444153 0.6401450037956238 0.0003214692696928978 -0.0010730680078268051 0.0 0.0 0.0 0.0
2.426 0.05979890003800392 0.6403155326843262 0.00023339688777923584 -0.0008652126416563988 0.0 0.0 0.0 0.0
2.427 0.0791851207613945 0.6401342153549194 0.00048524606972932816 -0.0009469930082559586 0.0 0.0 0.0 0.0
2.428 0.08912680298089981 0.6399984955787659 0.00031486060470342636 -0.0008758595213294029 0.0 0.0 0.0 0.0
2.429 0.10994631797075272 0.638573408126831 0.00018548965454101562 -0.0008748425170779228 0.0 0.0 0.0 0.0
2.43 0.11433066427707672 0.6386367678642273 0.00016960594803094864 -0.0008236346766352654 0.0 0.0 0.0 0.0
2.431 0.1312251091003418 0.6372877359390259 0.00018383562564849854 -0.000833902508020401 0.0 0.0 0.0 0.0
2.432 0.14111468195915222 0.6349427103996277 0.00016869232058525085 -0.0009129494428634644 0.0 0.0 0.0 0.0
2.433 0.15609429776668549 0.6346006393432617 0.00023222528398036957 -0.0009055966511368752 0.0 0.0 0.0 0.0
2.434 0.17041565477848053 0.6286883354187012 0.00013854727149009705 -0.0008946098387241364 0.0 0.0 0.0 0.0
2.435 0.1766642928123474 0.6296387314796448 -6.865803152322769e-05 -0.0008472176268696785 0.0 0.0 0.0 0.0
2.436 0.19827775657176971 0.623074471950531 8.35862010717392e-05 -0.0008779289200901985 0.0 0.0 0.0 0.0
2.437 0.2022256851196289 0.6241595149040222 8.456408977508545e-06 -0.0006632953882217407 0.0 0.0 0.0 0.0
2.438 0.21996280550956726 0.6163607239723206 -0.0001524249091744423 -0.0007776636630296707 0.0 0.0 0.0 0.0
2.439 0.22933688759803772 0.6143953204154968 6.0901977121829987e-05 -0.0007501021027565002 0.0 0.0 0.0 0.0
2.44 0.24890530109405518 0.6083816885948181 -0.00011692941188812256 -0.0007114401087164879 0.0 0.0 0.0 0.0
2.441 0.2519250810146332 0.6056012511253357 -6.18109479546547e-05 -0.0008006738498806953 0.0 0.0 0.0 0.0
2.442 0.2750900387763977 0.5969581604003906 5.138292908668518e-05 -0.0006145797669887543 0.0 0.0 0.0 0.0
2.443 0.2749747335910797 0.595830500125885 -0.00020687934011220932 -0.0006815837696194649 0.0 0.0 0.0 0.0
2.444 0.2944687604904175 0.5882965326309204 -0.0002462174743413925 -0.0008224658668041229 0.0 0.0 0.0 0.0
2.445 0.29832711815834045 0.5841917991638184 -0.00014017242938280106 -0.0005200905725359917 0.0 0.0 0.0 0.0
2.446 0.32051125168800354 0.5744474530220032 -1.0503455996513367e-05 -0.000673314556479454 0.0 0.0 0.0 0.0
2.447 0.3257421851158142 0.5716762542724609 -0.00020859017968177795 -0.0007448606193065643 0.0 0.0 0.0 0.0
2.448 0.33577561378479004 0.5631564855575562 -0.0001181410625576973 -0.0006151571869850159 0.0 0.0 0.0 0.0
2.449 0.36053702235221863 0.5492459535598755 -7.29849562048912e-05 -0.0008021444082260132 0.0 0.0 0.0 0.0
2.45 0.3576800525188446 0.5490375757217407 -0.00030686426907777786 -0.0009066229686141014 0.0 0.0 0.0 0.0
2.451 0.3804154098033905 0.5310578942298889 -0.00016615260392427444 -0.0007693860679864883 0.0 0.0 0.0 0.0
2.452 0.38080930709838867 0.5286657214164734 -1.3385899364948273e-05 -0.0008790381252765656 0.0 0.0 0.0 0.0
2.453 0.39993685483932495 0.5145586133003235 -7.419101893901825e-05 -0.0008882107213139534 0.0 0.0 0.0 0.0
2.454 0.4018663465976715 0.5093414187431335 -0.00019522104412317276 -0.0007086088880896568 0.0 0.0 0.0 0.0
2.455 0.4187048077583313 0.4949655830860138 -0.00024050381034612656 -0.0008355863392353058 0.0 0.0 0.0 0.0
2.456 0.42649346590042114 0.48520416021347046 -0.00017768610268831253 -0.0009732507169246674 0.0 0.0 0.0 0.0
2.457 0.4379402995109558 0.4746313691139221 -0.0003118366003036499 -0.0009125871583819389 0.0 0.0 0.0 0.0
2.458 0.44463539123535156 0.46411585807800293 -0.0001992546021938324 -0.0008721807971596718 0.0 0.0 0.0 0.0
2.459 0.4587818682193756 0.4516017436981201 -0.0004015946760773659 -0.0007985765114426613 0.0 0.0 0.0 0.0
2.46 0.4666728079319 0.4359596371650696 -0.0003018910065293312 -0.0008216695860028267 0.0 0.0 0.0 0.0
2.461 0.47116321325302124 0.4293050765991211 -0.0003924379125237465 -0.0008569648489356041 0.0 0.0 0.0 0.0
2.462 0.484083354473114 0.4113478362560272 -0.0006101969629526138 -0.0008314792066812515 0.0 0.0 0.0 0.0
2.463 0.4890747368335724 0.40297675132751465 -0.0006415508687496185 -0.0009693475440144539 0.0 0.0 0.0 0.0
2.464 0.49885424971580505 0.3817366659641266 -0.0006163306534290314 -0.0010453760623931885 0.0 0.0 0.0 0.0
2.465 0.5010684132575989 0.3731147050857544 -0.0005841897800564766 -0.0009601330384612083 0.0 0.0 0.0 0.0
2.466 0.5154044032096863 0.3521616756916046 -0.0006519602611660957 -0.000875379890203476 0.0 0.0 0.0 0.0
2.467 0.5140445828437805 0.34381645917892456 -0.0009398888796567917 -0.0009793266654014587 0.0 0.0 0.0 0.0
2.468 0.5207432508468628 0.3276171088218689 -0.0008738115429878235 -0.0007625175639986992 0.0 0.0 0.0 0.0
2.469 0.5264132022857666 0.3129662275314331 -0.0009899428114295006 -0.0007790643721818924 0.0 0.0 0.0 0.0
2.47 0.5317962169647217 0.29735246300697327 -0.000832434743642807 -0.0009219711646437645 0.0 0.0 0.0 0.0
2.471 0.5360718369483948 0.27785348892211914 -0.0010075140744447708 -0.0005362480878829956 0.0 0.0 0.0 0.0
2.472 0.538054347038269 0.26639071106910706 -0.0011772215366363525 -0.000860980711877346 0.0 0.0 0.0 0.0
2.473 0.5410027503967285 0.24494753777980804 -0.000997454859316349 -0.0005577253177762032 0.0 0.0 0.0 0.0
2.474 0.5415077805519104 0.23308095335960388 -0.00116734579205513 -0.0005125179886817932 0.0 0.0 0.0 0.0
2.475 0.5466682314872742 0.20614291727542877 -0.0011685211211442947 -0.000583612360060215 0.0 0.0 0.0 0.0
2.476 0.5454801321029663 0.19461286067962646 -0.0011440524831414223 -0.000529230572283268 0.0 0.0 0.0 0.0
2.477 0.5471025705337524 0.17397594451904297 -0.0011636437848210335 -0.00033304188400506973 0.0 0.0 0.0 0.0
2.478 0.5426643490791321 0.16526812314987183 -0.0011885808780789375 -0.00020159967243671417 0.0 0.0 0.0 0.0
2.479 0.546918511390686 0.14072419703006744 -0.001128421165049076 -0.00031550321727991104 0.0 0.0 0.0 0.0
2.48 0.5418149828910828 0.12564101815223694 -0.001209440641105175 -0.00018154922872781754 0.0 0.0 0.0 0.0
2.481 0.5395687818527222 0.11163650453090668 -0.0012773526832461357 -6.145890802145004e-05 0.0 0.0 0.0 0.0
2.482 0.5372800827026367 0.08484794199466705 -0.0012733722105622292 -9.49464738368988e-05 0.0 0.0 0.0 0.0
2.483 0.5315186977386475 0.07689054310321808 -0.0015226583927869797 0.00011877529323101044 0.0 0.0 0.0 0.0
2.484 0.5276792645454407 0.05054759979248047 -0.0012776004150509834 0.00018891971558332443 0.0 0.0 0.0 0.0
2.485 0.5230565667152405 0.03936133161187172 -0.0014549260959029198 0.0002353312447667122 0.0 0.0 0.0 0.0
2.486 0.5160291194915771 0.01659463159739971 -0.0012743892148137093 0.00020526163280010223 0.0 0.0 0.0 0.0
2.487 0.5099515318870544 0.004490647464990616 -0.0013166023418307304 7.847417145967484e-05 0.0 0.0 0.0 0.0
2.488 0.5008438229560852 -0.020612547174096107 -0.0011887932196259499 0.00036389008164405823 0.0 0.0 0.0 0.0
2.489 0.4914560317993164 -0.030155936256051064 -0.0011047925800085068 0.00046614743769168854 0.0 0.0 0.0 0.0
2.49 0.4832049012184143 -0.052415668964385986 -0.0011653909459710121 0.0002942867577075958 0.0 0.0 0.0 0.0
2.491 0.4733053743839264 -0.0641167163848877 -0.0010392982512712479 0.0004676487296819687 0.0 0.0 0.0 0.0
2.492 0.4626787006855011 -0.08445512503385544 -0.000997321680188179 0.0005149561911821365 0.0 0.0 0.0 0.0
2.493 0.45163416862487793 -0.09657879918813705 -0.0008591320365667343 0.0004341183230280876 0.0 0.0 0.0 0.0
2.494 0.43967512249946594 -0.11589165031909943 -0.0008548637852072716 0.0006754370406270027 0.0 0.0 0.0 0.0
2.495 0.42721983790397644 -0.12480384856462479 -0.0009248843416571617 0.0007423488423228264 0.0 0.0 0.0 0.0
2.496 0.41493237018585205 -0.1430281698703766 -0.0008524591103196144 0.0006259232759475708 0.0 0.0 0.0 0.0
2.497 0.397779643535614 -0.1578660011291504 -0.0009368592873215675 0.0005526449531316757 0.0 0.0 0.0 0.0
2.498 0.38484400510787964 -0.1703629046678543 -0.0008079167455434799 0.0007787793874740601 0.0 0.0 0.0 0.0
2.499 0.3682444989681244 -0.18748287856578827 -0.0008034249767661095 0.0008349241688847542 0.0 0.0 0.0 0.0
2.5 0.3550783693790436 -0.19509917497634888 -0.0008013779297471046 0.0007804688066244125 0.0 0.0 0.0 0.0
2.501 0.33662500977516174 -0.20837511122226715 -0.0005953395739197731 0.0009520826861262321 0.0 0.0 0.0 0.0
2.502 0.3168453276157379 -0.22281327843666077 -0.000733647495508194 0.000888485461473465 0.0 0.0 0.0 0.0
2.503 0.30047735571861267 -0.23195897042751312 -0.0006215497851371765 0.0006528152152895927 0.0 0.0 0.0 0.0
2.504 0.2850552499294281 -0.2385069727897644 -0.0005176719278097153 0.0008503897115588188 0.0 0.0 0.0 0.0
2.505 0.2617985010147095 -0.25237947702407837 -0.0006107781082391739 0.0007663983851671219 0.0 0.0 0.0 0.0
2.506 0.2466142624616623 -0.2582862675189972 -0.0006020665168762207 0.0006873328238725662 0.0 0.0 0.0 0.0
2.507 0.22458070516586304 -0.26940077543258667 -0.000386582687497139 0.000896119512617588 0.0 0.0 0.0 0.0
2.508 0.20122812688350677 -0.27550238370895386 -0.0005336897447705269 0.0008735861629247665 0.0 0.0 0.0 0.0
2.509 0.18389548361301422 -0.2830905020236969 -0.0005225175991654396 0.0008159233257174492 0.0 0.0 0.0 0.0
2.51 0.16124162077903748 -0.2845151126384735 -0.0005600135773420334 0.0009350068867206573 0.0 0.0 0.0 0.0
2.511 0.13686145842075348 -0.29227888584136963 -0.00045127980411052704 0.0008900370448827744 0.0 0.0 0.0 0.0
2.512 0.11386270076036453 -0.29251816868782043 -0.0005141869187355042 0.0009418008849024773 0.0 0.0 0.0 0.0
2.513 0.09361876547336578 -0.2949264943599701 -0.00038260873407125473 0.0007703667506575584 0.0 0.0 0.0 0.0
2.514 0.07197533547878265 -0.29442405700683594 -0.00042737461626529694 0.0008487869054079056 0.0 0.0 0.0 0.0
2.515 0.05289650708436966 -0.29449912905693054 -0.0005966154858469963 0.0009924573823809624 0.0 0.0 0.0 0.0
2.516 0.023012597113847733 -0.29451313614845276 -0.00040105730295181274 0.0009228289127349854 0.0 0.0 0.0 0.0
2.517 0.005398355424404144 -0.29111453890800476 -0.00025762617588043213 0.0010692737996578217 0.0 0.0 0.0 0.0
2.518 -0.01896454021334648 -0.28958436846733093 -0.0002251267433166504 0.0010107187554240227 0.0 0.0 0.0 0.0
2.519 -0.03898114338517189 -0.2815418243408203 -0.00031782686710357666 0.0009875791147351265 0.0 0.0 0.0 0.0
2.52 -0.061118435114622116 -0.2776261866092682 -0.0002983454614877701 0.001160857267677784 0.0 0.0 0.0 0.0
2.521 -0.08289110660552979 -0.2714359164237976 -8.609890937805176e-05 0.0012495582923293114 0.0 0.0 0.0 0.0
2.522 -0.10480320453643799 -0.26170945167541504 -0.00032818596810102463 0.0009265691041946411 0.0 0.0 0.0 0.0
2.523 -0.12442056089639664 -0.2559044361114502 -1.5906058251857758e-05 0.0011088810861110687 0.0 0.0 0.0 0.0
2.524 -0.1448141485452652 -0.24466319382190704 -3.666616976261139e-05 0.0011546891182661057 0.0 0.0 0.0 0.0
2.525 -0.16744819283485413 -0.23179279267787933 -3.4467317163944244e-05 0.0012279907241463661 0.0 0.0 0.0 0.0
2.526 -0.18215078115463257 -0.2245771437883377 -5.8564357459545135e-05 0.001120191067457199 0.0 0.0 0.0 0.0
2.527 -0.20342378318309784 -0.20999549329280853 0.00010268203914165497 0.0012332284823060036 0.0 0.0 0.0 0.0
2.528 -0.2186601161956787 -0.19805099070072174 0.0002504289150238037 0.0011372538283467293 0.0 0.0 0.0 0.0
2.529 -0.24004250764846802 -0.18140487372875214 0.0002131965011358261 0.0011368785053491592 0.0 0.0 0.0 0.0
2.53 -0.2516772747039795 -0.1688229888677597 0.00021857675164937973 0.0012680431827902794 0.0 0.0 0.0 0.0
2.531 -0.27102118730545044 -0.1488661915063858 0.0003132941201329231 0.0013082409277558327 0.0 0.0 0.0 0.0
2.532 -0.28518807888031006 -0.13410623371601105 0.0003027794882655144 0.0011329520493745804 0.0 0.0 0.0 0.0
2.533 -0.2967199385166168 -0.11989372968673706 0.0005200793966650963 0.0012929942458868027 0.0 0.0 0.0 0.0
2.534 -0.30751752853393555 -0.10407513380050659 0.000596148893237114 0.0013125594705343246 0.0 0.0 0.0 0.0
2.535 -0.3215194344520569 -0.08374890685081482 0.0007726037874817848 0.0010829437524080276 0.0 0.0 0.0 0.0
2.536 -0.33199894428253174 -0.06725455075502396 0.0006448226049542427 0.001148683950304985 0.0 0.0 0.0 0.0
2.537 -0.3399660587310791 -0.052366141229867935 0.0008476013317704201 0.0011857813224196434 0.0 0.0 0.0 0.0
2.538 -0.35094648599624634 -0.03337634727358818 0.0010245759040117264 0.001086568459868431 0.0 0.0 0.0 0.0
2.539 -0.36047714948654175 -0.019325383007526398 0.0009833471849560738 0.0010241428390145302 0.0 0.0 0.0 0.0
2.54 -0.36582356691360474 0.007739370688796043 0.0010228566825389862 0.0010288869962096214 0.0 0.0 0.0 0.0
2.541 -0.3735273480415344 0.019655825570225716 0.0011176103726029396 0.0008297162130475044 0.0 0.0 0.0 0.0
2.542 -0.38125184178352356 0.04190007597208023 0.0009660050272941589 0.0006412146613001823 0.0 0.0 0.0 0.0
2.543 -0.38467758893966675 0.055786553770303726 0.0010893335565924644 0.0006468798965215683 0.0 0.0 0.0 0.0
2.544 -0.3883693218231201 0.07540234923362732 0.001003175973892212 0.0006752796471118927 0.0 0.0 0.0 0.0
2.545 -0.3906460404396057 0.09307290613651276 0.0011077960953116417 0.0006027966737747192 0.0 0.0 0.0 0.0
2.546 -0.3923152685165405 0.11532779783010483 0.001207580789923668 0.0005089994519948959 0.0 0.0 0.0 0.0
2.547 -0.3919857442378998 0.134207084774971 0.0012235594913363457 0.00042384304106235504 0.0 0.0 0.0 0.0
2.548 -0.3955647647380829 0.1471581906080246 0.0011552413925528526 0.0005864650011062622 0.0 0.0 0.0 0.0
2.549 -0.398682564496994 0.1621035933494568 0.0010338807478547096 0.00022171251475811005 0.0 0.0 0.0 0.0
2.55 -0.39360955357551575 0.1916329264640808 0.0012750308960676193 4.0745362639427185e-05 0.0 0.0 0.0 0.0
2.551 -0.3932294249534607 0.19802184402942657 0.0010477947071194649 0.00032241735607385635 0.0 0.0 0.0 0.0
2.552 -0.39472293853759766 0.21448950469493866 0.0010360265150666237 6.8675726652145386e-06 0.0 0.0 0.0 0.0
2.553 -0.3901129364967346 0.23653678596019745 0.0009696688503026962 7.988791912794113e-05 0.0 0.0 0.0 0.0
2.554 -0.39391499757766724 0.24637408554553986 0.0009070662781596184 -8.519645780324936e-05 0.0 0.0 0.0 0.0
2.555 -0.3882354497909546 0.2646728754043579 0.0009954655542969704 -5.4615549743175507e-05 0.0 0.0 0.0 0.0
2.556 -0.3778863847255707 0.2845577299594879 0.0011550001800060272 0.0001713670790195465 0.0 0.0 0.0 0.0
2.557 -0.38104498386383057 0.2962309718132019 0.001051844097673893 -1.9624829292297363e-05 0.0 0.0 0.0 0.0
2.558 -0.378322035074234 0.30475538969039917 0.0010999031364917755 -9.255204349756241e-05 0.0 0.0 0.0 0.0
2.559 -0.3694237172603607 0.32889750599861145 0.0011061718687415123 -0.0002589477226138115 0.0 0.0 0.0 0.0
2.56 -0.36673757433891296 0.3390499949455261 0.000830184668302536 -0.0002220282331109047 0.0 0.0 0.0 0.0
2.561 -0.36298492550849915 0.3515378534793854 0.0008090967312455177 -0.00023586302995681763 0.0 0.0 0.0 0.0
2.562 -0.3570095896720886 0.36400261521339417 0.0008247895166277885 -9.335018694400787e-05 0.0 0.0 0.0 0.0
2.563 -0.35460177063941956 0.37816953659057617 0.00098385289311409 -6.434693932533264e-05 0.0 0.0 0.0 0.0
2.564 -0.3453468084335327 0.3931196928024292 0.0009690076112747192 -0.00011666491627693176 0.0 0.0 0.0 0.0
2.565 -0.3472127914428711 0.3975663483142853 0.000865141861140728 -0.00039661955088377 0.0 0.0 0.0 0.0
2.566 -0.3334043323993683 0.41731566190719604 0.0010135490447282791 -0.00022042635828256607 0.0 0.0 0.0 0.0
2.567 -0.33051618933677673 0.42718255519866943 0.0007260143756866455 -0.0004564765840768814 0.0 0.0 0.0 0.0
2.568 -0.31803104281425476 0.44504275918006897 0.0009560501202940941 -0.00044893380254507065 0.0 0.0 0.0 0.0
2.569 -0.3112974464893341 0.4552341103553772 0.0009366795420646667 -0.00033875927329063416 0.0 0.0 0.0 0.0
2.57 -0.3033178746700287 0.4661347568035126 0.0008612433448433876 -0.00034762173891067505 0.0 0.0 0.0 0.0
2.571 -0.3012448251247406 0.4745929539203644 0.0007948195561766624 -0.0004418501630425453 0.0 0.0 0.0 0.0
2.572 -0.29200437664985657 0.4884291887283325 0.0008153757080435753 -0.0005654897540807724 0.0 0.0 0.0 0.0
2.573 -0.28097349405288696 0.5002927780151367 0.0006834501400589943 -0.000527137890458107 0.0 0.0 0.0 0.0
2.574 -0.2733076810836792 0.509827196598053 0.000696190632879734 -0.0003211516886949539 0.0 0.0 0.0 0.0
2.575 -0.26606905460357666 0.5187532901763916 0.0007597608491778374 -0.000546654686331749 0.0 0.0 0.0 0.0
2.576 -0.2532476782798767 0.5289463400840759 0.0005962755531072617 -0.0006079161539673805 0.0 0.0 0.0 0.0
2.577 -0.24158236384391785 0.5404751300811768 0.0005527986213564873 -0.0005920827388763428 0.0 0.0 0.0 0.0
2.578 -0.2331068366765976 0.5484427809715271 0.0007043471559882164 -0.0005834968760609627 0.0 0.0 0.0 0.0
2.579 -0.21934829652309418 0.5585328340530396 0.0006127879023551941 -0.000722876749932766 0.0 0.0 0.0 0.0
2.58 -0.20578423142433167 0.5700879693031311 0.000591483898460865 -0.0006807157769799232 0.0 0.0 0.0 0.0
2.581 -0.1983417123556137 0.5738210082054138 0.0005907798185944557 -0.0008606975898146629 0.0 0.0 0.0 0.0
2.582 -0.19290871918201447 0.5793366432189941 0.0006229886785149574 -0.0006912685930728912 0.0 0.0 0.0 0.0
2.583 -0.18755409121513367 0.5845720171928406 0.00042991992086172104 -0.0008444376289844513 0.0 0.0 0.0 0.0
2.584 -0.16721601784229279 0.593033492565155 0.0003539063036441803 -0.000552937388420105 0.0 0.0 0.0 0.0
2.585 -0.1563243716955185 0.6013602614402771 0.0002787671983242035 -0.000928020104765892 0.0 0.0 0.0 0.0
2.586 -0.13795259594917297 0.6102789640426636 0.00026138313114643097 -0.0008298298344016075 0.0 0.0 0.0 0.0
2.587 -0.13728761672973633 0.6144041419029236 0.0004338948056101799 -0.0007737856358289719 0.0 0.0 0.0 0.0
2.588 -0.12031134217977524 0.617315411567688 0.00012377742677927017 -0.0007210448384284973 0.0 0.0 0.0 0.0
2.589 -0.11434280872344971 0.6267813444137573 0.00024650711566209793 -0.0006907032802700996 0.0 0.0 0.0 0.0
2.59 -0.09846491366624832 0.624454915523529 0.0003804657608270645 -0.0006811544299125671 0.0 0.0 0.0 0.0
2.591 -0.09259222447872162 0.6347019672393799 3.184471279382706e-05 -0.0008940165862441063 0.0 0.0 0.0 0.0
2.592 -0.08541426062583923 0.6368361711502075 0.0001837126910686493 -0.0007976824417710304 0.0 0.0 0.0 0.0
2.593 -0.07171659916639328 0.639769971370697 0.0003174440935254097 -0.0007861331105232239 0.0 0.0 0.0 0.0
2.594 -0.05579681321978569 0.6464824676513672 7.986649870872498e-05 -0.0008206916972994804 0.0 0.0 0.0 0.0
2.595 -0.05688333883881569 0.6485303640365601 0.00017961394041776657 -0.0008012168109416962 0.0 0.0 0.0 0.0
2.596 -0.033361468464136124 0.6492639183998108 0.00011419691145420074 -0.000850440002977848 0.0 0.0 0.0 0.0
2.597 -0.016772093251347542 0.6538255214691162 -3.894791007041931e-06 -0.0010433364659547806 0.0 0.0 0.0 0.0
2.598 0.004654979333281517 0.6599792838096619 7.038004696369171e-06 -0.0009502395987510681 0.0 0.0 0.0 0.0
2.599 0.007182459346950054 0.6584748029708862 6.904918700456619e-05 -0.0008523110300302505 0.0 0.0 0.0 0.0
2.6 0.01261444203555584 0.661222517490387 5.1217153668403625e-05 -0.000931951217353344 0.0 0.0 0.0 0.0
2.601 0.03345430642366409 0.6629093885421753 9.286776185035706e-05 -0.0006483336910605431 0.0 0.0 0.0 0.0
2.602 0.029472853988409042 0.6633142828941345 -1.4659017324447632e-06 -0.0006840042769908905 0.0 0.0 0.0 0.0
2.603 0.05977051705121994 0.6646624803543091 -0.00023862067610025406 -0.0008787894621491432 0.0 0.0 0.0 0.0
2.604 0.047906093299388885 0.6618672013282776 1.812633126974106e-05 -0.000717642717063427 0.0 0.0 0.0 0.0
2.605 0.07619383931159973 0.6655499339103699 3.849156200885773e-06 -0.0007645133882761002 0.0 0.0 0.0 0.0
2.606 0.0851808413863182 0.6661675572395325 -0.00014976877719163895 -0.0008192034438252449 0.0 0.0 0.0 0.0
2.607 0.08789718896150589 0.6690182089805603 -7.024966180324554e-05 -0.0008064964786171913 0.0 0.0 0.0 0.0
2.608 0.10994529724121094 0.665325939655304 -0.0003247298300266266 -0.000740385614335537 0.0 0.0 0.0 0.0
2.609 0.11481922119855881 0.6684233546257019 -0.0003575105220079422 -0.0007998291403055191 0.0 0.0 0.0 0.0
2.61 0.12346331775188446 0.6659867167472839 -0.000329798087477684 -0.0007990356534719467 0.0 0.0 0.0 0.0
2.611 0.1415729969739914 0.6590594053268433 -0.0002652052789926529 -0.0006596343591809273 0.0 0.0 0.0 0.0
2.612 0.15981940925121307 0.6596999168395996 -0.0002287914976477623 -0.0008650245144963264 0.0 0.0 0.0 0.0
2.613 0.16496020555496216 0.6617682576179504 -0.0003765961155295372 -0.0006780773401260376 0.0 0.0 0.0 0.0
2.614 0.17853273451328278 0.6550045609474182 -0.00032883137464523315 -0.000643518753349781 0.0 0.0 0.0 0.0
2.615 0.1874186396598816 0.6543094515800476 -0.0005536880344152451 -0.0007479619234800339 0.0 0.0 0.0 0.0
2.616 0.20309562981128693 0.6507015228271484 -0.0004306212067604065 -0.0008748918771743774 0.0 0.0 0.0 0.0
2.617 0.21300281584262848 0.6442936658859253 -0.00046092644333839417 -0.00047151464968919754 0.0 0.0 0.0 0.0
2.618 0.22907988727092743 0.6440906524658203 -0.0007701190188527107 -0.0005032951012253761 0.0 0.0 0.0 0.0
2.619 0.2317427694797516 0.6439692974090576 -0.0006232792511582375 -0.0007078424096107483 0.0 0.0 0.0 0.0
2.62 0.2478468418121338 0.6394340991973877 -0.00041080452501773834 -0.0006703939288854599 0.0 0.0 0.0 0.0
2.621 0.2605363428592682 0.6303402781486511 -0.0004070540890097618 -0.0006170747801661491 0.0 0.0 0.0 0.0
2.622 0.26929518580436707 0.624853253364563 -0.0006126249209046364 -0.0004676971584558487 0.0 0.0 0.0 0.0
2.623 0.28428706526756287 0.6207214593887329 -0.0004584966227412224 -0.0005493834614753723 0.0 0.0 0.0 0.0
2.624 0.2923046946525574 0.6173766851425171 -0.0003615599125623703 -0.0003443164750933647 0.0 0.0 0.0 0.0
2.625 0.3017764985561371 0.6085398197174072 -0.0004971781745553017 -0.0006894217804074287 0.0 0.0 0.0 0.0
2.626 0.3067939281463623 0.6067424416542053 -0.0006484733894467354 -0.0004901578649878502 0.0 0.0 0.0 0.0
2.627 0.32820671796798706 0.5986005663871765 -0.0008081616833806038 -0.0004122750833630562 0.0 0.0 0.0 0.0
2.628 0.3442440927028656 0.5847952365875244 -0.0002975333482027054 -0.0005986066535115242 0.0 0.0 0.0 0.0
2.629 0.3484678268432617 0.5831825733184814 -0.00042037107050418854 -0.0002950504422187805 0.0 0.0 0.0 0.0
2.63 0.3589772880077362 0.5749889612197876 -0.0005718478932976723 -0.0003941487520933151 0.0 0.0 0.0 0.0
2.631 0.36104923486709595 0.5774543285369873 -0.0005616424605250359 -0.0005875714123249054 0.0 0.0 0.0 0.0
2.632 0.37748780846595764 0.5604920387268066 -0.0005896622315049171 -0.0003612935543060303 0.0 0.0 0.0 0.0
2.633 0.38518020510673523 0.5547677278518677 -0.0006228499114513397 -0.00025426875799894333 0.0 0.0 0.0 0.0
2.634 0.40000537037849426 0.5407602190971375 -0.0006633335724473 -0.0004294188693165779 0.0 0.0 0.0 0.0
2.635 0.40075740218162537 0.5403034687042236 -0.0006380612030625343 -0.00044612307101488113 0.0 0.0 0.0 0.0
2.636 0.4180210828781128 0.5253528952598572 -0.0008085034787654877 -0.0003693085163831711 0.0 0.0 0.0 0.0
2.637 0.42575427889823914 0.518193244934082 -0.0007798681035637856 -0.00044713355600833893 0.0 0.0 0.0 0.0
2.638 0.43379470705986023 0.5052055716514587 -0.0007946444675326347 -0.0001630578190088272 0.0 0.0 0.0 0.0
2.639 0.4385071396827698 0.5044487118721008 -0.0007491540163755417 -0.0003030626103281975 0.0 0.0 0.0 0.0
2.64 0.45256736874580383 0.49471017718315125 -0.0007465500384569168 -0.00016319844871759415 0.0 0.0 0.0 0.0
2.641 0.4507374167442322 0.479422003030777 -0.0007990226149559021 -0.0003254814073443413 0.0 0.0 0.0 0.0
2.642 0.46712973713874817 0.471183717250824 -0.0010268203914165497 -4.220660775899887e-05 0.0 0.0 0.0 0.0
2.643 0.46953731775283813 0.4627670645713806 -0.0007536159828305244 -0.0001072445884346962 0.0 0.0 0.0 0.0
2.644 0.48389139771461487 0.44682106375694275 -0.0008574007079005241 -0.00028183311223983765 0.0 0.0 0.0 0.0
2.645 0.4873120188713074 0.43420809507369995 -0.0007917303591966629 -6.496347486972809e-05 0.0 0.0 0.0 0.0
2.646 0.5046185255050659 0.40805405378341675 -0.001032310537993908 3.1152740120887756e-05 0.0 0.0 0.0 0.0
2.647 0.5066141486167908 0.40726950764656067 -0.0006365962326526642 0.0001922566443681717 0.0 0.0 0.0 0.0
2.648 0.5068333745002747 0.39707452058792114 -0.000825357623398304 -8.67750495672226e-05 0.0 0.0 0.0 0.0
2.649 0.5179224014282227 0.3826224207878113 -0.0008347164839506149 0.00018225423991680145 0.0 0.0 0.0 0.0
2.65 0.5195990800857544 0.3727402091026306 -0.000843362882733345 0.00026729702949523926 0.0 0.0 0.0 0.0
2.651 0.5308839082717896 0.35593968629837036 -0.0009314017370343208 0.00043295789510011673 0.0 0.0 0.0 0.0
2.652 0.5222820043563843 0.36419057846069336 -0.0008026221767067909 0.00020303763449192047 0.0 0.0 0.0 0.0
2.653 0.5355339646339417 0.33119678497314453 -0.0009418586269021034 0.0002681715413928032 0.0 0.0 0.0 0.0
2.654 0.5429180860519409 0.3104760944843292 -0.0007937448099255562 0.000537344254553318 0.0 0.0 0.0 0.0
2.655 0.5401928424835205 0.3089089095592499 -0.0007349774241447449 0.0006060078740119934 0.0 0.0 0.0 0.0
2.656 0.5467569828033447 0.2821978032588959 -0.0009313514456152916 0.00029335543513298035 0.0 0.0 0.0 0.0
2.657 0.5483472347259521 0.2705940902233124 -0.00048691220581531525 0.00046038348227739334 0.0 0.0 0.0 0.0
2.658 0.5592115521430969 0.2435198277235031 -0.0004705619066953659 0.0004199612885713577 0.0 0.0 0.0 0.0
2.659 0.5539414882659912 0.23989319801330566 -0.0006002550944685936 0.0005366988480091095 0.0 0.0 0.0 0.0
2.66 0.5623046159744263 0.20955906808376312 -0.0006875637918710709 0.0006683478131890297 0.0 0.0 0.0 0.0
2.661 0.558137059211731 0.20069436728954315 -0.0007469188421964645 0.0005286382511258125 0.0 0.0 0.0 0.0
2.662 0.5599269270896912 0.1826496571302414 -0.0008973339572548866 0.0003579789772629738 0.0 0.0 0.0 0.0
2.663 0.5569816827774048 0.173552468419075 -0.0007021641358733177 0.0004550013691186905 0.0 0.0 0.0 0.0
2.664 0.5576091408729553 0.14530369639396667 -0.00047454703599214554 0.0003507537767291069 0.0 0.0 0.0 0.0
2.665 0.55550217628479 0.13322307169437408 -0.0006247358396649361 0.0005210833624005318 0.0 0.0 0.0 0.0
2.666 0.5541456937789917 0.11260689795017242 -0.0006821518763899803 0.000483950600028038 0.0 0.0 0.0 0.0
2.667 0.551572859287262 0.07668142765760422 -0.0004964163526892662 0.0005372371524572372 0.0 0.0 0.0 0.0
2.668 0.5494145750999451 0.07983335107564926 -0.00054949801415205 0.0006959354504942894 0.0 0.0 0.0 0.0
2.669 0.5482220649719238 0.05563250184059143 -0.00047238264232873917 0.0004709893837571144 0.0 0.0 0.0 0.0
2.67 0.5385920405387878 0.030832132324576378 -0.0005302000790834427 0.0006519574671983719 0.0 0.0 0.0 0.0
2.671 0.5323746204376221 0.01851102150976658 -0.0005734926089644432 0.0004285946488380432 0.0 0.0 0.0 0.0
2.672 0.5251197814941406 0.006310862489044666 -0.0006612557917833328 0.0006630383431911469 0.0 0.0 0.0 0.0
2.673 0.516064465045929 -0.015021953731775284 -0.0006435336545109749 0.0005316436290740967 0.0 0.0 0.0 0.0
2.674 0.5065507888793945 -0.02266257256269455 -0.0004881080240011215 0.0007086079567670822 0.0 0.0 0.0 0.0
2.675 0.49800705909729004 -0.05108077451586723 -0.0004574516788125038 0.000780218280851841 0.0 0.0 0.0 0.0
2.676 0.4885571002960205 -0.06657866388559341 -0.0005817664787173271 0.0008339649066329002 0.0 0.0 0.0 0.0
2.677 0.47433820366859436 -0.08179200440645218 -0.0002773543819785118 0.0007263831794261932 0.0 0.0 0.0 0.0
2.678 0.4628290832042694 -0.09754768759012222 -0.0004931380972266197 0.0008307322859764099 0.0 0.0 0.0 0.0
2.679 0.4555022418498993 -0.10497312992811203 -0.00023848377168178558 0.0008299723267555237 0.0 0.0 0.0 0.0
2.68 0.438163161277771 -0.12778522074222565 -0.0004892880097031593 0.0010195579379796982 0.0 0.0 0.0 0.0
2.681 0.4288625419139862 -0.14239910244941711 -0.000540303997695446 0.0010835789144039154 0.0 0.0 0.0 0.0
2.682 0.40890806913375854 -0.16004446148872375 -0.0004031537100672722 0.0008329562842845917 0.0 0.0 0.0 0.0
2.683 0.39218419790267944 -0.16852378845214844 -0.00016350485384464264 0.0008861077949404716 0.0 0.0 0.0 0.0
2.684 0.3744170069694519 -0.18938696384429932 -0.0003301147371530533 0.0011184103786945343 0.0 0.0 0.0 0.0
2.685 0.35692134499549866 -0.1988449990749359 -0.0002797180786728859 0.0009884275496006012 0.0 0.0 0.0 0.0
2.686 0.3411843180656433 -0.21487045288085938 -0.00012400001287460327 0.001198960468173027 0.0 0.0 0.0 0.0
2.687 0.3244837820529938 -0.22020694613456726 -0.00010305922478437424 0.0010698139667510986 0.0 0.0 0.0 0.0
2.688 0.2948383390903473 -0.23916402459144592 -0.00014358200132846832 0.001237248070538044 0.0 0.0 0.0 0.0
2.689 0.2843294143676758 -0.24116045236587524 -9.33995470404625e-05 0.001102367416024208 0.0 0.0 0.0 0.0
2.69 0.25937122106552124 -0.25437137484550476 0.00011549051851034164 0.0009303474798798561 0.0 0.0 0.0 0.0
2.691 0.2301742136478424 -0.2652997672557831 0.00011764280498027802 0.0009317602962255478 0.0 0.0 0.0 0.0
2.692 0.21790824830532074 -0.2660488784313202 0.000189892016351223 0.0007553268224000931 0.0 0.0 0.0 0.0
2.693 0.19548065960407257 -0.2686256766319275 8.63960012793541e-05 0.0010438477620482445 0.0 0.0 0.0 0.0
2.694 0.164375901222229 -0.2800167202949524 0.00015431735664606094 0.0011683283373713493 0.0 0.0 0.0 0.0
2.695 0.14326539635658264 -0.2813616394996643 0.00025872793048620224 0.000954766757786274 0.0 0.0 0.0 0.0
2.696 0.13501277565956116 -0.27848196029663086 0.0003008916974067688 0.0009735804051160812 0.0 0.0 0.0 0.0
2.697 0.10290921479463577 -0.279933363199234 0.0002575647085905075 0.001048794947564602 0.0 0.0 0.0 0.0
2.698 0.08717509359121323 -0.28064191341400146 0.0004190495237708092 0.0009781252592802048 0.0 0.0 0.0 0.0
2.699 0.06332769989967346 -0.2810213267803192 0.0007370682433247566 0.0008805068209767342 0.0 0.0 0.0 0.0
2.7 0.030146285891532898 -0.2774745523929596 0.0004099411889910698 0.0008023837581276894 0.0 0.0 0.0 0.0
2.701 0.01853204146027565 -0.27521127462387085 0.0008553061634302139 0.0009424984455108643 0.0 0.0 0.0 0.0
2.702 -0.004336709156632423 -0.27111753821372986 0.0007290774956345558 0.0007413867861032486 0.0 0.0 0.0 0.0
2.703 -0.028322426602244377 -0.2659454941749573 0.0006497185677289963 0.0006788624450564384 0.0 0.0 0.0 0.0
2.704 -0.04424072429537773 -0.260098934173584 0.000665636733174324 0.0006498619914054871 0.0 0.0 0.0 0.0
2.705 -0.06264333426952362 -0.254029244184494 0.0006720591336488724 0.0006324537098407745 0.0 0.0 0.0 0.0
2.706 -0.09381221979856491 -0.24617476761341095 0.0007237084209918976 0.0005430355668067932 0.0 0.0 0.0 0.0
2.707 -0.10321837663650513 -0.2367582470178604 0.0006980607286095619 0.0008375318720936775 0.0 0.0 0.0 0.0
2.708 -0.12928681075572968 -0.22757169604301453 0.0006748251616954803 0.000614815391600132 0.0 0.0 0.0 0.0
2.709 -0.14182384312152863 -0.22114063799381256 0.0006966451182961464 0.0006364285945892334 0.0 0.0 0.0 0.0
2.71 -0.16423280537128448 -0.20786452293395996 0.0009166263043880463 0.0008568912744522095 0.0 0.0 0.0 0.0
2.711 -0.17936792969703674 -0.19700175523757935 0.0007169833406805992 0.0006341096013784409 0.0 0.0 0.0 0.0
2.712 -0.20055872201919556 -0.18340395390987396 0.0006746277213096619 0.00025874190032482147 0.0 0.0 0.0 0.0
2.713 -0.2146877646446228 -0.17359983921051025 0.0007977467030286789 0.00048145465552806854 0.0 0.0 0.0 0.0
2.714 -0.2321246713399887 -0.1581583023071289 0.0009071622043848038 0.0006449222564697266 0.0 0.0 0.0 0.0
2.715 -0.25364646315574646 -0.13436144590377808 0.0006060013547539711 0.0005073612555861473 0.0 0.0 0.0 0.0
2.716 -0.25982871651649475 -0.13108526170253754 0.0006496431306004524 0.0004621567204594612 0.0 0.0 0.0 0.0
2.717 -0.27734336256980896 -0.11319838464260101 0.0008626626804471016 0.00044940970838069916 0.0 0.0 0.0 0.0
2.718 -0.28988903760910034 -0.10014817118644714 0.0009316476061940193 0.00047333166003227234 0.0 0.0 0.0 0.0
2.719 -0.30228206515312195 -0.07620718330144882 0.0005855225026607513 0.00019712373614311218 0.0 0.0 0.0 0.0
2.72 -0.31473657488822937 -0.06034586578607559 0.0008556842803955078 0.00026547349989414215 0.0 0.0 0.0 0.0
2.721 -0.32645007967948914 -0.03930782154202461 0.0006098756566643715 0.000254741869866848 0.0 0.0 0.0 0.0
2.722 -0.33157116174697876 -0.025686323642730713 0.000682988204061985 0.0003329431638121605 0.0 0.0 0.0 0.0
2.723 -0.34117263555526733 -0.009872321039438248 0.0010230885818600655 0.0005048234015703201 0.0 0.0 0.0 0.0
2.724 -0.35010695457458496 0.010981041006743908 0.0008076271042227745 0.00019761640578508377 0.0 0.0 0.0 0.0
2.725 -0.35743993520736694 0.029105519875884056 0.0008277939632534981 -7.464271038770676e-05 0.0 0.0 0.0 0.0
2.726 -0.3635141849517822 0.047590117901563644 0.0007194895297288895 0.00010250601917505264 0.0 0.0 0.0 0.0
2.727 -0.36758923530578613 0.07117997854948044 0.0007074875757098198 -0.00023566000163555145 0.0 0.0 0.0 0.0
2.728 -0.3738095164299011 0.07839054614305496 0.0010766685009002686 0.00019548647105693817 0.0 0.0 0.0 0.0
2.729 -0.3810988962650299 0.09831326454877853 0.0005417559295892715 0.00020320340991020203 0.0 0.0 0.0 0.0
2.73 -0.3800395131111145 0.1193218007683754 0.0006085792556405067 0.0002869674935936928 0.0 0.0 0.0 0.0
2.731 -0.3826304078102112 0.1333557814359665 0.0008639898151159286 0.00018061138689517975 0.0 0.0 0.0 0.0
2.732 -0.3848014771938324 0.15764544904232025 0.0007000314071774483 5.0683505833148956e-05 0.0 0.0 0.0 0.0
2.733 -0.38962361216545105 0.1736845225095749 0.0007118983194231987 8.628331124782562e-05 0.0 0.0 0.0 0.0
2.734 -0.3865242600440979 0.19306287169456482 0.0007799426093697548 0.00019868090748786926 0.0 0.0 0.0 0.0
2.735 -0.39312294125556946 0.20293162763118744 0.0009025968611240387 -4.49158251285553e-05 0.0 0.0 0.0 0.0
2.736 -0.39592990279197693 0.2199070155620575 0.000698162242770195 -0.00021186750382184982 0.0 0.0 0.0 0.0
2.737 -0.385656476020813 0.2432234138250351 0.0005740635097026825 -8.278712630271912e-05 0.0 0.0 0.0 0.0
2.738 -0.38601672649383545 0.26517513394355774 0.0004527764394879341 -0.00029377173632383347 0.0 0.0 0.0 0.0
2.739 -0.37545788288116455 0.28339752554893494 0.0006467048078775406 1.1313706636428833e-05 0.0 0.0 0.0 0.0
2.74 -0.382108598947525 0.2937769293785095 0.0005148071795701981 -4.697777330875397e-05 0.0 0.0 0.0 0.0
2.741 -0.38010963797569275 0.30428749322891235 0.00047652143985033035 -0.00012125261127948761 0.0 0.0 0.0 0.0
2.742 -0.3839229345321655 0.3121086359024048 0.0007638363167643547 0.00011406373232603073 0.0 0.0 0.0 0.0
2.743 -0.36391258239746094 0.3426583707332611 0.00044123828411102295 -0.00018000323325395584 0.0 0.0 0.0 0.0
2.744 -0.36036375164985657 0.36090537905693054 0.0005742572247982025 -0.00014465581625699997 0.0 0.0 0.0 0.0
2.745 -0.35486412048339844 0.37462955713272095 0.0006911680102348328 -8.106976747512817e-05 0.0 0.0 0.0 0.0
2.746 -0.3532834053039551 0.38796117901802063 0.0006054434925317764 -0.00017697550356388092 0.0 0.0 0.0 0.0
2.747 -0.3411325514316559 0.4045120179653168 0.0005599576979875565 -6.932765245437622e-05 0.0 0.0 0.0 0.0
2.748 -0.3231523633003235 0.42471587657928467 0.0007408279925584793 -5.335640162229538e-05 0.0 0.0 0.0 0.0
2.749 -0.32649141550064087 0.4333396553993225 0.0005755219608545303 -0.00013796333223581314 0.0 0.0 0.0 0.0
2.75 -0.3236098885536194 0.44196784496307373 0.0005860868841409683 -0.0002200072631239891 0.0 0.0 0.0 0.0
2.751 -0.3069252073764801 0.4642595946788788 0.0007973872125148773 -0.0005336469039320946 0.0 0.0 0.0 0.0
2.752 -0.29765409231185913 0.47219982743263245 0.0005720844492316246 -0.00017580948770046234 0.0 0.0 0.0 0.0
2.753 -0.2962767481803894 0.47936874628067017 0.0007573077455163002 -0.0004345811903476715 0.0 0.0 0.0 0.0
2.754 -0.27874696254730225 0.5013414025306702 0.0007749935612082481 -0.0006018923595547676 0.0 0.0 0.0 0.0
2.755 -0.2747821807861328 0.5051468014717102 0.0007326509803533554 -0.00025682151317596436 0.0 0.0 0.0 0.0
2.756 -0.26449325680732727 0.5148060917854309 0.0006545418873429298 -0.0001200307160615921 0.0 0.0 0.0 0.0
2.757 -0.254244863986969 0.529459536075592 0.0005132043734192848 -0.00033679232001304626 0.0 0.0 0.0 0.0
2.758 -0.24343374371528625 0.5386519432067871 0.0006108051165938377 -0.0005221208557486534 0.0 0.0 0.0 0.0
2.759 -0.236587256193161 0.547636866569519 0.0006361594423651695 -0.0005576033145189285 0.0 0.0 0.0 0.0
2.76 -0.2213519811630249 0.5588653087615967 0.0009550293907523155 -0.0005583222955465317 0.0 0.0 0.0 0.0
2.761 -0.22276678681373596 0.5609713196754456 0.0006228825077414513 -0.0005673198029398918 0.0 0.0 0.0 0.0
2.762 -0.19795548915863037 0.5771673917770386 0.0008591655641794205 -0.0005827043205499649 0.0 0.0 0.0 0.0
2.763 -0.2109157294034958 0.5755177140235901 0.0006548156961798668 -0.0003574369475245476 0.0 0.0 0.0 0.0
2.764 -0.17540691792964935 0.5943459868431091 0.0007928758859634399 -0.0006779488176107407 0.0 0.0 0.0 0.0
2.765 -0.1689274162054062 0.5998743772506714 0.00023382343351840973 -0.0007124701514840126 0.0 0.0 0.0 0.0
2.766 -0.17825698852539062 0.6054840087890625 0.0006516827270388603 -0.0007600151002407074 0.0 0.0 0.0 0.0
2.767 -0.14912214875221252 0.6122099757194519 0.0006168987601995468 -0.0004455484449863434 0.0 0.0 0.0 0.0
2.768 -0.1315692812204361 0.6198300123214722 0.000504649244248867 -0.0008265580981969833 0.0 0.0 0.0 0.0
2.769 -0.12235228717327118 0.6261120438575745 0.0004890412092208862 -0.0004222206771373749 0.0 0.0 0.0 0.0
2.77 -0.11114849895238876 0.6248334646224976 0.000401071272790432 -0.0007883273065090179 0.0 0.0 0.0 0.0
2.771 -0.08263339847326279 0.6414082646369934 0.00048295315355062485 -0.0005743522197008133 0.0 0.0 0.0 0.0
2.772 -0.07466022670269012 0.6469847559928894 0.00034871138632297516 -0.0006131511181592941 0.0 0.0 0.0 0.0
2.773 -0.06893498450517654 0.6478807926177979 0.0003103939816355705 -0.0008315825834870338 0.0 0.0 0.0 0.0
2.774 -0.06087572127580643 0.6491358876228333 0.00024828407913446426 -0.0006708679720759392 0.0 0.0 0.0 0.0
2.775 -0.05466439574956894 0.6565080285072327 0.00018092244863510132 -0.0009659156203269958 0.0 0.0 0.0 0.0
2.776 -0.029886644333600998 0.6583869457244873 0.00024561677128076553 -0.0006459550932049751 0.0 0.0 0.0 0.0
2.777 -0.016422338783740997 0.6607503294944763 0.00029174238443374634 -0.0010469192638993263 0.0 0.0 0.0 0.0
2.778 -0.011746377684175968 0.6637493968009949 0.00028149131685495377 -0.0006646672263741493 0.0 0.0 0.0 0.0
2.779 0.010934754274785519 0.6693844795227051 9.680166840553284e-05 -0.0004223771393299103 0.0 0.0 0.0 0.0
2.78 0.029516831040382385 0.6620537638664246 0.0002976078540086746 -0.0007425518706440926 0.0 0.0 0.0 0.0
2.781 0.04196084663271904 0.6685431599617004 0.00016205478459596634 -0.0004578670486807823 0.0 0.0 0.0 0.0
2.782 0.05482681468129158 0.6796775460243225 0.00035312213003635406 -0.0008115051314234734 0.0 0.0 0.0 0.0
2.783 0.06404496729373932 0.6710154414176941 -9.201187640428543e-05 -0.0007673082873225212 0.0 0.0 0.0 0.0
2.784 0.09541814029216766 0.6632431149482727 0.00020332634449005127 -0.0005211979150772095 0.0 0.0 0.0 0.0
2.785 0.09525781869888306 0.676287829875946 0.00014366302639245987 -0.0007886001840233803 0.0 0.0 0.0 0.0
2.786 0.11179600656032562 0.6718782782554626 -0.00019055698066949844 -0.0008909357711672783 0.0 0.0 0.0 0.0
2.787 0.1382831186056137 0.665652871131897 1.8232502043247223e-05 -0.0006876848638057709 0.0 0.0 0.0 0.0
2.788 0.13247255980968475 0.6746593713760376 -0.0003338651731610298 -0.0005638012662529945 0.0 0.0 0.0 0.0
2.789 0.15474972128868103 0.6611038446426392 2.8905458748340607e-05 -0.0006220526993274689 0.0 0.0 0.0 0.0
2.79 0.17956417798995972 0.6613987684249878 -1.0584481060504913e-05 -0.0008642636239528656 0.0 0.0 0.0 0.0
2.791 0.17891067266464233 0.6557572484016418 -3.6658719182014465e-05 -0.0006403252482414246 0.0 0.0 0.0 0.0
2.792 0.1783679723739624 0.6601932048797607 -0.00010313652455806732 -0.0005632303655147552 0.0 0.0 0.0 0.0
2.793 0.21041715145111084 0.6551233530044556 -0.00014617666602134705 -0.0005044229328632355 0.0 0.0 0.0 0.0
2.794 0.21066796779632568 0.6550421714782715 -0.00011071935296058655 -0.0008911257609724998 0.0 0.0 0.0 0.0
2.795 0.2308952808380127 0.6525326371192932 -0.0005055572837591171 -0.0005840137600898743 0.0 0.0 0.0 0.0
2.796 0.20795823633670807 0.6573988199234009 -6.9446861743927e-05 -0.0006850492209196091 0.0 0.0 0.0 0.0
2.797 0.2546258270740509 0.6400753855705261 -0.0004834253340959549 -0.0006442228332161903 0.0 0.0 0.0 0.0
2.798 0.25312551856040955 0.6383224129676819 -0.0003137439489364624 -0.0006677834317088127 0.0 0.0 0.0 0.0
2.799 0.29220691323280334 0.6252456903457642 -0.0004767272621393204 -0.0005007702857255936 0.0 0.0 0.0 0.0
2.8 0.2937256991863251 0.6279954314231873 -0.00033420976251363754 -0.0007364219054579735 0.0 0.0 0.0 0.0
2.801 0.30665361881256104 0.6164073944091797 -0.00021580420434474945 -0.0004854416474699974 0.0 0.0 0.0 0.0
2.802 0.33162927627563477 0.6026317477226257 -0.00031397491693496704 -0.0007177488878369331 0.0 0.0 0.0 0.0
2.803 0.31985408067703247 0.6087985038757324 -0.00030270498245954514 -0.0008992571383714676 0.0 0.0 0.0 0.0
2.804 0.34003883600234985 0.5974569320678711 -0.0005004489794373512 -0.0008288072422146797 0.0 0.0 0.0 0.0
2.805 0.3415202796459198 0.5961458683013916 -0.0007156431674957275 -0.0007362021133303642 0.0 0.0 0.0 0.0
2.806 0.36902785301208496 0.5803602337837219 -0.0006360830739140511 -0.0007568569853901863 0.0 0.0 0.0 0.0
2.807 0.3721791207790375 0.5796948671340942 -0.0006674136966466904 -0.0004941411316394806 0.0 0.0 0.0 0.0
2.808 0.391580194234848 0.5694034695625305 -0.0004511075094342232 -0.0004976475611329079 0.0 0.0 0.0 0.0
2.809 0.3963233530521393 0.5620841383934021 -0.0007538888603448868 -0.0005796812474727631 0.0 0.0 0.0 0.0
2.81 0.4089221656322479 0.5506673455238342 -0.0010471846908330917 -0.00029301736503839493 0.0 0.0 0.0 0.0
2.811 0.41849958896636963 0.5447477102279663 -0.0006379438564181328 -0.0004493454471230507 0.0 0.0 0.0 0.0
2.812 0.4356594979763031 0.5242235064506531 -0.0003908509388566017 -0.0009317994117736816 0.0 0.0 0.0 0.0
2.813 0.4422585666179657 0.5175690650939941 -0.0008018948137760162 -0.00042095035314559937 0.0 0.0 0.0 0.0
2.814 0.47022855281829834 0.49121516942977905 -0.0010007815435528755 -0.00038531888276338577 0.0 0.0 0.0 0.0
2.815 0.46455079317092896 0.487111359834671 -0.0010255342349410057 -0.00022430438548326492 0.0 0.0 0.0 0.0
2.816 0.4727223813533783 0.48072677850723267 -0.0007265927270054817 -0.0002537248656153679 0.0 0.0 0.0 0.0
2.817 0.4877398610115051 0.4660687744617462 -0.0006947312504053116 -0.0005421992391347885 0.0 0.0 0.0 0.0
2.818 0.49373921751976013 0.4599819779396057 -0.0010397657752037048 -0.0002772947773337364 0.0 0.0 0.0 0.0
2.819 0.5065668821334839 0.4379034638404846 -0.0010810280218720436 2.351868897676468e-05 0.0 0.0 0.0 0.0
2.82 0.4999319612979889 0.441474050283432 -0.0008361749351024628 -4.2426399886608124e-05 0.0 0.0 0.0 0.0
2.821 0.5216254591941833 0.4074043333530426 -0.0011032745242118835 0.00021381117403507233 0.0 0.0 0.0 0.0
2.822 0.5257071852684021 0.4030957520008087 -0.0007913317531347275 2.780463546514511e-05 0.0 0.0 0.0 0.0
2.823 0.5389337539672852 0.3777073621749878 -0.0008945288136601448 0.00023947656154632568 0.0 0.0 0.0 0.0
2.824 0.5420222878456116 0.3679095506668091 -0.0008168229833245277 6.9979578256607056e-06 0.0 0.0 0.0 0.0
2.825 0.5492614507675171 0.3505478799343109 -0.0008882731199264526 0.0005771992728114128 0.0 0.0 0.0 0.0
2.826 0.5476356744766235 0.3415127992630005 -0.0008031660690903664 7.48680904507637e-05 0.0 0.0 0.0 0.0
2.827 0.5610136985778809 0.321249783039093 -0.0008073970675468445 0.0005437387153506279 0.0 0.0 0.0 0.0
2.828 0.5643024444580078 0.3020411431789398 -0.0006528617814183235 0.00023769401013851166 0.0 0.0 0.0 0.0
2.829 0.5744801759719849 0.281806617975235 -0.0005227280780673027 0.0005469489842653275 0.0 0.0 0.0 0.0
2.83 0.5699838399887085 0.2674585282802582 -0.0008971728384494781 0.00027747172862291336 0.0 0.0 0.0 0.0
2.831 0.576261043548584 0.2539553642272949 -0.0005176002159714699 0.00032450631260871887 0.0 0.0 0.0 0.0
2.832 0.5770044922828674 0.23530258238315582 -0.0007696384564042091 7.881596684455872e-05 0.0 0.0 0.0 0.0
2.833 0.5772814750671387 0.2208949625492096 -0.0008493568748235703 0.00028075650334358215 0.0 0.0 0.0 0.0
2.834 0.5858098864555359 0.18826542794704437 -0.0005775904282927513 0.00027153361588716507 0.0 0.0 0.0 0.0
2.835 0.5843143463134766 0.1674080640077591 -0.0007247859612107277 0.00027440302073955536 0.0 0.0 0.0 0.0
2.836 0.5849716663360596 0.15054553747177124 -0.0004674028605222702 0.00028625596314668655 0.0 0.0 0.0 0.0
2.837 0.5793839693069458 0.13435301184654236 -0.0006229644641280174 0.00041572004556655884 0.0 0.0 0.0 0.0
2.838 0.5797361731529236 0.13027504086494446 -0.0005377251654863358 0.000922156497836113 0.0 0.0 0.0 0.0
2.839 0.5742895603179932 0.09935964643955231 -0.0007186774164438248 0.0006335806101560593 0.0 0.0 0.0 0.0
2.84 0.5734515190124512 0.07515609264373779 -0.0005748672410845757 0.00028250738978385925 0.0 0.0 0.0 0.0
2.841 0.5680837035179138 0.0702490285038948 -0.0005747377872467041 0.0008105402812361717 0.0 0.0 0.0 0.0
2.842 0.567579984664917 0.04058253392577171 -0.00034682638943195343 0.0005966667085886002 0.0 0.0 0.0 0.0
2.843 0.5587891936302185 0.017868895083665848 -0.0005010012537240982 0.0009537013247609138 0.0 0.0 0.0 0.0
2.844 0.5569572448730469 0.01734190061688423 -0.0004309630021452904 0.0006359759718179703 0.0 0.0 0.0 0.0
2.845 0.5516435503959656 -0.016918757930397987 -0.0002315780147910118 0.0007756706327199936 0.0 0.0 0.0 0.0
2.846 0.5399112701416016 -0.03669687360525131 -0.0001772688701748848 0.0007279496639966965 0.0 0.0 0.0 0.0
2.847 0.5368520617485046 -0.05143870413303375 -8.634943515062332e-05 0.0010842299088835716 0.0 0.0 0.0 0.0
2.848 0.5195629000663757 -0.0750618726015091 -0.0004390580579638481 0.00073971226811409 0.0 0.0 0.0 0.0
2.849 0.5080708265304565 -0.09883250296115875 -0.0006827414035797119 0.0006975764408707619 0.0 0.0 0.0 0.0
2.85 0.4993315637111664 -0.12055270373821259 -0.0003121485933661461 0.0007156906649470329 0.0 0.0 0.0 0.0
2.851 0.48908910155296326 -0.12482443451881409 -0.0005520675331354141 0.00057984609156847 0.0 0.0 0.0 0.0
2.852 0.47616249322891235 -0.15210187435150146 5.755573511123657e-06 0.00075494684278965 0.0 0.0 0.0 0.0
2.853 0.4623096287250519 -0.1713365614414215 -0.00028458889573812485 0.0005157114937901497 0.0 0.0 0.0 0.0
2.854 0.4456326365470886 -0.18587422370910645 -0.00016492698341608047 0.000595548190176487 0.0 0.0 0.0 0.0
2.855 0.4369681775569916 -0.19044646620750427 -0.00030278321355581284 0.0009259786456823349 0.0 0.0 0.0 0.0
2.856 0.4159768521785736 -0.21913528442382812 0.0002239057794213295 0.0009024357423186302 0.0 0.0 0.0 0.0
2.857 0.3996909260749817 -0.23138907551765442 0.00010132137686014175 0.0009385934099555016 0.0 0.0 0.0 0.0
2.858 0.378009557723999 -0.24947895109653473 -0.0003272742033004761 0.0012581245973706245 0.0 0.0 0.0 0.0
2.859 0.36276617646217346 -0.2600068151950836 -0.0001849411055445671 0.001012519933283329 0.0 0.0 0.0 0.0
2.86 0.34635457396507263 -0.27189770340919495 4.622992128133774e-05 0.0011546406894922256 0.0 0.0 0.0 0.0
2.861 0.32585886120796204 -0.28213179111480713 0.0001810118556022644 0.001086108386516571 0.0 0.0 0.0 0.0
2.862 0.3086766004562378 -0.2891518473625183 0.0001623649150133133 0.0005548093467950821 0.0 0.0 0.0 0.0
2.863 0.28822237253189087 -0.30128735303878784 0.00020829401910305023 0.0011412156745791435 0.0 0.0 0.0 0.0
2.864 0.26656341552734375 -0.3159222900867462 0.0005751829594373703 0.0011425754055380821 0.0 0.0 0.0 0.0
2.865 0.2421024739742279 -0.32601460814476013 0.0003134021535515785 0.001100354827940464 0.0 0.0 0.0 0.0
2.866 0.22478210926055908 -0.33040687441825867 0.00032702740281820297 0.0006139874458312988 0.0 0.0 0.0 0.0
2.867 0.19391916692256927 -0.3398551046848297 0.00016735214740037918 0.0010859007015824318 0.0 0.0 0.0 0.0
2.868 0.18567034602165222 -0.3393981158733368 7.478427141904831e-05 0.0010648071765899658 0.0 0.0 0.0 0.0
2.869 0.14746470749378204 -0.35149288177490234 0.00048566143959760666 0.0006738128140568733 0.0 0.0 0.0 0.0
2.87 0.12939651310443878 -0.3534293472766876 0.0005527343600988388 0.0009276783093810081 0.0 0.0 0.0 0.0
2.871 0.10901600122451782 -0.35739758610725403 0.0007944721728563309 0.0010328609496355057 0.0 0.0 0.0 0.0
2.872 0.08209358155727386 -0.3584462106227875 0.0005512088537216187 0.0008348533883690834 0.0 0.0 0.0 0.0
2.873 0.05830269306898117 -0.3613268733024597 0.0009620562195777893 0.0009715370833873749 0.0 0.0 0.0 0.0
2.874 0.04083215817809105 -0.36039602756500244 0.0006631733849644661 0.0006620464846491814 0.0 0.0 0.0 0.0
2.875 0.004411144182085991 -0.3581230938434601 0.0005981186404824257 0.00037430599331855774 0.0 0.0 0.0 0.0
2.876 -0.01642887108027935 -0.3571300506591797 0.0007762527093291283 0.000586923211812973 0.0 0.0 0.0 0.0
2.877 -0.032285425812006 -0.35350215435028076 0.0011715590953826904 0.0007327115163207054 0.0 0.0 0.0 0.0
2.878 -0.06269891560077667 -0.3457271158695221 0.0008451659232378006 0.0008814278990030289 0.0 0.0 0.0 0.0
2.879 -0.06939074397087097 -0.3456127345561981 0.0007115304470062256 0.0006253886967897415 0.0 0.0 0.0 0.0
2.88 -0.10549082607030869 -0.33591166138648987 0.0007982980459928513 0.000783529132604599 0.0 0.0 0.0 0.0
2.881 -0.1202540248632431 -0.33337363600730896 0.000756237655878067 0.0006297500804066658 0.0 0.0 0.0 0.0
2.882 -0.15449266135692596 -0.31849604845046997 0.0007937261834740639 0.0002732090651988983 0.0 0.0 0.0 0.0
2.883 -0.17712485790252686 -0.309476375579834 0.0009765578433871269 0.0004456872120499611 0.0 0.0 0.0 0.0
2.884 -0.19394998252391815 -0.3058724105358124 0.0014516208320856094 0.0002893880009651184 0.0 0.0 0.0 0.0
2.885 -0.20933623611927032 -0.29587364196777344 0.0008130641654133797 0.0002756798639893532 0.0 0.0 0.0 0.0
2.886 -0.2232128530740738 -0.28756555914878845 0.0005569783970713615 0.0003842506557703018 0.0 0.0 0.0 0.0
2.887 -0.25269314646720886 -0.2674667239189148 0.0011288225650787354 0.00041161663830280304 0.0 0.0 0.0 0.0
2.888 -0.27057844400405884 -0.25553297996520996 0.0011549750342965126 -4.0514394640922546e-05 0.0 0.0 0.0 0.0
2.889 -0.29238763451576233 -0.24331456422805786 0.001097302883863449 0.00013431906700134277 0.0 0.0 0.0 0.0
2.89 -0.31027495861053467 -0.2267807424068451 0.00111394003033638 0.00018661655485630035 0.0 0.0 0.0 0.0
2.891 -0.3238687813282013 -0.21798481047153473 0.001248539425432682 -7.591210305690765e-06 0.0 0.0 0.0 0.0
2.892 -0.3417356610298157 -0.18858855962753296 0.0009578252211213112 0.0001205597072839737 0.0 0.0 0.0 0.0
2.893 -0.3575185239315033 -0.1781199872493744 0.000775601714849472 -9.678956121206284e-05 0.0 0.0 0.0 0.0
2.894 -0.36768630146980286 -0.16738362610340118 0.0010038996115326881 0.00014569144695997238 0.0 0.0 0.0 0.0
2.895 -0.38195428252220154 -0.15408314764499664 0.0013421270996332169 -0.00027744658291339874 0.0 0.0 0.0 0.0
2.896 -0.3964618742465973 -0.13316790759563446 0.0008868174627423286 -0.00017073657363653183 0.0 0.0 0.0 0.0
2.897 -0.4070543050765991 -0.11594218015670776 0.0010099755600094795 -0.0008181510493159294 0.0 0.0 0.0 0.0
2.898 -0.42113345861434937 -0.08402536064386368 0.0007450543344020844 -0.00021407939493656158 0.0 0.0 0.0 0.0
2.899 -0.43100813031196594 -0.07777387648820877 0.0007938724011182785 -0.00043700356036424637 0.0 0.0 0.0 0.0
2.9 -0.43730199337005615 -0.05685902014374733 0.0008940305560827255 -9.99700278043747e-05 0.0 0.0 0.0 0.0
2.901 -0.44694188237190247 -0.05020616203546524 0.0011600321158766747 -0.0002557402476668358 0.0 0.0 0.0 0.0
2.902 -0.45741888880729675 -0.02252817712724209 0.0009722523391246796 -0.0002531111240386963 0.0 0.0 0.0 0.0
2.903 -0.4657576084136963 -0.006406622938811779 0.0007976479828357697 -0.0005493722856044769 0.0 0.0 0.0 0.0
2.904 -0.47310739755630493 0.017787138000130653 0.0008871778845787048 -0.0005795918405056 0.0 0.0 0.0 0.0
2.905 -0.47616124153137207 0.029116442427039146 0.000731736421585083 -0.00022307410836219788 0.0 0.0 0.0 0.0
2.906 -0.4812425374984741 0.058519069105386734 0.0005338853225111961 -0.0008825743570923805 0.0 0.0 0.0 0.0
2.907 -0.48831313848495483 0.06320934742689133 0.0007092310115695 -0.0005896519869565964 0.0 0.0 0.0 0.0
2.908 -0.4908452033996582 0.09376069158315659 0.0003056032583117485 -0.0005029747262597084 0.0 0.0 0.0 0.0
2.909 -0.4922533929347992 0.1116606742143631 0.0007999194785952568 -0.0003925235942006111 0.0 0.0 0.0 0.0
2.91 -0.49217090010643005 0.1356450617313385 0.0006229644641280174 -3.4183263778686523e-05 0.0 0.0 0.0 0.0
2.911 -0.49351373314857483 0.1586446464061737 0.000407208688557148 -0.0005193697288632393 0.0 0.0 0.0 0.0
2.912 -0.49852660298347473 0.16498395800590515 0.00071769580245018 -0.0004461640492081642 0.0 0.0 0.0 0.0
2.913 -0.5018518567085266 0.17907167971134186 0.0006029857322573662 -0.0007154503837227821 0.0 0.0 0.0 0.0
2.914 -0.5038954615592957 0.20432564616203308 0.0007356787100434303 -0.0005362136289477348 0.0 0.0 0.0 0.0
2.915 -0.4939638376235962 0.2345261424779892 0.00024384073913097382 -0.0003559049218893051 0.0 0.0 0.0 0.0
2.916 -0.49562329053878784 0.2524561882019043 0.0006361547857522964 -0.0007733134552836418 0.0 0.0 0.0 0.0
2.917 -0.4899033010005951 0.2675778269767761 0.00037160608917474747 -0.0006368504837155342 0.0 0.0 0.0 0.0
2.918 -0.49114489555358887 0.27822890877723694 0.0003414507955312729 -0.0006014378741383553 0.0 0.0 0.0 0.0
2.919 -0.4820432662963867 0.3095151484012604 0.0005780821666121483 -0.0008845347911119461 0.0 0.0 0.0 0.0
2.92 -0.48909857869148254 0.3078991174697876 0.0005461825057864189 -0.0006671184673905373 0.0 0.0 0.0 0.0
2.921 -0.48071902990341187 0.3377073407173157 0.00030188169330358505 -0.0011027147993445396 0.0 0.0 0.0 0.0
2.922 -0.4750250279903412 0.34828007221221924 0.00031549111008644104 -0.00042017363011837006 0.0 0.0 0.0 0.0
2.923 -0.475411593914032 0.3652327060699463 0.00014636386185884476 -0.0009138761088252068 0.0 0.0 0.0 0.0
2.924 -0.46302640438079834 0.3811167776584625 0.00023985374718904495 -0.00046306196600198746 0.0 0.0 0.0 0.0
2.925 -0.4718737006187439 0.3830186426639557 0.00047153979539871216 -0.000765346921980381 0.0 0.0 0.0 0.0
2.926 -0.44508829712867737 0.4259099066257477 -6.360933184623718e-07 -0.00041643157601356506 0.0 0.0 0.0 0.0
2.927 -0.4428454637527466 0.4288426637649536 0.00021740049123764038 -0.0005515506491065025 0.0 0.0 0.0 0.0
2.928 -0.4379004240036011 0.44550880789756775 0.0002628294751048088 -0.00023984815925359726 0.0 0.0 0.0 0.0
2.929 -0.43046835064888 0.45783546566963196 0.00010982993990182877 -0.0008066883310675621 0.0 0.0 0.0 0.0
2.93 -0.4212680459022522 0.4759678244590759 -0.0003553498536348343 -0.0008085388690233231 0.0 0.0 0.0 0.0
2.931 -0.41693419218063354 0.48871031403541565 2.549588680267334e-05 -0.0009261276572942734 0.0 0.0 0.0 0.0
2.932 -0.3983388841152191 0.5065696835517883 -0.00020760763436555862 -0.0006083361804485321 0.0 0.0 0.0 0.0
2.933 -0.3931727707386017 0.5153433084487915 0.00011088419705629349 -0.0008408604189753532 0.0 0.0 0.0 0.0
2.934 -0.3643642067909241 0.5404590964317322 0.00011040549725294113 -0.00042669661343097687 0.0 0.0 0.0 0.0
2.935 -0.37146100401878357 0.5464365482330322 -1.1640600860118866e-05 -0.0008120564743876457 0.0 0.0 0.0 0.0
2.936 -0.36738112568855286 0.5536912083625793 0.00014684349298477173 -0.0008569052442908287 0.0 0.0 0.0 0.0
2.937 -0.34084466099739075 0.5730987787246704 -4.925485700368881e-05 -0.0004788832738995552 0.0 0.0 0.0 0.0
2.938 -0.3398480713367462 0.57851642370224 -0.00022605713456869125 -0.0007797302678227425 0.0 0.0 0.0 0.0
2.939 -0.3251398503780365 0.5933490991592407 3.0163675546646118e-05 -0.0005180612206459045 0.0 0.0 0.0 0.0
2.94 -0.32807448506355286 0.5920913219451904 -0.00027350615710020065 -0.0005434779450297356 0.0 0.0 0.0 0.0
2.941 -0.30381011962890625 0.6137856245040894 0.00019267573952674866 -0.0007476070895791054 0.0 0.0 0.0 0.0
2.942 -0.2916369140148163 0.618177056312561 -0.00012092757970094681 -0.0005306275561451912 0.0 0.0 0.0 0.0
2.943 -0.26429346203804016 0.6354073286056519 -0.00039177387952804565 -0.00011368095874786377 0.0 0.0 0.0 0.0
2.944 -0.2624245285987854 0.6377110481262207 -0.0005746521055698395 -0.0007099350914359093 0.0 0.0 0.0 0.0
2.945 -0.2522382438182831 0.6496587991714478 -0.0003061918541789055 -0.0009404253214597702 0.0 0.0 0.0 0.0
2.946 -0.25121426582336426 0.6521497368812561 -9.056553244590759e-05 -0.000763503834605217 0.0 0.0 0.0 0.0
2.947 -0.22761274874210358 0.6647551655769348 -9.385403245687485e-05 -0.00037235021591186523 0.0 0.0 0.0 0.0
2.948 -0.20683035254478455 0.6716723442077637 -0.000384272076189518 -0.00023511797189712524 0.0 0.0 0.0 0.0
2.949 -0.21069572865962982 0.6741558909416199 -0.0005007125437259674 -0.00014811288565397263 0.0 0.0 0.0 0.0
2.95 -0.1785663515329361 0.6893442273139954 -0.0002709142863750458 -0.0002962779253721237 0.0 0.0 0.0 0.0
2.951 -0.17226897180080414 0.6929052472114563 -0.0005853259935975075 -0.0006301691755652428 0.0 0.0 0.0 0.0
2.952 -0.1592254489660263 0.6953168511390686 -0.0004700012505054474 -0.0004966789856553078 0.0 0.0 0.0 0.0
2.953 -0.1477378010749817 0.7051631212234497 -0.00042613502591848373 -0.00036827661097049713 0.0 0.0 0.0 0.0
2.954 -0.12747158110141754 0.7087857127189636 -0.0003127269446849823 -0.00012314319610595703 0.0 0.0 0.0 0.0
2.955 -0.12769341468811035 0.7117671966552734 -0.0003607887774705887 -0.0004721693694591522 0.0 0.0 0.0 0.0
2.956 -0.09685482084751129 0.7180610299110413 -0.00023296847939491272 -0.00037164241075515747 0.0 0.0 0.0 0.0
2.957 -0.0794752761721611 0.7217317819595337 -0.0006996989250183105 -0.00033561326563358307 0.0 0.0 0.0 0.0
2.958 -0.08107560873031616 0.7251142859458923 -0.00027522072196006775 -1.8728896975517273e-05 0.0 0.0 0.0 0.0
2.959 -0.04723360016942024 0.7262421250343323 -0.0003414461389183998 -0.00029361527413129807 0.0 0.0 0.0 0.0
2.96 -0.03821824863553047 0.7303645014762878 -0.0004031555727124214 -7.721595466136932e-06 0.0 0.0 0.0 0.0
2.961 -0.012041648849844933 0.7334152460098267 -0.000805162824690342 -0.00012312829494476318 0.0 0.0 0.0 0.0
2.962 -0.011855374090373516 0.7314963340759277 -0.0007469560950994492 0.00024973880499601364 0.0 0.0 0.0 0.0
2.963 0.008760427124798298 0.732848048210144 -0.0007726773619651794 -8.096545934677124e-05 0.0 0.0 0.0 0.0
2.964 0.035479478538036346 0.7375414967536926 -0.00047932565212249756 -0.00016223173588514328 0.0 0.0 0.0 0.0
2.965 0.0382956936955452 0.7392865419387817 -0.000317172147333622 -0.0002708015963435173 0.0 0.0 0.0 0.0
2.966 0.04669594392180443 0.7361823916435242 -0.0007911892607808113 -4.1085295379161835e-05 0.0 0.0 0.0 0.0
2.967 0.08476724475622177 0.7356595396995544 -0.0003237910568714142 -0.00016714446246623993 0.0 0.0 0.0 0.0
2.968 0.07623913139104843 0.7364779114723206 -0.0006963266059756279 -1.7258338630199432e-05 0.0 0.0 0.0 0.0
2.969 0.09844134002923965 0.7351417541503906 -0.0005314601585268974 -0.00051889568567276 0.0 0.0 0.0 0.0
2.97 0.11578796058893204 0.7314214110374451 -0.0006925947964191437 0.0003212718293070793 0.0 0.0 0.0 0.0
2.971 0.12649624049663544 0.7302671670913696 -0.000911160372197628 5.776993930339813e-06 0.0 0.0 0.0 0.0
2.972 0.14664486050605774 0.7269877791404724 -0.0007847379893064499 0.00014943908900022507 0.0 0.0 0.0 0.0
2.973 0.14111050963401794 0.7274167537689209 -0.0006906678900122643 0.00011021643877029419 0.0 0.0 0.0 0.0
2.974 0.17706537246704102 0.7252238392829895 -0.0005224002525210381 -0.00019010528922080994 0.0 0.0 0.0 0.0
2.975 0.1747889667749405 0.7222488522529602 -0.0006416216492652893 0.00034556910395622253 0.0 0.0 0.0 0.0
2.976 0.20705069601535797 0.7127910256385803 -0.0008571082726120949 4.175305366516113e-05 0.0 0.0 0.0 0.0
2.977 0.21023567020893097 0.7089539170265198 -0.00036711152642965317 -9.768642485141754e-06 0.0 0.0 0.0 0.0
2.978 0.2294335812330246 0.7100746631622314 -0.0011884160339832306 0.0004010796546936035 0.0 0.0 0.0 0.0
2.979 0.2533203065395355 0.6955475211143494 -0.0006567994132637978 0.0002148924395442009 0.0 0.0 0.0 0.0
2.98 0.25514620542526245 0.698377788066864 -0.000767117366194725 0.0007198862731456757 0.0 0.0 0.0 0.0
2.981 0.2734183669090271 0.6858322620391846 -0.0005184924229979515 0.0005277758464217186 0.0 0.0 0.0 0.0
2.982 0.30418503284454346 0.6720598340034485 -0.000717896968126297 0.0006897803395986557 0.0 0.0 0.0 0.0
2.983 0.3078478276729584 0.6725627779960632 -0.0006672386080026627 0.0005956385284662247 0.0 0.0 0.0 0.0
2.984 0.3059031069278717 0.6706784963607788 -0.000521589070558548 0.0008010994642972946 0.0 0.0 0.0 0.0
2.985 0.3202046751976013 0.662860095500946 -0.0007583443075418472 0.00045651476830244064 0.0 0.0 0.0 0.0
2.986 0.3471446633338928 0.6465433835983276 -0.0005394108593463898 0.0003600632771849632 0.0 0.0 0.0 0.0
2.987 0.3600047826766968 0.6388307213783264 -0.0006861705332994461 0.00039617810398340225 0.0 0.0 0.0 0.0
2.988 0.34914636611938477 0.6412465572357178 -0.0005963332951068878 0.0006653154268860817 0.0 0.0 0.0 0.0
2.989 0.3905867636203766 0.6170734763145447 -0.0001543993130326271 0.00046963151544332504 0.0 0.0 0.0 0.0
2.99 0.39289093017578125 0.6138155460357666 -0.0006294548511505127 0.0008646063506603241 0.0 0.0 0.0 0.0
2.991 0.39609628915786743 0.6112805604934692 -0.00042437203228473663 0.0010051308199763298 0.0 0.0 0.0 0.0
2.992 0.42006465792655945 0.5910146236419678 -0.0003520287573337555 0.0006847456097602844 0.0 0.0 0.0 0.0
2.993 0.4371955096721649 0.5789005160331726 -0.000538867898285389 0.0007385453209280968 0.0 0.0 0.0 0.0
2.994 0.4611956775188446 0.5528948307037354 -0.00034255441278219223 0.0005590952932834625 0.0 0.0 0.0 0.0
2.995 0.45639723539352417 0.5605338215827942 7.37486407160759e-05 0.000863182358443737 0.0 0.0 0.0 0.0
2.996 0.46958187222480774 0.5424554944038391 -0.00023093074560165405 0.0006944006308913231 0.0 0.0 0.0 0.0
2.997 0.4669816493988037 0.5388840436935425 -0.00010791141539812088 0.000820498913526535 0.0 0.0 0.0 0.0
2.998 0.49333056807518005 0.5123364925384521 -9.185634553432465e-05 0.0007415534928441048 0.0 0.0 0.0 0.0
2.999 0.49523112177848816 0.5043457746505737 -0.00024084560573101044 0.0009571369737386703 0.0 0.0 0.0 0.0
3.0 0.5107343196868896 0.48924827575683594 0.0001696581020951271 0.0012505780905485153 0.0 0.0 0.0 0.0
3.001 0.5259021520614624 0.46499451994895935 0.0005069002509117126 0.0009991563856601715 0.0 0.0 0.0 0.0
3.002 0.5359163880348206 0.4526868164539337 6.786268204450607e-05 0.0012021614238619804 0.0 0.0 0.0 0.0
3.003 0.5423768758773804 0.4428321421146393 -6.946083158254623e-05 0.0008399169892072678 0.0 0.0 0.0 0.0
3.004 0.5496937036514282 0.4205532670021057 0.0002388209104537964 0.0007211612537503242 0.0 0.0 0.0 0.0
3.005 0.5594146251678467 0.4052857458591461 -9.136088192462921e-05 0.0010542972013354301 0.0 0.0 0.0 0.0
3.006 0.5633807182312012 0.3814893364906311 0.000626932829618454 0.0010474901646375656 0.0 0.0 0.0 0.0
3.007 0.5692955851554871 0.375515878200531 0.0005261916667222977 0.0007948139682412148 0.0 0.0 0.0 0.0
3.008 0.5801810622215271 0.34693145751953125 0.00039193592965602875 0.0007793344557285309 0.0 0.0 0.0 0.0
3.009 0.587200403213501 0.328887015581131 0.0007893098518252373 0.0008076829835772514 0.0 0.0 0.0 0.0
3.01 0.5912903547286987 0.3118894398212433 0.0004804786294698715 0.0007784571498632431 0.0 0.0 0.0 0.0
3.011 0.5882964134216309 0.3087337911128998 0.0005769301205873489 0.0010433271527290344 0.0 0.0 0.0 0.0
3.012 0.5919848084449768 0.28662434220314026 0.0009205276146531105 0.0006992397829890251 0.0 0.0 0.0 0.0
3.013 0.5976335406303406 0.26735177636146545 0.0007612071931362152 0.0009712707251310349 0.0 0.0 0.0 0.0
3.014 0.6046212315559387 0.24195726215839386 0.0011004908010363579 0.0010681850835680962 0.0 0.0 0.0 0.0
3.015 0.6047254204750061 0.21336756646633148 0.0009811678901314735 0.0007173065096139908 0.0 0.0 0.0 0.0
3.016 0.6019909381866455 0.20963996648788452 0.0006240075454115868 0.0006271060556173325 0.0 0.0 0.0 0.0
3.017 0.5984876155853271 0.1900346577167511 0.0010050507262349129 0.00039641745388507843 0.0 0.0 0.0 0.0
3.018 0.6028149724006653 0.1684563159942627 0.0010202908888459206 0.0008797803893685341 0.0 0.0 0.0 0.0
3.019 0.5997453927993774 0.15048272907733917 0.0008824151009321213 0.0006625531241297722 0.0 0.0 0.0 0.0
3.02 0.598633348941803 0.12513305246829987 0.0009851260110735893 0.0004538055509328842 0.0 0.0 0.0 0.0
3.021 0.5970580577850342 0.11544996500015259 0.001218077726662159 0.0002588871866464615 0.0 0.0 0.0 0.0
3.022 0.5958317518234253 0.08671297132968903 0.0013186931610107422 0.00024244561791419983 0.0 0.0 0.0 0.0
3.023 0.5904093980789185 0.0733545646071434 0.001003587618470192 0.0004151146858930588 0.0 0.0 0.0 0.0
3.024 0.5891085267066956 0.045883502811193466 0.0010723648592829704 0.00010664667934179306 0.0 0.0 0.0 0.0
3.025 0.5823190808296204 0.03233010694384575 0.001365399919450283 0.00024550408124923706 0.0 0.0 0.0 0.0
3.026 0.576657772064209 0.0064913248643279076 0.0008234642446041107 0.00031566154211759567 0.0 0.0 0.0 0.0
3.027 0.5656593441963196 -0.012764215469360352 0.0010863272473216057 -3.360956907272339e-05 0.0 0.0 0.0 0.0
3.028 0.5610912442207336 -0.03510645031929016 0.0011744163930416107 -0.0003096777945756912 0.0 0.0 0.0 0.0
3.029 0.5563591718673706 -0.04676418378949165 0.0010820245370268822 0.00031430739909410477 0.0 0.0 0.0 0.0
3.03 0.5426504015922546 -0.07887601852416992 0.0009233364835381508 0.000155608169734478 0.0 0.0 0.0 0.0
3.031 0.532715380191803 -0.09216161072254181 0.0013354495167732239 0.00017306767404079437 0.0 0.0 0.0 0.0
3.032 0.5240575075149536 -0.11377900838851929 0.001179560087621212 0.00020134449005126953 0.0 0.0 0.0 0.0
3.033 0.5121826529502869 -0.13747677206993103 0.0013916287571191788 1.885928213596344e-06 0.0 0.0 0.0 0.0
3.034 0.5009392499923706 -0.14692603051662445 0.0009111510589718819 4.017725586891174e-06 0.0 0.0 0.0 0.0
3.035 0.4844261705875397 -0.1683582067489624 0.0011004842817783356 -0.00014941394329071045 0.0 0.0 0.0 0.0
3.036 0.4803575575351715 -0.1713247001171112 0.0013962583616375923 -0.00025631580501794815 0.0 0.0 0.0 0.0
3.037 0.45593512058258057 -0.20269151031970978 0.0011858204379677773 -0.00021666660904884338 0.0 0.0 0.0 0.0
3.038 0.44353848695755005 -0.21594613790512085 0.0010838713496923447 -0.0005464944988489151 0.0 0.0 0.0 0.0
3.039 0.42509448528289795 -0.23833207786083221 0.0009355833753943443 -8.508563041687012e-05 0.0 0.0 0.0 0.0
3.04 0.41100817918777466 -0.24713465571403503 0.0010091187432408333 -0.00013795774430036545 0.0 0.0 0.0 0.0
3.041 0.3921207785606384 -0.26510655879974365 0.0010680453851819038 -0.0002848077565431595 0.0 0.0 0.0 0.0
3.042 0.3760291635990143 -0.2709135413169861 0.0008566007018089294 -0.000500229187309742 0.0 0.0 0.0 0.0
3.043 0.3567619025707245 -0.2904408574104309 0.0011374633759260178 -0.0008860016241669655 0.0 0.0 0.0 0.0
3.044 0.3323802053928375 -0.3072862923145294 0.0011539915576577187 -0.000797223299741745 0.0 0.0 0.0 0.0
3.045 0.31090009212493896 -0.31900832056999207 0.0009795883670449257 -0.0006486503407359123 0.0 0.0 0.0 0.0
3.046 0.29071420431137085 -0.3299741744995117 0.0005791140720248222 -0.0006498731672763824 0.0 0.0 0.0 0.0
3.047 0.2748209238052368 -0.33979228138923645 0.0008639758452773094 -0.0008435267955064774 0.0 0.0 0.0 0.0
3.048 0.24574555456638336 -0.3498868942260742 0.0007164962589740753 -0.001063675619661808 0.0 0.0 0.0 0.0
3.049 0.23194332420825958 -0.35539793968200684 0.0005817580968141556 -0.0006483159959316254 0.0 0.0 0.0 0.0
3.05 0.20075438916683197 -0.36726757884025574 0.0008500758558511734 -0.0011101802811026573 0.0 0.0 0.0 0.0
3.051 0.17827045917510986 -0.371364563703537 0.00044403690844774246 -0.0008616792038083076 0.0 0.0 0.0 0.0
3.052 0.15849484503269196 -0.37930238246917725 0.0007147500291466713 -0.0005227029323577881 0.0 0.0 0.0 0.0
3.053 0.1332825869321823 -0.3852074146270752 0.0006000325083732605 -0.0005367305129766464 0.0 0.0 0.0 0.0
3.054 0.10818222910165787 -0.3872373402118683 0.0001996578648686409 -0.0008815350010991096 0.0 0.0 0.0 0.0
3.055 0.08275330811738968 -0.3897972106933594 0.0004226081073284149 -0.0007672607898712158 0.0 0.0 0.0 0.0
3.056 0.06644248217344284 -0.3920186758041382 0.0004772692918777466 -0.0008472958579659462 0.0 0.0 0.0 0.0
3.057 0.04237809777259827 -0.3938838243484497 0.0005545131862163544 -0.0008553005754947662 0.0 0.0 0.0 0.0
3.058 0.016586991026997566 -0.3898753821849823 0.00029050838202238083 -0.0008482914417982101 0.0 0.0 0.0 0.0
3.059 -0.01736578531563282 -0.3944927155971527 0.0004360955208539963 -0.0010781139135360718 0.0 0.0 0.0 0.0
3.06 -0.028901727870106697 -0.392276793718338 0.0002676500007510185 -0.0011370498687028885 0.0 0.0 0.0 0.0
3.061 -0.062388863414525986 -0.3845447301864624 5.3287483751773834e-05 -0.0009301220998167992 0.0 0.0 0.0 0.0
3.062 -0.08522270619869232 -0.3821055591106415 0.0004424275830388069 -0.0013176584616303444 0.0 0.0 0.0 0.0
3.063 -0.11106732487678528 -0.37880992889404297 0.00017969124019145966 -0.0014052651822566986 0.0 0.0 0.0 0.0
3.064 -0.13715307414531708 -0.3688447177410126 0.00021625589579343796 -0.0010770605877041817 0.0 0.0 0.0 0.0
3.065 -0.15668463706970215 -0.36396923661231995 6.91702589392662e-05 -0.0007575200870633125 0.0 0.0 0.0 0.0
3.066 -0.19055882096290588 -0.35188817977905273 0.00013150833547115326 -0.001312791369855404 0.0 0.0 0.0 0.0
3.067 -0.2014232575893402 -0.3446952700614929 -0.0002903370186686516 -0.0009900983422994614 0.0 0.0 0.0 0.0
3.068 -0.22848686575889587 -0.3299500644207001 -0.0002859588712453842 -0.0011380044743418694 0.0 0.0 0.0 0.0
3.069 -0.25386306643486023 -0.3180687129497528 -0.00015631970018148422 -0.001167183741927147 0.0 0.0 0.0 0.0
3.07 -0.27358973026275635 -0.31054583191871643 7.119029760360718e-06 -0.001085435040295124 0.0 0.0 0.0 0.0
3.071 -0.28593340516090393 -0.29673340916633606 -0.00032389629632234573 -0.0008415421470999718 0.0 0.0 0.0 0.0
3.072 -0.30912551283836365 -0.2783176600933075 -0.00021397322416305542 -0.0011889198794960976 0.0 0.0 0.0 0.0
3.073 -0.3216804265975952 -0.2698681354522705 -0.0001471070572733879 -0.0007723867893218994 0.0 0.0 0.0 0.0
3.074 -0.3477861285209656 -0.2533610463142395 -0.00016569066792726517 -0.0010255305096507072 0.0 0.0 0.0 0.0
3.075 -0.3649405241012573 -0.23501022160053253 -0.0001716800034046173 -0.0010305317118763924 0.0 0.0 0.0 0.0
3.076 -0.38189876079559326 -0.2175363302230835 -0.0005255704745650291 -0.0011166185140609741 0.0 0.0 0.0 0.0
3.077 -0.3949196934700012 -0.20148387551307678 -0.0005613090470433235 -0.000998503528535366 0.0 0.0 0.0 0.0
3.078 -0.41020044684410095 -0.1908668577671051 -0.0006215954199433327 -0.0006882930174469948 0.0 0.0 0.0 0.0
3.079 -0.4245397746562958 -0.16423152387142181 -0.0008575860410928726 -0.000890037976205349 0.0 0.0 0.0 0.0
3.08 -0.4385945796966553 -0.14873705804347992 -0.0006656553596258163 -0.0008962200954556465 0.0 0.0 0.0 0.0
3.081 -0.45274075865745544 -0.13044598698616028 -0.0006715785712003708 -0.0009989701211452484 0.0 0.0 0.0 0.0
3.082 -0.4623059332370758 -0.10951563715934753 -0.0007456755265593529 -0.0005642594769597054 0.0 0.0 0.0 0.0
3.083 -0.47394639253616333 -0.08394692838191986 -0.000852024182677269 -0.0006514433771371841 0.0 0.0 0.0 0.0
3.084 -0.48486825823783875 -0.07913587987422943 -0.0008486127480864525 -0.0009856447577476501 0.0 0.0 0.0 0.0
3.085 -0.49235036969184875 -0.044069524854421616 -0.00059482641518116 -0.00038971658796072006 0.0 0.0 0.0 0.0
3.086 -0.5005785226821899 -0.03216918557882309 -0.0007486063987016678 -0.0008227694779634476 0.0 0.0 0.0 0.0
3.087 -0.5085997581481934 -0.006885009817779064 -0.0008280947804450989 -0.000516238622367382 0.0 0.0 0.0 0.0
3.088 -0.514051616191864 0.01348101906478405 -0.0005905609577894211 -0.0004939939826726913 0.0 0.0 0.0 0.0
3.089 -0.522721529006958 0.03911680355668068 -0.0007819430902600288 -0.0008691418915987015 0.0 0.0 0.0 0.0
3.09 -0.5259003639221191 0.06583809852600098 -0.000565825030207634 -0.0005790498107671738 0.0 0.0 0.0 0.0
3.091 -0.5292202830314636 0.0777917355298996 -0.0010406449437141418 -0.00028883572667837143 0.0 0.0 0.0 0.0
3.092 -0.5335448980331421 0.10014237463474274 -0.0006153415888547897 -0.00039832480251789093 0.0 0.0 0.0 0.0
3.093 -0.5364944338798523 0.12227734178304672 -0.0010046036913990974 -0.000569785013794899 0.0 0.0 0.0 0.0
3.094 -0.5333499908447266 0.14696377515792847 -0.0008665714412927628 -0.00015495065599679947 0.0 0.0 0.0 0.0
3.095 -0.5365660786628723 0.16054639220237732 -0.0009638704359531403 -0.00016054511070251465 0.0 0.0 0.0 0.0
3.096 -0.5371494889259338 0.18563267588615417 -0.0007456857711076736 -0.00021570641547441483 0.0 0.0 0.0 0.0
3.097 -0.5399864912033081 0.20029217004776 -0.0009016292169690132 -0.000395788811147213 0.0 0.0 0.0 0.0
3.098 -0.5337199568748474 0.22764086723327637 -0.001088051125407219 6.455928087234497e-06 0.0 0.0 0.0 0.0
3.099 -0.533593475818634 0.2422916442155838 -0.0006995396688580513 -0.00028939731419086456 0.0 0.0 0.0 0.0
3.1 -0.5327829122543335 0.2647276520729065 -0.0005613621324300766 -0.0004024496302008629 0.0 0.0 0.0 0.0
3.101 -0.5248554944992065 0.29101043939590454 -0.00047352537512779236 -0.0006831428036093712 0.0 0.0 0.0 0.0
3.102 -0.5242462158203125 0.3048631250858307 -0.0010818373411893845 0.000380183570086956 0.0 0.0 0.0 0.0
3.103 -0.516867458820343 0.3302481472492218 -0.0010658632963895798 -0.00037565547972917557 0.0 0.0 0.0 0.0
3.104 -0.5142188668251038 0.34051477909088135 -0.0011474387720227242 -0.00014738831669092178 0.0 0.0 0.0 0.0
3.105 -0.5048484802246094 0.3612684905529022 -0.000990264117717743 0.0006058430299162865 0.0 0.0 0.0 0.0
3.106 -0.49812957644462585 0.3842540979385376 -0.0012091109529137611 -0.0001917639747262001 0.0 0.0 0.0 0.0
3.107 -0.49641454219818115 0.39812347292900085 -0.0003722347319126129 -3.080535680055618e-05 0.0 0.0 0.0 0.0
3.108 -0.4819555878639221 0.41407597064971924 -0.0011621201410889626 0.00021809805184602737 0.0 0.0 0.0 0.0
3.109 -0.4788203537464142 0.4332025647163391 -0.0010371357202529907 -0.00010465644299983978 0.0 0.0 0.0 0.0
3.11 -0.4699815809726715 0.4501243531703949 -0.0009496584534645081 4.135444760322571e-05 0.0 0.0 0.0 0.0
3.111 -0.46404126286506653 0.4636193811893463 -0.0006815800443291664 0.0005103116855025291 0.0 0.0 0.0 0.0
3.112 -0.447206974029541 0.4842853546142578 -0.0011059502139687538 0.00017085671424865723 0.0 0.0 0.0 0.0
3.113 -0.4395725131034851 0.49803707003593445 -0.0008863601833581924 0.0006750216707587242 0.0 0.0 0.0 0.0
3.114 -0.42774057388305664 0.5099558234214783 -0.00040949229151010513 0.000395885668694973 0.0 0.0 0.0 0.0
3.115 -0.412903368473053 0.5303636193275452 -0.0009605549275875092 0.0006973240524530411 0.0 0.0 0.0 0.0
3.116 -0.3979564905166626 0.547523021697998 -0.0006804466247558594 -0.0001586461439728737 0.0 0.0 0.0 0.0
3.117 -0.39675667881965637 0.55583655834198 -0.0008196597918868065 0.000850713811814785 0.0 0.0 0.0 0.0
3.118 -0.3788599371910095 0.5716944336891174 -0.0010832324624061584 4.0735118091106415e-05 0.0 0.0 0.0 0.0
3.119 -0.36556476354599 0.5879120826721191 -0.00046552903950214386 0.0002619391307234764 0.0 0.0 0.0 0.0
3.12 -0.35057786107063293 0.600974977016449 -0.0010482855141162872 0.00012933555990457535 0.0 0.0 0.0 0.0
3.121 -0.3468737304210663 0.6066673994064331 -0.0005332436412572861 0.0002189893275499344 0.0 0.0 0.0 0.0
3.122 -0.322197288274765 0.6217520833015442 -0.000487317331135273 0.0008771540597081184 0.0 0.0 0.0 0.0
3.123 -0.3197046220302582 0.6281328797340393 -0.0006754593923687935 0.00026815198361873627 0.0 0.0 0.0 0.0
3.124 -0.29530593752861023 0.6447271704673767 -0.0005975374951958656 0.0009149108082056046 0.0 0.0 0.0 0.0
3.125 -0.2891135811805725 0.6494523882865906 -0.001180443912744522 0.0005800612270832062 0.0 0.0 0.0 0.0
3.126 -0.26155993342399597 0.664056658744812 -0.0007044095546007156 0.001046428456902504 0.0 0.0 0.0 0.0
3.127 -0.26030105352401733 0.6681969165802002 -0.0010596048086881638 0.0006970316171646118 0.0 0.0 0.0 0.0
3.128 -0.2362280637025833 0.6810094118118286 -0.0005553672090172768 0.0002886168658733368 0.0 0.0 0.0 0.0
3.129 -0.22446438670158386 0.6850520372390747 -0.0009690402075648308 0.0012326901778578758 0.0 0.0 0.0 0.0
3.13 -0.23058708012104034 0.6883494257926941 -0.0008974010124802589 0.000814659520983696 0.0 0.0 0.0 0.0
3.131 -0.18780219554901123 0.7039978504180908 -0.0004758080467581749 0.000526859425008297 0.0 0.0 0.0 0.0
3.132 -0.17484569549560547 0.7066177725791931 -0.0010200636461377144 0.0008030934259295464 0.0 0.0 0.0 0.0
3.133 -0.15171930193901062 0.7161790132522583 -0.00015612784773111343 0.0003946758806705475 0.0 0.0 0.0 0.0
3.134 -0.15406404435634613 0.7168482542037964 -9.788572788238525e-05 0.0008435817435383797 0.0 0.0 0.0 0.0
3.135 -0.12113405764102936 0.7273108959197998 -0.0003552548587322235 0.0006985869258642197 0.0 0.0 0.0 0.0
3.136 -0.11685898900032043 0.7267128229141235 -2.3203901946544647e-05 0.0010287556797266006 0.0 0.0 0.0 0.0
3.137 -0.08907834440469742 0.7341031432151794 -0.000563119538128376 0.0010203206911683083 0.0 0.0 0.0 0.0
3.138 -0.0784149020910263 0.734869122505188 0.0001051090657711029 0.0009362651035189629 0.0 0.0 0.0 0.0
3.139 -0.04968363419175148 0.7414001822471619 -0.00020747724920511246 0.0011285673826932907 0.0 0.0 0.0 0.0
3.14 -0.04477793723344803 0.7426952123641968 -0.0007710754871368408 0.0006570480763912201 0.0 0.0 0.0 0.0
3.141 -0.026271754875779152 0.7462052702903748 -0.00013542920351028442 0.0012993458658456802 0.0 0.0 0.0 0.0
3.142 -0.003148825839161873 0.7453784942626953 -0.0006261337548494339 0.0007645534351468086 0.0 0.0 0.0 0.0
3.143 0.003543306142091751 0.749090313911438 -0.00022635702043771744 0.0011011650785803795 0.0 0.0 0.0 0.0
3.144 0.032114602625370026 0.7489702701568604 -0.0004417719319462776 0.0008775210008025169 0.0 0.0 0.0 0.0
3.145 0.04148975759744644 0.7485517263412476 -7.64559954404831e-05 0.0006882427260279655 0.0 0.0 0.0 0.0
3.146 0.06521367281675339 0.749355137348175 0.000212792307138443 0.0011936714872717857 0.0 0.0 0.0 0.0
3.147 0.06474179774522781 0.7473285794258118 -3.988109529018402e-05 0.0013446854427456856 0.0 0.0 0.0 0.0
3.148 0.10140004009008408 0.7476676106452942 0.00012208987027406693 0.0006571728736162186 0.0 0.0 0.0 0.0
3.149 0.1038019061088562 0.7446293234825134 -0.00017446838319301605 0.0006415266543626785 0.0 0.0 0.0 0.0
3.15 0.1347537636756897 0.7413445115089417 0.00031429529190063477 0.001065780408680439 0.0 0.0 0.0 0.0
3.151 0.14136745035648346 0.7384419441223145 -0.0004515470936894417 0.0006108209490776062 0.0 0.0 0.0 0.0
3.152 0.15936310589313507 0.737080454826355 -0.00013096816837787628 0.0009617879986763 0.0 0.0 0.0 0.0
3.153 0.18576326966285706 0.7304010987281799 0.0007049804553389549 0.0008088471367955208 0.0 0.0 0.0 0.0
3.154 0.18958012759685516 0.7289310693740845 -6.414391100406647e-05 0.0006790729239583015 0.0 0.0 0.0 0.0
3.155 0.21650534868240356 0.720166802406311 -9.382329881191254e-05 0.0010205693542957306 0.0 0.0 0.0 0.0
3.156 0.2239416390657425 0.7182055115699768 0.00023582950234413147 0.0005614813417196274 0.0 0.0 0.0 0.0
3.157 0.2518174350261688 0.7080442309379578 0.000252770259976387 0.0011555859819054604 0.0 0.0 0.0 0.0
3.158 0.25296592712402344 0.7080398797988892 0.0005202805623412132 0.0010455362498760223 0.0 0.0 0.0 0.0
3.159 0.27623528242111206 0.6986967325210571 0.0007137544453144073 0.0010461164638400078 0.0 0.0 0.0 0.0
3.16 0.2899444103240967 0.6901953220367432 0.00023436546325683594 0.0006450703367590904 0.0 0.0 0.0 0.0
3.161 0.30624082684516907 0.6849518418312073 0.00010962877422571182 0.0006830412894487381 0.0 0.0 0.0 0.0
3.162 0.3176858425140381 0.677018940448761 4.328414797782898e-05 0.0011059409007430077 0.0 0.0 0.0 0.0
3.163 0.34122806787490845 0.6667174100875854 0.00036932434886693954 0.0007709721103310585 0.0 0.0 0.0 0.0
3.164 0.34990864992141724 0.6586670279502869 0.0002209339290857315 0.0002697855234146118 0.0 0.0 0.0 0.0
3.165 0.36724865436553955 0.6485523581504822 0.0004479503259062767 0.001019999384880066 0.0 0.0 0.0 0.0
3.166 0.3795872926712036 0.6368708610534668 0.0003494061529636383 3.902893513441086e-05 0.0 0.0 0.0 0.0
3.167 0.3915145993232727 0.6310315132141113 0.0005837567150592804 0.00032475870102643967 0.0 0.0 0.0 0.0
3.168 0.41870734095573425 0.609512984752655 0.000271625816822052 0.00031335093080997467 0.0 0.0 0.0 0.0
3.169 0.4192495048046112 0.6102840304374695 0.000659160315990448 2.0879320800304413e-05 0.0 0.0 0.0 0.0
3.17 0.43906402587890625 0.5938369035720825 0.0010852711275219917 0.0007244395092129707 0.0 0.0 0.0 0.0
3.171 0.44134390354156494 0.5863655805587769 0.0006448375061154366 0.00013654213398694992 0.0 0.0 0.0 0.0
3.172 0.4645959436893463 0.56830894947052 0.000951819121837616 0.0006309514865279198 0.0 0.0 0.0 0.0
3.173 0.46805405616760254 0.5611951351165771 0.0009617861360311508 0.0006789416074752808 0.0 0.0 0.0 0.0
3.174 0.4906347095966339 0.5376654863357544 0.0008590919896960258 0.0005098255351185799 0.0 0.0 0.0 0.0
3.175 0.49432164430618286 0.5333802103996277 0.0006804512813687325 0.0007717190310359001 0.0 0.0 0.0 0.0
3.176 0.4960595965385437 0.5272287726402283 0.0008119232952594757 0.000616392120718956 0.0 0.0 0.0 0.0
3.177 0.5209737420082092 0.49919235706329346 0.0008507873862981796 -4.710536450147629e-05 0.0 0.0 0.0 0.0
3.178 0.5215513706207275 0.4949909448623657 0.0005793338641524315 0.0006788009777665138 0.0 0.0 0.0 0.0
3.179 0.5381208062171936 0.4701944589614868 0.00040174275636672974 8.258223533630371e-05 0.0 0.0 0.0 0.0
3.18 0.5485995411872864 0.46383416652679443 0.0010166363790631294 0.0004021665081381798 0.0 0.0 0.0 0.0
3.181 0.557874858379364 0.44231081008911133 0.0007904171943664551 0.0004351092502474785 0.0 0.0 0.0 0.0
3.182 0.5613353252410889 0.43161138892173767 0.000595536082983017 -0.0002467203885316849 0.0 0.0 0.0 0.0
3.183 0.5773177146911621 0.4057994484901428 0.0009334376081824303 -0.00017316453158855438 0.0 0.0 0.0 0.0
3.184 0.5799649357795715 0.39379751682281494 0.0004951022565364838 -0.0002717897295951843 0.0 0.0 0.0 0.0
3.185 0.5922472476959229 0.37293678522109985 0.0004884600639343262 -0.00026687607169151306 0.0 0.0 0.0 0.0
3.186 0.5909375548362732 0.3628005385398865 0.00034320447593927383 -0.00018027331680059433 0.0 0.0 0.0 0.0
3.187 0.6015092134475708 0.343015193939209 0.00035187602043151855 1.377146691083908e-05 0.0 0.0 0.0 0.0
3.188 0.6083159446716309 0.32223084568977356 0.000574430450797081 0.0004257047548890114 0.0 0.0 0.0 0.0
3.189 0.614211916923523 0.30619001388549805 0.0003380030393600464 0.0003279745578765869 0.0 0.0 0.0 0.0
3.19 0.6183496713638306 0.28420841693878174 0.00011497084051370621 -0.0003483593463897705 0.0 0.0 0.0 0.0
3.191 0.6210671067237854 0.2708910405635834 0.00035389047116041183 0.00022245477885007858 0.0 0.0 0.0 0.0
3.192 0.6278056502342224 0.24944178760051727 0.0012571997940540314 -2.5396235287189484e-05 0.0 0.0 0.0 0.0
3.193 0.6288763284683228 0.23695430159568787 0.0005932999774813652 -0.0004996545612812042 0.0 0.0 0.0 0.0
3.194 0.635504424571991 0.21044787764549255 0.0010134447365999222 -4.1682273149490356e-05 0.0 0.0 0.0 0.0
3.195 0.633489191532135 0.1992339938879013 0.0007068794220685959 1.27376988530159e-05 0.0 0.0 0.0 0.0
3.196 0.6379285454750061 0.17256055772304535 0.0007279161363840103 -0.00017665978521108627 0.0 0.0 0.0 0.0
3.197 0.6365896463394165 0.16012753546237946 0.0006743120029568672 -0.00012145191431045532 0.0 0.0 0.0 0.0
3.198 0.6408613920211792 0.12456482648849487 0.0010099699720740318 -0.00048654433339834213 0.0 0.0 0.0 0.0
3.199 0.6347227692604065 0.11228719353675842 0.0003899838775396347 -0.0008706692606210709 0.0 0.0 0.0 0.0
3.2 0.6354203820228577 0.08802074193954468 0.000447920523583889 -0.0005939677357673645 0.0 0.0 0.0 0.0
3.201 0.6314457654953003 0.07646003365516663 0.00028744060546159744 -0.0007430994883179665 0.0 0.0 0.0 0.0
3.202 0.6322996616363525 0.04697297886013985 0.000644635409116745 -0.0005993414670228958 0.0 0.0 0.0 0.0
3.203 0.6270810961723328 0.03436485677957535 0.0006082355976104736 -6.332434713840485e-05 0.0 0.0 0.0 0.0
3.204 0.6266478896141052 0.004242105409502983 0.0007525952532887459 -0.0004906980320811272 0.0 0.0 0.0 0.0
3.205 0.6182325482368469 -0.009469910524785519 0.0008789841085672379 -0.0006136000156402588 0.0 0.0 0.0 0.0
3.206 0.6148808002471924 -0.02206753008067608 -0.00014555640518665314 -0.00031312089413404465 0.0 0.0 0.0 0.0
3.207 0.608115553855896 -0.04504736512899399 0.00021008867770433426 3.091245889663696e-05 0.0 0.0 0.0 0.0
3.208 0.6000860929489136 -0.06672089546918869 4.87547367811203e-05 -0.0005532745271921158 0.0 0.0 0.0 0.0
3.209 0.5928553342819214 -0.09257630258798599 4.7876499593257904e-05 -0.00010812375694513321 0.0 0.0 0.0 0.0
3.21 0.5858691930770874 -0.10082398355007172 2.8568319976329803e-05 -0.00028556957840919495 0.0 0.0 0.0 0.0
3.211 0.5759814977645874 -0.13980306684970856 0.0005303006619215012 -0.0004330221563577652 0.0 0.0 0.0 0.0
3.212 0.567267119884491 -0.14251327514648438 0.0003849044442176819 -0.0007449369877576828 0.0 0.0 0.0 0.0
3.213 0.5518928170204163 -0.1775333136320114 -1.4076009392738342e-05 -0.0008114594966173172 0.0 0.0 0.0 0.0
3.214 0.5453260540962219 -0.18510673940181732 0.0003491034731268883 -0.0006219521164894104 0.0 0.0 0.0 0.0
3.215 0.5364727973937988 -0.20297080278396606 0.00020087230950593948 -0.0003582015633583069 0.0 0.0 0.0 0.0
3.216 0.5168837904930115 -0.22238604724407196 4.660896956920624e-05 -0.0008029155433177948 0.0 0.0 0.0 0.0
3.217 0.502250611782074 -0.2487875521183014 0.0002266913652420044 -0.0007819617167115211 0.0 0.0 0.0 0.0
3.218 0.4951991140842438 -0.251262366771698 8.678622543811798e-05 -5.63962385058403e-05 0.0 0.0 0.0 0.0
3.219 0.47659024596214294 -0.27840471267700195 -0.00026203878223896027 -0.00047941040247678757 0.0 0.0 0.0 0.0
3.22 0.4660779535770416 -0.2849558889865875 0.00042761024087667465 -0.0003448193892836571 0.0 0.0 0.0 0.0
3.221 0.4469038248062134 -0.3046908378601074 -0.0003630761057138443 -0.0002973545342683792 0.0 0.0 0.0 0.0
3.222 0.4267555773258209 -0.3236832618713379 5.420111119747162e-05 -0.0002085147425532341 0.0 0.0 0.0 0.0
3.223 0.4159097373485565 -0.3345078229904175 8.822325617074966e-05 -0.0005561206489801407 0.0 0.0 0.0 0.0
3.224 0.39282745122909546 -0.351208359003067 -0.0003476608544588089 -0.00022298377007246017 0.0 0.0 0.0 0.0
3.225 0.3783321678638458 -0.3603481352329254 8.268468081951141e-05 -0.0001615462824702263 0.0 0.0 0.0 0.0
3.226 0.3511391878128052 -0.38155829906463623 -0.0002684183418750763 -0.0008160928264260292 0.0 0.0 0.0 0.0
3.227 0.332584947347641 -0.3903273940086365 -0.000349387526512146 -0.0008393684402108192 0.0 0.0 0.0 0.0
3.228 0.3140074908733368 -0.3977051377296448 -0.0006691869348287582 -0.0003018546849489212 0.0 0.0 0.0 0.0
3.229 0.2939978241920471 -0.4104864001274109 -0.0005718544125556946 -0.0008454518392682076 0.0 0.0 0.0 0.0
3.23 0.27378159761428833 -0.42250576615333557 -0.000616106204688549 -0.00014160480350255966 0.0 0.0 0.0 0.0
3.231 0.24801678955554962 -0.4311230778694153 -0.0005506323650479317 -0.0005126688629388809 0.0 0.0 0.0 0.0
3.232 0.22818084061145782 -0.44137024879455566 -0.00019439216703176498 -0.0006598178297281265 0.0 0.0 0.0 0.0
3.233 0.2010379433631897 -0.45060884952545166 -0.00031004101037979126 -0.0007011005654931068 0.0 0.0 0.0 0.0
3.234 0.18604730069637299 -0.4514317512512207 -0.00037668365985155106 -6.451550871133804e-05 0.0 0.0 0.0 0.0
3.235 0.16070842742919922 -0.46279317140579224 -0.00021400675177574158 -9.329430758953094e-05 0.0 0.0 0.0 0.0
3.236 0.13981276750564575 -0.46231821179389954 -0.00031839124858379364 -3.37967649102211e-05 0.0 0.0 0.0 0.0
3.237 0.11168897151947021 -0.47383615374565125 -0.00018123723566532135 -0.00017550121992826462 0.0 0.0 0.0 0.0
3.238 0.08715342730283737 -0.47338244318962097 -0.00029290933161973953 -0.0006167171522974968 0.0 0.0 0.0 0.0
3.239 0.0599418506026268 -0.4733549952507019 -0.0007294025272130966 -0.00035932473838329315 0.0 0.0 0.0 0.0
3.24 0.04082471877336502 -0.47514936327934265 -0.0005606375634670258 -0.0004616091027855873 0.0 0.0 0.0 0.0
3.241 0.014934999868273735 -0.4740979075431824 -0.0009656408801674843 -0.00019921176135540009 0.0 0.0 0.0 0.0
3.242 -0.004304126836359501 -0.4756445288658142 -0.0001505659893155098 0.0001629423350095749 0.0 0.0 0.0 0.0
3.243 -0.031659532338380814 -0.47460582852363586 -0.0004879990592598915 0.0001595066860318184 0.0 0.0 0.0 0.0
3.244 -0.059916410595178604 -0.4702918827533722 -0.0007310183718800545 -0.0005349600687623024 0.0 0.0 0.0 0.0
3.245 -0.08163325488567352 -0.4686962068080902 -0.0006421050056815147 0.000205235555768013 0.0 0.0 0.0 0.0
3.246 -0.11043475568294525 -0.46448832750320435 4.510674625635147e-05 -0.0002713128924369812 0.0 0.0 0.0 0.0
3.247 -0.1331641972064972 -0.4613563120365143 -0.0003882013261318207 -0.00018767546862363815 0.0 0.0 0.0 0.0
3.248 -0.1577712446451187 -0.4516308605670929 -0.0003212578594684601 0.0004955632612109184 0.0 0.0 0.0 0.0
3.249 -0.17877501249313354 -0.44555553793907166 -0.0002104463055729866 4.293117672204971e-05 0.0 0.0 0.0 0.0
3.25 -0.2036944180727005 -0.432394802570343 -0.0008725030347704887 0.00027859117835760117 0.0 0.0 0.0 0.0
3.251 -0.22445069253444672 -0.4273046553134918 -0.0007671816274523735 -4.903972148895264e-05 0.0 0.0 0.0 0.0
3.252 -0.2551625967025757 -0.4169204831123352 -0.0003203451633453369 0.00026691984385252 0.0 0.0 0.0 0.0
3.253 -0.26688918471336365 -0.4048052430152893 -0.000710098072886467 0.0004554362967610359 0.0 0.0 0.0 0.0
3.254 -0.2988525927066803 -0.3900233805179596 -0.00028475839644670486 -3.232993185520172e-05 0.0 0.0 0.0 0.0
3.255 -0.31359413266181946 -0.37746307253837585 -0.0006697904318571091 0.00023330189287662506 0.0 0.0 0.0 0.0
3.256 -0.3411957025527954 -0.3596034348011017 -0.0005382755771279335 -0.00011027418076992035 0.0 0.0 0.0 0.0
3.257 -0.3578183948993683 -0.3481672406196594 -0.0004964424297213554 -0.00025179795920848846 0.0 0.0 0.0 0.0
3.258 -0.3789936602115631 -0.328143447637558 -0.0007131285965442657 0.00019551627337932587 0.0 0.0 0.0 0.0
3.259 -0.3988432288169861 -0.3121694028377533 -0.0004671122878789902 -0.00021657906472682953 0.0 0.0 0.0 0.0
3.26 -0.416870653629303 -0.29849791526794434 -0.0003137486055493355 -1.808907836675644e-05 0.0 0.0 0.0 0.0
3.261 -0.433437705039978 -0.27472004294395447 -0.00035239383578300476 -0.00034303124994039536 0.0 0.0 0.0 0.0
3.262 -0.44806739687919617 -0.26041677594184875 -0.0004457607865333557 -0.00011308584362268448 0.0 0.0 0.0 0.0
3.263 -0.4605957269668579 -0.23996268212795258 -0.0001786956563591957 0.0006742337718605995 0.0 0.0 0.0 0.0
3.264 -0.48080942034721375 -0.22137196362018585 -0.0004035448655486107 4.1146762669086456e-05 0.0 0.0 0.0 0.0
3.265 -0.4930659234523773 -0.1954609900712967 -4.341639578342438e-05 0.0004425821825861931 0.0 0.0 0.0 0.0
3.266 -0.5006265640258789 -0.17687642574310303 -0.0003275703638792038 0.0007025375962257385 0.0 0.0 0.0 0.0
3.267 -0.5192502737045288 -0.15411464869976044 -0.00023691542446613312 0.00028329528868198395 0.0 0.0 0.0 0.0
3.268 -0.5279979109764099 -0.12943631410598755 0.0003826720640063286 0.00047974754124879837 0.0 0.0 0.0 0.0
3.269 -0.5397467017173767 -0.10819007456302643 -0.00017767120152711868 -1.780688762664795e-06 0.0 0.0 0.0 0.0
3.27 -0.5464832782745361 -0.09458686411380768 8.780602365732193e-05 0.0005275662988424301 0.0 0.0 0.0 0.0
3.271 -0.5580223798751831 -0.060724109411239624 -6.588827818632126e-05 0.00018831156194210052 0.0 0.0 0.0 0.0
3.272 -0.5612050890922546 -0.03400952368974686 -0.00053437240421772 9.702891111373901e-05 0.0 0.0 0.0 0.0
3.273 -0.5700838565826416 -0.019253477454185486 -0.0002607181668281555 0.0002126302570104599 0.0 0.0 0.0 0.0
3.274 -0.5706097483634949 0.011994050815701485 -0.00037748832255601883 0.0007828809320926666 0.0 0.0 0.0 0.0
3.275 -0.5774956941604614 0.0314515195786953 -0.0004883762449026108 0.00044063199311494827 0.0 0.0 0.0 0.0
3.276 -0.5807222723960876 0.05964769795536995 -0.000604020431637764 0.00046017300337553024 0.0 0.0 0.0 0.0
3.277 -0.5812093615531921 0.0771065279841423 -0.0005612047389149666 0.0010249363258481026 0.0 0.0 0.0 0.0
3.278 -0.5832931995391846 0.10417406260967255 -0.0002684248611330986 0.0006986716762185097 0.0 0.0 0.0 0.0
3.279 -0.5849446058273315 0.12473246455192566 0.00034826528280973434 5.58365136384964e-05 0.0 0.0 0.0 0.0
3.28 -0.584945559501648 0.14869187772274017 0.00011235009878873825 0.000839809887111187 0.0 0.0 0.0 0.0
3.281 -0.5792128443717957 0.17987535893917084 -0.0003394465893507004 0.0009656939655542374 0.0 0.0 0.0 0.0
3.282 -0.5839439630508423 0.19861190021038055 0.00015643052756786346 -1.4312565326690674e-05 0.0 0.0 0.0 0.0
3.283 -0.5775933265686035 0.22970648109912872 0.0002401331439614296 -1.2842938303947449e-06 0.0 0.0 0.0 0.0
3.284 -0.5767123699188232 0.24066627025604248 -3.92179936170578e-05 0.00018760841339826584 0.0 0.0 0.0 0.0
3.285 -0.5634974241256714 0.2750026285648346 0.0004160059615969658 0.0006464449688792229 0.0 0.0 0.0 0.0
3.286 -0.5633912086486816 0.2848322093486786 6.438698619604111e-05 0.0007567610591650009 0.0 0.0 0.0 0.0
3.287 -0.5536636114120483 0.3197098672389984 0.00024899374693632126 0.0006180917844176292 0.0 0.0 0.0 0.0
3.288 -0.5495914816856384 0.3311510682106018 0.0003019394353032112 0.0006226785480976105 0.0 0.0 0.0 0.0
3.289 -0.5368870496749878 0.36030298471450806 -0.00015159696340560913 0.00048290472477674484 0.0 0.0 0.0 0.0
3.29 -0.5300906300544739 0.3725849688053131 0.0005890047177672386 0.0007267845794558525 0.0 0.0 0.0 0.0
3.291 -0.5210790634155273 0.40117764472961426 3.0714087188243866e-05 -0.00010699592530727386 0.0 0.0 0.0 0.0
3.292 -0.5114321112632751 0.4163442850112915 0.0006086016073822975 0.00038268323987722397 0.0 0.0 0.0 0.0
3.293 -0.5003506541252136 0.43470650911331177 0.0003862036392092705 0.0007255207747220993 0.0 0.0 0.0 0.0
3.294 -0.4859819710254669 0.45997390151023865 0.00034090783447027206 -3.7418678402900696e-05 0.0 0.0 0.0 0.0
3.295 -0.4758288562297821 0.47814124822616577 -2.5892630219459534e-05 -7.191766053438187e-05 0.0 0.0 0.0 0.0
3.296 -0.45731887221336365 0.5027459263801575 0.00010653864592313766 -0.00017382483929395676 0.0 0.0 0.0 0.0
3.297 -0.4524209499359131 0.5084375739097595 -0.00026102177798748016 0.0001180386170744896 0.0 0.0 0.0 0.0
3.298 -0.4299691617488861 0.5311447381973267 0.00016502197831869125 0.0006674928590655327 0.0 0.0 0.0 0.0
3.299 -0.4202369153499603 0.545200526714325 0.0002146465703845024 -7.496960461139679e-05 0.0 0.0 0.0 0.0
3.3 -0.39492255449295044 0.5682083368301392 0.00017158780246973038 0.0006159516051411629 0.0 0.0 0.0 0.0
3.301 -0.3933292329311371 0.5718749165534973 -5.779135972261429e-05 0.0005327081307768822 0.0 0.0 0.0 0.0
3.302 -0.3646188974380493 0.5967692136764526 -0.0001979917287826538 0.0002843402326107025 0.0 0.0 0.0 0.0
3.303 -0.35426560044288635 0.604188084602356 -0.0001545613631606102 0.0005324091762304306 0.0 0.0 0.0 0.0
3.304 -0.33747798204421997 0.6214579939842224 -0.00020664837211370468 0.00024105608463287354 0.0 0.0 0.0 0.0
3.305 -0.3196479082107544 0.6292762160301208 0.0006766952574253082 -0.0001842780038714409 0.0 0.0 0.0 0.0
3.306 -0.29849720001220703 0.6439613103866577 0.0005073640495538712 0.0007163668051362038 0.0 0.0 0.0 0.0
3.307 -0.2766442596912384 0.6540903449058533 0.00022125989198684692 -0.00027381908148527145 0.0 0.0 0.0 0.0
3.308 -0.2698230445384979 0.6637849807739258 0.0005473773926496506 -5.9509649872779846e-05 0.0 0.0 0.0 0.0
3.309 -0.2388772815465927 0.6754849553108215 -0.00018143653869628906 -1.2988224625587463e-05 0.0 0.0 0.0 0.0
3.31 -0.2314443141222 0.6808049082756042 0.00032456591725349426 -0.00021746568381786346 0.0 0.0 0.0 0.0
3.311 -0.20121532678604126 0.6908283233642578 0.0005023358389735222 0.0002547195181250572 0.0 0.0 0.0 0.0
3.312 -0.1856881082057953 0.6997261047363281 -0.0001285811886191368 1.8608756363391876e-05 0.0 0.0 0.0 0.0
3.313 -0.1640973687171936 0.7051604986190796 0.0005799392238259315 -2.740137279033661e-05 0.0 0.0 0.0 0.0
3.314 -0.14989914000034332 0.7071464657783508 0.000700916163623333 -0.0004370464012026787 0.0 0.0 0.0 0.0
3.315 -0.12871460616588593 0.7155921459197998 9.07108187675476e-06 -8.767470717430115e-05 0.0 0.0 0.0 0.0
3.316 -0.10602298378944397 0.7200215458869934 0.0006466051563620567 -0.0003487672656774521 0.0 0.0 0.0 0.0
3.317 -0.09200462698936462 0.7229185700416565 0.0005022687837481499 0.00021920911967754364 0.0 0.0 0.0 0.0
3.318 -0.062126968055963516 0.7286524176597595 0.0005080243572592735 -0.00045637134462594986 0.0 0.0 0.0 0.0
3.319 -0.05286237969994545 0.7308112382888794 0.0002243267372250557 -0.00018550269305706024 0.0 0.0 0.0 0.0
3.32 -0.023114288225769997 0.7347420454025269 0.0006357589736580849 0.00023156311362981796 0.0 0.0 0.0 0.0
3.321 -0.007841076701879501 0.7344493269920349 0.0002696532756090164 -0.00042977742850780487 0.0 0.0 0.0 0.0
3.322 0.01613738387823105 0.7355848550796509 0.00034344010055065155 -8.101202547550201e-05 0.0 0.0 0.0 0.0
3.323 0.029907191172242165 0.7344240546226501 0.0005231639370322227 0.00022912025451660156 0.0 0.0 0.0 0.0
3.324 0.04939896613359451 0.7387286424636841 4.663504660129547e-05 -0.00018770620226860046 0.0 0.0 0.0 0.0
3.325 0.06329304724931717 0.7354866862297058 -8.779764175415039e-05 -0.0005784099921584129 0.0 0.0 0.0 0.0
3.326 0.10035880655050278 0.7313646078109741 0.00027767661958932877 8.689425885677338e-05 0.0 0.0 0.0 0.0
3.327 0.10263434797525406 0.7310836315155029 9.208451956510544e-05 -0.00068662129342556 0.0 0.0 0.0 0.0
3.328 0.12701056897640228 0.7323722243309021 -4.22084704041481e-05 0.00024796929210424423 0.0 0.0 0.0 0.0
3.329 0.149224653840065 0.7226783633232117 -6.259419023990631e-06 0.00046088919043540955 0.0 0.0 0.0 0.0
3.33 0.16611531376838684 0.7212218642234802 0.00019160937517881393 0.0005081761628389359 0.0 0.0 0.0 0.0
3.331 0.19110438227653503 0.7159957885742188 9.47052612900734e-05 -0.0006634853780269623 0.0 0.0 0.0 0.0
3.332 0.20186956226825714 0.7123717665672302 -0.00019982736557722092 0.000463888980448246 0.0 0.0 0.0 0.0
3.333 0.22894766926765442 0.7029658555984497 0.0005812030285596848 9.342748671770096e-05 0.0 0.0 0.0 0.0
3.334 0.2350037842988968 0.699455201625824 0.0003545088693499565 0.00017279665917158127 0.0 0.0 0.0 0.0
3.335 0.2662980258464813 0.689985990524292 0.0003823256120085716 -0.0002160053700208664 0.0 0.0 0.0 0.0
3.336 0.27961787581443787 0.6829870343208313 -0.000160999596118927 0.0001892903819680214 0.0 0.0 0.0 0.0
3.337 0.2898928225040436 0.6802934408187866 0.00026617106050252914 -0.0003482680767774582 0.0 0.0 0.0 0.0
3.338 0.30450117588043213 0.6724038124084473 -0.00047288928180933 0.00024792738258838654 0.0 0.0 0.0 0.0
3.339 0.32968005537986755 0.6611841320991516 -0.00016119983047246933 -0.00020974688231945038 0.0 0.0 0.0 0.0
3.34 0.33764147758483887 0.6507283449172974 0.0005671707913279533 -0.0002971487119793892 0.0 0.0 0.0 0.0
3.341 0.3621785342693329 0.6424241662025452 0.0002751080319285393 0.0003071501851081848 0.0 0.0 0.0 0.0
3.342 0.3727370500564575 0.6327282190322876 -0.00065606739372015 0.00014819670468568802 0.0 0.0 0.0 0.0
3.343 0.3884028494358063 0.6265602707862854 -0.00023490935564041138 -0.0006882930174469948 0.0 0.0 0.0 0.0
3.344 0.41132786870002747 0.6073222160339355 -0.0003568064421415329 0.0002369079738855362 0.0 0.0 0.0 0.0
3.345 0.4191948473453522 0.6024245619773865 -0.00021262932568788528 -0.0001854151487350464 0.0 0.0 0.0 0.0
3.346 0.4438779950141907 0.5824421048164368 0.00014608073979616165 0.0002168416976928711 0.0 0.0 0.0 0.0
3.347 0.44483059644699097 0.5808796882629395 -0.00030750688165426254 -4.905927926301956e-05 0.0 0.0 0.0 0.0
3.348 0.4716392457485199 0.5620219707489014 -0.0003663860261440277 3.00724059343338e-06 0.0 0.0 0.0 0.0
3.349 0.4725983440876007 0.5554482936859131 -0.0003331732004880905 8.170213550329208e-05 0.0 0.0 0.0 0.0
3.35 0.49654853343963623 0.5316590666770935 4.613865166902542e-05 -0.00032402854412794113 0.0 0.0 0.0 0.0
3.351 0.5010252594947815 0.5247991681098938 -0.0004914002493023872 0.0001993393525481224 0.0 0.0 0.0 0.0
3.352 0.5216487050056458 0.5029295682907104 -0.00015770737081766129 -0.0002483595162630081 0.0 0.0 0.0 0.0
3.353 0.5253943204879761 0.49607792496681213 0.00040704384446144104 -0.00023016147315502167 0.0 0.0 0.0 0.0
3.354 0.5446752309799194 0.4790956676006317 -0.0004647001624107361 0.00013614073395729065 0.0 0.0 0.0 0.0
3.355 0.5424888134002686 0.4703570604324341 -0.0002722274512052536 -0.0006998926401138306 0.0 0.0 0.0 0.0
3.356 0.5647059679031372 0.45036759972572327 0.00030667148530483246 -0.0004165051504969597 0.0 0.0 0.0 0.0
3.357 0.5687570571899414 0.43696102499961853 -0.0005053263157606125 -0.0005873069167137146 0.0 0.0 0.0 0.0
3.358 0.5783033967018127 0.42495226860046387 0.0003185216337442398 -0.0005485042929649353 0.0 0.0 0.0 0.0
3.359 0.5905983448028564 0.40509745478630066 0.0005133626982569695 -0.0002451399341225624 0.0 0.0 0.0 0.0
3.36 0.5965018272399902 0.38704484701156616 -0.00021961238235235214 -0.00011785794049501419 0.0 0.0 0.0 0.0
3.361 0.6081326603889465 0.36980700492858887 0.00033940747380256653 -0.0006088074296712875 0.0 0.0 0.0 0.0
3.362 0.6121119856834412 0.35784590244293213 0.000446932390332222 -0.0002581961452960968 0.0 0.0 0.0 0.0
3.363 0.6245265603065491 0.33457279205322266 -0.0004232637584209442 -0.0003121262416243553 0.0 0.0 0.0 0.0
3.364 0.6250521540641785 0.32308462262153625 8.963607251644135e-05 -0.0008744401857256889 0.0 0.0 0.0 0.0
3.365 0.6402719020843506 0.30283230543136597 0.00020417571067810059 0.0003103213384747505 0.0 0.0 0.0 0.0
3.366 0.641319751739502 0.28210338950157166 0.0006393240764737129 -6.299745291471481e-05 0.0 0.0 0.0 0.0
3.367 0.6452717185020447 0.27323439717292786 0.00019409414380788803 -0.0005530724301934242 0.0 0.0 0.0 0.0
3.368 0.6519287824630737 0.2523176372051239 -0.00021630153059959412 0.00039755553007125854 0.0 0.0 0.0 0.0
3.369 0.6563374996185303 0.23875775933265686 -0.00031175557523965836 -0.0007354728877544403 0.0 0.0 0.0 0.0
3.37 0.6637946367263794 0.20931290090084076 -7.885601371526718e-05 0.0002614036202430725 0.0 0.0 0.0 0.0
3.371 0.6604755520820618 0.20517492294311523 0.00013664551079273224 -0.0001147296279668808 0.0 0.0 0.0 0.0
3.372 0.6676071286201477 0.1713223159313202 0.00014715828001499176 -0.0008555082604289055 0.0 0.0 0.0 0.0
3.373 0.6675687432289124 0.1687365472316742 -0.00018168799579143524 -1.638103276491165e-05 0.0 0.0 0.0 0.0
3.374 0.6727966070175171 0.14029976725578308 -0.000375392846763134 -0.0002566846087574959 0.0 0.0 0.0 0.0
3.375 0.6717855334281921 0.1326383501291275 2.9139220714569092e-05 -0.0005526766180992126 0.0 0.0 0.0 0.0
3.376 0.678092896938324 0.10166901350021362 -4.222150892019272e-05 -0.0001666434109210968 0.0 0.0 0.0 0.0
3.377 0.6737550497055054 0.09203430265188217 -0.00024009216576814651 0.00033854786306619644 0.0 0.0 0.0 0.0
3.378 0.6770305037498474 0.06493604183197021 0.00021704565733671188 -0.0005464451387524605 0.0 0.0 0.0 0.0
3.379 0.6745973825454712 0.04476805776357651 -3.5725533962249756e-06 0.00013725925236940384 0.0 0.0 0.0 0.0
3.38 0.673275351524353 0.03412151336669922 -0.0008898666128516197 4.007481038570404e-05 0.0 0.0 0.0 0.0
3.381 0.6694930791854858 0.012946437112987041 0.00019666831940412521 0.00021231919527053833 0.0 0.0 0.0 0.0
3.382 0.6697330474853516 -0.008001727052032948 -0.00023309607058763504 -0.00078602135181427 0.0 0.0 0.0 0.0
3.383 0.6601980328559875 -0.026689931750297546 -0.000985901802778244 -0.00030797533690929413 0.0 0.0 0.0 0.0
3.384 0.6617916822433472 -0.03820860758423805 -0.000784730538725853 -0.0005167210474610329 0.0 0.0 0.0 0.0
3.385 0.6609029769897461 -0.06761500984430313 -9.255483746528625e-05 -0.0007254956290125847 0.0 0.0 0.0 0.0
3.386 0.6546167731285095 -0.07400289922952652 -0.0008916798979043961 -0.00047930609434843063 0.0 0.0 0.0 0.0
3.387 0.6519582271575928 -0.09763535857200623 -0.00031950511038303375 8.457712829113007e-05 0.0 0.0 0.0 0.0
3.388 0.6475258469581604 -0.1119600385427475 8.775107562541962e-05 -0.00015728361904621124 0.0 0.0 0.0 0.0
3.389 0.6416813731193542 -0.1418321579694748 -0.0003694286569952965 7.320847362279892e-05 0.0 0.0 0.0 0.0
3.39 0.631716251373291 -0.15307320654392242 -0.000805199146270752 -0.0005750274285674095 0.0 0.0 0.0 0.0
3.391 0.6257019639015198 -0.176346093416214 -0.0001619802787899971 -0.0003795819357037544 0.0 0.0 0.0 0.0
3.392 0.6214581727981567 -0.18582071363925934 6.497837603092194e-05 -8.614454418420792e-05 0.0 0.0 0.0 0.0
3.393 0.6112186312675476 -0.20571929216384888 -0.0009737927466630936 0.00027213338762521744 0.0 0.0 0.0 0.0
3.394 0.6022565960884094 -0.22280217707157135 2.687983214855194e-05 -0.0007776971906423569 0.0 0.0 0.0 0.0
3.395 0.5939709544181824 -0.23792003095149994 -0.0008980408310890198 -0.000407511368393898 0.0 0.0 0.0 0.0
3.396 0.582137405872345 -0.2606879770755768 -0.0007979776710271835 -0.0010074404999613762 0.0 0.0 0.0 0.0
3.397 0.5739166140556335 -0.2779499590396881 -0.00031631626188755035 -0.0004491005092859268 0.0 0.0 0.0 0.0
3.398 0.5616425275802612 -0.2919863760471344 -0.00014703068882226944 0.00014539528638124466 0.0 0.0 0.0 0.0
3.399 0.5504627823829651 -0.3065589964389801 -0.0010840725153684616 2.1442770957946777e-05 0.0 0.0 0.0 0.0
3.4 0.5354099273681641 -0.32514432072639465 -0.000974707305431366 -0.0005756868049502373 0.0 0.0 0.0 0.0
3.401 0.5306705236434937 -0.335903137922287 -0.00024389475584030151 0.0002927510067820549 0.0 0.0 0.0 0.0
3.402 0.5104452967643738 -0.35812968015670776 -0.0005063936114311218 -0.0004168665036559105 0.0 0.0 0.0 0.0
3.403 0.5016113519668579 -0.37002572417259216 -0.0005848109722137451 -0.0006561009213328362 0.0 0.0 0.0 0.0
3.404 0.4867146611213684 -0.3952069580554962 -0.0001287553459405899 0.00042457878589630127 0.0 0.0 0.0 0.0
3.405 0.46875059604644775 -0.40150347352027893 -0.0006600357592105865 0.0001376606523990631 0.0 0.0 0.0 0.0
3.406 0.4576517343521118 -0.4164089858531952 -0.00043612904846668243 -0.0006934972479939461 0.0 0.0 0.0 0.0
3.407 0.4415746331214905 -0.4315101206302643 -3.2532960176467896e-05 8.55904072523117e-05 0.0 0.0 0.0 0.0
3.408 0.42488741874694824 -0.4414597749710083 -0.0011451514437794685 -0.0002580927684903145 0.0 0.0 0.0 0.0
3.409 0.40699952840805054 -0.4626413583755493 -0.0002903379499912262 -0.0004281438887119293 0.0 0.0 0.0 0.0
3.41 0.3994608521461487 -0.46353766322135925 -7.990188896656036e-05 0.0001723356544971466 0.0 0.0 0.0 0.0
3.411 0.37078866362571716 -0.482892781496048 -0.00040963292121887207 -0.00042099691927433014 0.0 0.0 0.0 0.0
3.412 0.3624773621559143 -0.4900940954685211 -0.0006856592372059822 -0.00024539045989513397 0.0 0.0 0.0 0.0
3.413 0.33719882369041443 -0.5011917352676392 -0.00079386867582798 0.0005712117999792099 0.0 0.0 0.0 0.0
3.414 0.3160090744495392 -0.5085446834564209 -0.0012174956500530243 -0.0003253370523452759 0.0 0.0 0.0 0.0
3.415 0.28977128863334656 -0.5284208059310913 -0.0002969373017549515 -0.00030288565903902054 0.0 0.0 0.0 0.0
3.416 0.285840779542923 -0.5269402861595154 -0.0005454728379845619 0.000852702185511589 0.0 0.0 0.0 0.0
3.417 0.2566277086734772 -0.5405087471008301 -0.0006785979494452477 -0.0007535461336374283 0.0 0.0 0.0 0.0
3.418 0.2410540133714676 -0.549152672290802 4.319474101066589e-06 0.0006291763857007027 0.0 0.0 0.0 0.0
3.419 0.22146578133106232 -0.5542637705802917 -0.0005901381373405457 0.0011578891426324844 0.0 0.0 0.0 0.0
3.42 0.18939965963363647 -0.5641077756881714 -0.0014897026121616364 -6.189756095409393e-05 0.0 0.0 0.0 0.0
3.421 0.17579223215579987 -0.5675064921379089 -0.0005148136988282204 -0.0004614805802702904 0.0 0.0 0.0 0.0
3.422 0.1500779390335083 -0.5765231251716614 8.803792297840118e-06 0.0006519751623272896 0.0 0.0 0.0 0.0
3.423 0.13234208524227142 -0.5778749585151672 -0.0002986909821629524 0.00014619622379541397 0.0 0.0 0.0 0.0
3.424 0.10781853646039963 -0.583458423614502 -0.0006976788863539696 0.0009701335802674294 0.0 0.0 0.0 0.0
3.425 0.08960485458374023 -0.5860387682914734 -0.00020926911383867264 0.0005879160016775131 0.0 0.0 0.0 0.0
3.426 0.048928700387477875 -0.5821317434310913 -0.0007948474958539009 0.0001638941466808319 0.0 0.0 0.0 0.0
3.427 0.04372069984674454 -0.5884804725646973 -8.303672075271606e-05 3.88631597161293e-05 0.0 0.0 0.0 0.0
3.428 0.011990168131887913 -0.5830979347229004 -0.0010637091472744942 0.0006427736952900887 0.0 0.0 0.0 0.0
3.429 -0.004922980442643166 -0.5850929021835327 -0.00022162869572639465 0.0011762883514165878 0.0 0.0 0.0 0.0
3.43 -0.03496501222252846 -0.5834033489227295 -0.0005232095718383789 0.0014640111476182938 0.0 0.0 0.0 0.0
3.431 -0.05517549067735672 -0.5831673741340637 0.00032857805490493774 0.0004901653155684471 0.0 0.0 0.0 0.0
3.432 -0.08592698723077774 -0.5785185694694519 -0.0008056741207838058 2.913177013397217e-06 0.0 0.0 0.0 0.0
3.433 -0.1071341410279274 -0.5770519375801086 -8.285045623779297e-05 -4.145689308643341e-05 0.0 0.0 0.0 0.0
3.434 -0.1292857974767685 -0.56745845079422 -0.0009136078879237175 0.00029960088431835175 0.0 0.0 0.0 0.0
3.435 -0.1639813780784607 -0.5607653260231018 -0.000797581858932972 -7.246062159538269e-05 0.0 0.0 0.0 0.0
3.436 -0.17825931310653687 -0.5613987445831299 0.00011333823204040527 -0.00010085199028253555 0.0 0.0 0.0 0.0
3.437 -0.19846516847610474 -0.5430859327316284 -0.000378328375518322 0.0011426573619246483 0.0 0.0 0.0 0.0
3.438 -0.22003772854804993 -0.5365483164787292 -0.00048780348151922226 0.000807405449450016 0.0 0.0 0.0 0.0
3.439 -0.2526327967643738 -0.520813524723053 -0.0007185377180576324 0.0004483060911297798 0.0 0.0 0.0 0.0
3.44 -0.26955270767211914 -0.521056056022644 0.00016948767006397247 0.0002378588542342186 0.0 0.0 0.0 0.0
3.441 -0.2928234338760376 -0.5104812979698181 2.188887447118759e-05 0.0008499938994646072 0.0 0.0 0.0 0.0
3.442 -0.31451353430747986 -0.4886479079723358 -0.00043433625251054764 0.0002654651179909706 0.0 0.0 0.0 0.0
3.443 -0.34315890073776245 -0.4777063727378845 0.00028999242931604385 -3.698281943798065e-06 0.0 0.0 0.0 0.0
3.444 -0.36413851380348206 -0.46616774797439575 -0.0003730934113264084 2.810731530189514e-06 0.0 0.0 0.0 0.0
3.445 -0.38704386353492737 -0.44527798891067505 0.0006289519369602203 0.0004961369559168816 0.0 0.0 0.0 0.0
3.446 -0.39815181493759155 -0.4298340678215027 0.0004988908767700195 0.0010066665709018707 0.0 0.0 0.0 0.0
3.447 -0.4205242395401001 -0.408187597990036 -0.0006795600056648254 0.00019625574350357056 0.0 0.0 0.0 0.0
3.448 -0.4414837658405304 -0.39222174882888794 0.0006437394767999649 0.00010545644909143448 0.0 0.0 0.0 0.0
3.449 -0.4574642777442932 -0.37241315841674805 0.00020686909556388855 0.0011219670996069908 0.0 0.0 0.0 0.0
3.45 -0.4788541793823242 -0.34683799743652344 7.848162204027176e-05 -0.0007983213290572166 0.0 0.0 0.0 0.0
3.451 -0.4903500974178314 -0.3352760374546051 -0.0002003321424126625 0.00024578720331192017 0.0 0.0 0.0 0.0
3.452 -0.5089238286018372 -0.3037460446357727 0.0004918910562992096 0.000724276527762413 0.0 0.0 0.0 0.0
3.453 -0.5218325257301331 -0.2837623357772827 -0.0005690036341547966 -6.260722875595093e-05 0.0 0.0 0.0 0.0
3.454 -0.5406105518341064 -0.25903019309043884 0.0004007704555988312 -0.0001470651477575302 0.0 0.0 0.0 0.0
3.455 -0.542430579662323 -0.24170316755771637 0.0006714947521686554 0.00024123210459947586 0.0 0.0 0.0 0.0
3.456 -0.5674805641174316 -0.20153553783893585 -0.00040534231811761856 -0.00031106825917959213 0.0 0.0 0.0 0.0
3.457 -0.5706613659858704 -0.18756529688835144 0.00037934165447950363 -0.00016232766211032867 0.0 0.0 0.0 0.0
3.458 -0.5782716870307922 -0.16434523463249207 0.0006325999274849892 0.000819668173789978 0.0 0.0 0.0 0.0
3.459 -0.5880556106567383 -0.12995363771915436 -0.0005288040265440941 -0.0003996957093477249 0.0 0.0 0.0 0.0
3.46 -0.5956792831420898 -0.11325766891241074 0.000622287392616272 -2.1169893443584442e-05 0.0 0.0 0.0 0.0
3.461 -0.5988256931304932 -0.07951649278402328 0.0007072947919368744 0.0007732920348644257 0.0 0.0 0.0 0.0
3.462 -0.6044726967811584 -0.057227011770009995 -0.0001953383907675743 -0.00013625435531139374 0.0 0.0 0.0 0.0
3.463 -0.6105028390884399 -0.022654566913843155 0.0008339937776327133 -0.00033578649163246155 0.0 0.0 0.0 0.0
3.464 -0.6074835658073425 -0.0031519094482064247 0.00017126090824604034 0.0007913028821349144 0.0 0.0 0.0 0.0
3.465 -0.6127117872238159 0.03976649418473244 -0.0001582680270075798 -0.0003540143370628357 0.0 0.0 0.0 0.0
3.466 -0.6095282435417175 0.05295930430293083 0.0005648648366332054 0.0004879925400018692 0.0 0.0 0.0 0.0
3.467 -0.6073393225669861 0.08797892928123474 0.0004972470924258232 0.0004814034327864647 0.0 0.0 0.0 0.0
3.468 -0.6119994521141052 0.10291237384080887 0.0005697989836335182 -0.00041220523416996 0.0 0.0 0.0 0.0
3.469 -0.6019411683082581 0.14083698391914368 0.0008928123861551285 0.000649438239634037 0.0 0.0 0.0 0.0
3.47 -0.5953965187072754 0.16406044363975525 0.0007502669468522072 0.0006225807592272758 0.0 0.0 0.0 0.0
3.471 -0.5934308171272278 0.1968684196472168 -4.461873322725296e-05 -0.001039191149175167 0.0 0.0 0.0 0.0
3.472 -0.5809504985809326 0.2230406105518341 0.00028038956224918365 0.000804167240858078 0.0 0.0 0.0 0.0
3.473 -0.5721926093101501 0.2534649670124054 -0.0009230161085724831 0.0003530336543917656 0.0 0.0 0.0 0.0
3.474 -0.5677286982536316 0.27868378162384033 -0.00027922820299863815 -0.0008807806298136711 0.0 0.0 0.0 0.0
3.475 -0.5609650015830994 0.29817089438438416 0.0006568673998117447 -0.0004190802574157715 0.0 0.0 0.0 0.0
3.476 -0.5402746796607971 0.3230651915073395 0.0006653154268860817 0.0006019612774252892 0.0 0.0 0.0 0.0
3.477 -0.5338479280471802 0.34761691093444824 0.0004315050318837166 -0.0007661674171686172 0.0 0.0 0.0 0.0
3.478 -0.5088018178939819 0.3763551712036133 -0.0008125817403197289 0.00032643694430589676 0.0 0.0 0.0 0.0
3.479 -0.5036467909812927 0.38512110710144043 6.34361058473587e-05 0.0002620294690132141 0.0 0.0 0.0 0.0
3.48 -0.48586419224739075 0.42139190435409546 -0.00016072392463684082 -0.000507596880197525 0.0 0.0 0.0 0.0
3.481 -0.476709246635437 0.42881351709365845 0.0010456210002303123 4.941597580909729e-05 0.0 0.0 0.0 0.0
3.482 -0.4512128531932831 0.4565592408180237 3.57581302523613e-05 0.0008358899503946304 0.0 0.0 0.0 0.0
3.483 -0.4412839710712433 0.4724309742450714 -0.00018282514065504074 -0.0005943290889263153 0.0 0.0 0.0 0.0
3.484 -0.41431736946105957 0.4984499216079712 -0.0008691428229212761 -0.0006108712404966354 0.0 0.0 0.0 0.0
3.485 -0.3929733633995056 0.5093421936035156 0.00011650007218122482 0.00021639466285705566 0.0 0.0 0.0 0.0
3.486 -0.37770676612854004 0.5317940711975098 2.820417284965515e-05 -0.0011236565187573433 0.0 0.0 0.0 0.0
3.487 -0.353272408246994 0.5408967137336731 0.000656619668006897 -0.00012792926281690598 0.0 0.0 0.0 0.0
3.488 -0.3357749581336975 0.5591804385185242 0.00034717749804258347 0.00033453386276960373 0.0 0.0 0.0 0.0
3.489 -0.3160717785358429 0.5757386684417725 -0.0004114275798201561 -0.0008592745289206505 0.0 0.0 0.0 0.0
3.49 -0.29717230796813965 0.5882827639579773 -0.0003584055230021477 -0.0008684340864419937 0.0 0.0 0.0 0.0
3.491 -0.26621314883232117 0.5970413088798523 -0.00014520622789859772 0.000466344878077507 0.0 0.0 0.0 0.0
3.492 -0.250414103269577 0.6151379346847534 -8.703209459781647e-06 -0.0007683653384447098 0.0 0.0 0.0 0.0
3.493 -0.21926386654376984 0.6214598417282104 0.00017087720334529877 -0.00011580530554056168 0.0 0.0 0.0 0.0
3.494 -0.20774446427822113 0.6267769932746887 0.0006851106882095337 0.00011411961168050766 0.0 0.0 0.0 0.0
3.495 -0.1716773509979248 0.6396685242652893 0.00037211179733276367 -0.0006394796073436737 0.0 0.0 0.0 0.0
3.496 -0.1568613499403 0.6404181122779846 8.921977132558823e-05 -0.00025988463312387466 0.0 0.0 0.0 0.0
3.497 -0.1069643422961235 0.6525334119796753 -0.00010134652256965637 1.7059966921806335e-05 0.0 0.0 0.0 0.0
3.498 -0.10907803475856781 0.6571770906448364 0.0003165584057569504 -0.0008642077445983887 0.0 0.0 0.0 0.0
3.499 -0.07945095747709274 0.6634029150009155 -4.911329597234726e-05 -0.0010158047080039978 0.0 0.0 0.0 0.0
3.5 -0.05573868006467819 0.6659594178199768 0.00035185832530260086 -0.00039784517139196396 0.0 0.0 0.0 0.0
3.501 -0.03261270746588707 0.6683524250984192 -0.0006707878783345222 -0.001002144068479538 0.0 0.0 0.0 0.0
3.502 -0.0038704248145222664 0.6704981923103333 0.00015263445675373077 -0.000708920881152153 0.0 0.0 0.0 0.0
3.503 0.007811672054231167 0.6681774258613586 -0.0001360541209578514 0.00014796946197748184 0.0 0.0 0.0 0.0
3.504 0.042451679706573486 0.6714613437652588 0.00010436587035655975 -0.0006288755685091019 0.0 0.0 0.0 0.0
3.505 0.058374423533678055 0.670737087726593 0.00040656235069036484 -0.0005001556128263474 0.0 0.0 0.0 0.0
3.506 0.08725741505622864 0.6687076091766357 -0.0005091521888971329 -0.0009489003568887711 0.0 0.0 0.0 0.0
3.507 0.09886395931243896 0.6668635606765747 -0.0009390581399202347 -0.0012583332136273384 0.0 0.0 0.0 0.0
3.508 0.13138675689697266 0.6619930863380432 0.0002899058163166046 -0.0011707795783877373 0.0 0.0 0.0 0.0
3.509 0.1505061835050583 0.6591023206710815 -0.0009963857010006905 0.0008273543789982796 0.0 0.0 0.0 0.0
3.51 0.17157907783985138 0.652563750743866 -0.0002086171880364418 0.0007195817306637764 0.0 0.0 0.0 0.0
3.511 0.1964329183101654 0.6486320495605469 -0.001426185481250286 -0.001112476922571659 0.0 0.0 0.0 0.0
3.512 0.21873249113559723 0.637639045715332 2.167932689189911e-05 0.00027491524815559387 0.0 0.0 0.0 0.0
3.513 0.24500395357608795 0.6319777369499207 -0.000741804949939251 -0.0007460052147507668 0.0 0.0 0.0 0.0
3.514 0.247931107878685 0.6280142068862915 -0.0007993802428245544 0.0005391128361225128 0.0 0.0 0.0 0.0
3.515 0.27971982955932617 0.6170433759689331 -0.0007375134155154228 0.0005699535831809044 0.0 0.0 0.0 0.0
3.516 0.2952600419521332 0.6126536726951599 -0.0009711822494864464 -0.0009052678942680359 0.0 0.0 0.0 0.0
3.517 0.3148423731327057 0.5995239615440369 -0.0013930611312389374 9.942054748535156e-05 0.0 0.0 0.0 0.0
3.518 0.32794833183288574 0.5951998233795166 -0.0002176538109779358 -0.000280892476439476 0.0 0.0 0.0 0.0
3.519 0.3533497750759125 0.5851975679397583 -0.0015897918492555618 0.0005129128694534302 0.0 0.0 0.0 0.0
3.52 0.3664902448654175 0.5780887603759766 -0.0008657230064272881 0.0006999140605330467 0.0 0.0 0.0 0.0
3.521 0.38430070877075195 0.5586572885513306 -0.0008708024397492409 -0.0009071948006749153 0.0 0.0 0.0 0.0
3.522 0.40202710032463074 0.5458998680114746 -0.0008018519729375839 -0.0009821020066738129 0.0 0.0 0.0 0.0
3.523 0.41545942425727844 0.5397334694862366 -0.0016037719324231148 -0.0011466378346085548 0.0 0.0 0.0 0.0
3.524 0.43481728434562683 0.5216088891029358 -0.001776430755853653 -0.0005773995071649551 0.0 0.0 0.0 0.0
3.525 0.45471087098121643 0.5110357403755188 -0.001575365662574768 0.00029706209897994995 0.0 0.0 0.0 0.0
3.526 0.4731506407260895 0.49577784538269043 -0.0002938108518719673 -0.0004899809136986732 0.0 0.0 0.0 0.0
3.527 0.4752340316772461 0.4886670410633087 -0.001257752999663353 -0.0004535038024187088 0.0 0.0 0.0 0.0
3.528 0.4958966374397278 0.46623075008392334 -0.002041642554104328 0.0005967067554593086 0.0 0.0 0.0 0.0
3.529 0.5061461329460144 0.4589935839176178 -0.0011729840189218521 -0.0010478068143129349 0.0 0.0 0.0 0.0
3.53 0.5242183804512024 0.4373405873775482 -0.0017755329608917236 4.1507184505462646e-05 0.0 0.0 0.0 0.0
3.531 0.5268519520759583 0.4280704855918884 -0.0009097643196582794 -0.00036054011434316635 0.0 0.0 0.0 0.0
3.532 0.5540792942047119 0.40372273325920105 -0.0005324501544237137 4.0393322706222534e-05 0.0 0.0 0.0 0.0
3.533 0.5523640513420105 0.3930521607398987 -0.0009046876803040504 -0.0006437543779611588 0.0 0.0 0.0 0.0
3.534 0.5707988739013672 0.3797338604927063 -0.0018261540681123734 0.001350044272840023 0.0 0.0 0.0 0.0
3.535 0.5743587017059326 0.3689466118812561 -0.0005031665787100792 8.371658623218536e-05 0.0 0.0 0.0 0.0
3.536 0.5915495753288269 0.34519365429878235 -1.327507197856903e-05 6.419606506824493e-06 0.0 0.0 0.0 0.0
3.537 0.5991178154945374 0.32986414432525635 -0.0014705909416079521 0.0010109459981322289 0.0 0.0 0.0 0.0
3.538 0.604866623878479 0.31861236691474915 -0.0008356720209121704 0.0012895436957478523 0.0 0.0 0.0 0.0
3.539 0.612694263458252 0.2985421419143677 -0.001235881820321083 0.001070384867489338 0.0 0.0 0.0 0.0
3.54 0.6182252168655396 0.2902349829673767 -0.0009230123832821846 0.0011379122734069824 0.0 0.0 0.0 0.0
3.541 0.6344121694564819 0.26353949308395386 -0.0002975286915898323 0.00034321844577789307 0.0 0.0 0.0 0.0
3.542 0.6349753737449646 0.2568168044090271 -0.001603947952389717 0.0006624981760978699 0.0 0.0 0.0 0.0
3.543 0.6537230014801025 0.20956037938594818 -0.0010982770472764969 -0.0002782316878437996 0.0 0.0 0.0 0.0
3.544 0.6521374583244324 0.21976473927497864 -0.0009782416746020317 0.0010114405304193497 0.0 0.0 0.0 0.0
3.545 0.6539428234100342 0.19731399416923523 -0.001871350221335888 -0.0004757354035973549 0.0 0.0 0.0 0.0
3.546 0.6616529226303101 0.17798884212970734 -0.00032223109155893326 0.00022956077009439468 0.0 0.0 0.0 0.0
3.547 0.6673059463500977 0.1689053326845169 -0.002443249337375164 -0.00037971697747707367 0.0 0.0 0.0 0.0
3.548 0.6697522401809692 0.14244234561920166 -0.001095019280910492 -0.0005840705707669258 0.0 0.0 0.0 0.0
3.549 0.6697624325752258 0.1315671056509018 -0.0023503378033638 0.0009846771135926247 0.0 0.0 0.0 0.0
3.55 0.6815091371536255 0.09366358816623688 -0.0007144929841160774 -0.00043062400072813034 0.0 0.0 0.0 0.0
3.551 0.6822764277458191 0.10455221682786942 -0.0009656241163611412 0.0010126978158950806 0.0 0.0 0.0 0.0
3.552 0.6785545349121094 0.059630922973155975 -0.001262011006474495 -0.00032731425017118454 0.0 0.0 0.0 0.0
3.553 0.6863310933113098 0.053850896656513214 -0.0010531358420848846 0.00040565524250268936 0.0 0.0 0.0 0.0
3.554 0.6929218769073486 0.038240864872932434 -0.0009441068395972252 0.0009132437407970428 0.0 0.0 0.0 0.0
3.555 0.6800735592842102 0.02513711526989937 -0.001995726488530636 -0.00046584755182266235 0.0 0.0 0.0 0.0
3.556 0.6893167495727539 -0.002699430100619793 -0.00033478718250989914 0.00016075372695922852 0.0 0.0 0.0 0.0
3.557 0.6879808306694031 -0.015654336661100388 -0.0001927269622683525 0.0012170178815722466 0.0 0.0 0.0 0.0
3.558 0.6859087944030762 -0.030415771529078484 -0.00015979260206222534 -5.4826028645038605e-05 0.0 0.0 0.0 0.0
3.559 0.6805768609046936 -0.0489657036960125 -0.002197587862610817 0.0005895253270864487 0.0 0.0 0.0 0.0
3.56 0.6825411319732666 -0.06397300958633423 -0.0006652753800153732 0.0015010787174105644 0.0 0.0 0.0 0.0
3.561 0.679750382900238 -0.07794784754514694 -0.0023051630705595016 0.0005026916041970253 0.0 0.0 0.0 0.0
3.562 0.6804672479629517 -0.0929119810461998 -0.000825946219265461 0.00014315079897642136 0.0 0.0 0.0 0.0
3.563 0.6847630739212036 -0.1258854866027832 -0.00018925778567790985 0.0009524766355752945 0.0 0.0 0.0 0.0
3.564 0.6791765093803406 -0.13379926979541779 -0.000795888714492321 0.0015015294775366783 0.0 0.0 0.0 0.0
3.565 0.6728518009185791 -0.14606235921382904 -0.0017900243401527405 0.0014332551509141922 0.0 0.0 0.0 0.0
3.566 0.6676927208900452 -0.16934597492218018 -0.000747285783290863 0.00018387474119663239 0.0 0.0 0.0 0.0
3.567 0.6664520502090454 -0.18644952774047852 -6.75152987241745e-05 0.0003555668517947197 0.0 0.0 0.0 0.0
3.568 0.6583907008171082 -0.20386336743831635 -0.0003998987376689911 0.00013482943177223206 0.0 0.0 0.0 0.0
3.569 0.6599619388580322 -0.21628740429878235 -0.0009243478998541832 0.00253458134829998 0.0 0.0 0.0 0.0
3.57 0.6484878063201904 -0.23288194835186005 -0.0009580636397004128 0.001445620320737362 0.0 0.0 0.0 0.0
3.571 0.6428730487823486 -0.25220444798469543 -0.00255412794649601 0.0008476991206407547 0.0 0.0 0.0 0.0
3.572 0.6287000775337219 -0.26927369832992554 -0.001661200076341629 0.0016537941992282867 0.0 0.0 0.0 0.0
3.573 0.6262708902359009 -0.2802623510360718 -0.0016858959570527077 0.0011001350358128548 0.0 0.0 0.0 0.0
3.574 0.620607852935791 -0.301361083984375 -0.0012141875922679901 0.0016791485249996185 0.0 0.0 0.0 0.0
3.575 0.6216062903404236 -0.3092816472053528 -0.0005754381418228149 0.0014381222426891327 0.0 0.0 0.0 0.0
3.576 0.6031407713890076 -0.3421168029308319 -0.0013191960752010345 0.00028780754655599594 0.0 0.0 0.0 0.0
3.577 0.6052579879760742 -0.3392428457736969 -0.0007553808391094208 0.0018383581191301346 0.0 0.0 0.0 0.0
3.578 0.5913404226303101 -0.36045709252357483 -0.0014420542865991592 0.0013293717056512833 0.0 0.0 0.0 0.0
3.579 0.5844970941543579 -0.37751883268356323 -0.0006159776821732521 0.0015224078670144081 0.0 0.0 0.0 0.0
3.58 0.5685776472091675 -0.3973504304885864 -0.00022499263286590576 0.0003057299181818962 0.0 0.0 0.0 0.0
3.581 0.5573264956474304 -0.39862316846847534 -0.0019944552332162857 0.0004828525707125664 0.0 0.0 0.0 0.0
3.582 0.5472744107246399 -0.42784053087234497 -0.0003280686214566231 9.156949818134308e-05 0.0 0.0 0.0 0.0
3.583 0.5364478230476379 -0.4423980414867401 -0.0006277086213231087 0.0008637942373752594 0.0 0.0 0.0 0.0
3.584 0.5372132062911987 -0.44745367765426636 -0.0003659715875983238 0.002137974835932255 0.0 0.0 0.0 0.0
3.585 0.5108650922775269 -0.45933711528778076 -0.0017300331965088844 0.0011146999895572662 0.0 0.0 0.0 0.0
3.586 0.5046783685684204 -0.4754578471183777 0.00010178796947002411 0.0028591640293598175 0.0 0.0 0.0 0.0
3.587 0.4909208118915558 -0.495710551738739 -0.0005477666854858398 0.0006196554750204086 0.0 0.0 0.0 0.0
3.588 0.4800589084625244 -0.4993990957736969 -0.00029306020587682724 -1.2800097465515137e-05 0.0 0.0 0.0 0.0
3.589 0.4694082736968994 -0.5146399736404419 -0.0008288482204079628 0.0011629462242126465 0.0 0.0 0.0 0.0
3.59 0.46010735630989075 -0.5208333134651184 -0.0011376766487956047 0.0017668521031737328 0.0 0.0 0.0 0.0
3.591 0.4406770169734955 -0.5446234941482544 8.576083928346634e-05 0.00134964007884264 0.0 0.0 0.0 0.0
3.592 0.4284464418888092 -0.5423262715339661 -0.0020563360303640366 0.001822913996875286 0.0 0.0 0.0 0.0
3.593 0.40899786353111267 -0.555794894695282 -0.0012501077726483345 0.0001329435035586357 0.0 0.0 0.0 0.0
3.594 0.390553742647171 -0.5755763053894043 0.00021443143486976624 0.0014484794810414314 0.0 0.0 0.0 0.0
3.595 0.3823317885398865 -0.5840853452682495 2.6887282729148865e-05 0.0005468679592013359 0.0 0.0 0.0 0.0
3.596 0.35926946997642517 -0.5992482304573059 -4.9899332225322723e-05 0.0009507415816187859 0.0 0.0 0.0 0.0
3.597 0.35410621762275696 -0.5906283259391785 -0.0014064852148294449 0.002117336727678776 0.0 0.0 0.0 0.0
3.598 0.3258112967014313 -0.6120724081993103 -0.0006525609642267227 0.001964261755347252 0.0 0.0 0.0 0.0
3.599 0.3256506621837616 -0.6127741932868958 -0.000687730498611927 0.0020006969571113586 0.0 0.0 0.0 0.0
3.6 0.27487292885780334 -0.6353506445884705 -0.0012250058352947235 0.0012923534959554672 0.0 0.0 0.0 0.0
3.601 0.2760299742221832 -0.6270718574523926 -0.0012569157406687737 0.0013733981177210808 0.0 0.0 0.0 0.0
3.602 0.2504211962223053 -0.645474374294281 -0.001767975278198719 0.0011822143569588661 0.0 0.0 0.0 0.0
3.603 0.2388894259929657 -0.6566355228424072 6.090942770242691e-05 0.0012075621634721756 0.0 0.0 0.0 0.0
3.604 0.22849181294441223 -0.6615472435951233 -8.999742567539215e-05 0.0023158667609095573 0.0 0.0 0.0 0.0
3.605 0.18352963030338287 -0.6678379774093628 -0.0014138203114271164 0.0011457735672593117 0.0 0.0 0.0 0.0
3.606 0.18073125183582306 -0.6726871728897095 0.0004977947100996971 0.0020961835980415344 0.0 0.0 0.0 0.0
3.607 0.16579924523830414 -0.6751806139945984 0.00036632921546697617 0.001505805179476738 0.0 0.0 0.0 0.0
3.608 0.1388339102268219 -0.6823964715003967 -0.0008930647745728493 -3.9276666939258575e-05 0.0 0.0 0.0 0.0
3.609 0.12962384521961212 -0.6839145421981812 0.0001796521246433258 0.001258375123143196 0.0 0.0 0.0 0.0
3.61 0.1026867926120758 -0.686174213886261 -0.0008467445150017738 0.0003292066976428032 0.0 0.0 0.0 0.0
3.611 0.07870697975158691 -0.690829336643219 -0.00011762883514165878 0.002172849141061306 0.0 0.0 0.0 0.0
3.612 0.06739412993192673 -0.6865924596786499 -0.0012815957888960838 0.0012454017996788025 0.0 0.0 0.0 0.0
3.613 0.04527198523283005 -0.6947733759880066 -1.0358169674873352e-05 0.0019429000094532967 0.0 0.0 0.0 0.0
3.614 0.03057314269244671 -0.6900776624679565 -0.0007585408166050911 0.002116459421813488 0.0 0.0 0.0 0.0
3.615 -0.013948040083050728 -0.6907598376274109 -1.980457454919815e-05 7.230136543512344e-05 0.0 0.0 0.0 0.0
3.616 -0.025468342006206512 -0.691807746887207 -5.071796476840973e-05 0.0012349411845207214 0.0 0.0 0.0 0.0
3.617 -0.04521242901682854 -0.688351035118103 -0.0013561602681875229 0.0021268734708428383 0.0 0.0 0.0 0.0
3.618 -0.06509039551019669 -0.68842613697052 0.0005300538614392281 0.0011755619198083878 0.0 0.0 0.0 0.0
3.619 -0.08662097901105881 -0.6800925731658936 -0.0018476750701665878 0.0016423100605607033 0.0 0.0 0.0 0.0
3.62 -0.11274272203445435 -0.6739095449447632 -2.6931986212730408e-05 0.0018085362389683723 0.0 0.0 0.0 0.0
3.621 -0.13617414236068726 -0.6752719283103943 0.00026269257068634033 0.0003093332052230835 0.0 0.0 0.0 0.0
3.622 -0.15561293065547943 -0.6670088768005371 0.0002796398475766182 0.001598116010427475 0.0 0.0 0.0 0.0
3.623 -0.172525554895401 -0.666455090045929 0.00016481615602970123 0.0006631538271903992 0.0 0.0 0.0 0.0
3.624 -0.20765577256679535 -0.6442299485206604 -0.000757644884288311 0.0012461068108677864 0.0 0.0 0.0 0.0
3.625 -0.21162639558315277 -0.6441866755485535 -0.0008875522762537003 0.0013450859114527702 0.0 0.0 0.0 0.0
3.626 -0.237545445561409 -0.6373260617256165 9.828992187976837e-05 0.002072574570775032 0.0 0.0 0.0 0.0
3.627 -0.25321367383003235 -0.6246196627616882 -0.0008347900584340096 0.001350092701613903 0.0 0.0 0.0 0.0
3.628 -0.28672149777412415 -0.6209202408790588 0.0007605822756886482 0.0014642132446169853 0.0 0.0 0.0 0.0
3.629 -0.2984169125556946 -0.600555419921875 -0.0011791074648499489 0.0009892480447888374 0.0 0.0 0.0 0.0
3.63 -0.3199654817581177 -0.5988560914993286 0.00039980001747608185 0.001161038875579834 0.0 0.0 0.0 0.0
3.631 -0.3519637882709503 -0.5760951638221741 -0.0008274409919977188 0.0005728388205170631 0.0 0.0 0.0 0.0
3.632 -0.3624518811702728 -0.5649973750114441 -0.0006666798144578934 0.0017253439873456955 0.0 0.0 0.0 0.0
3.633 -0.3885941505432129 -0.5384563207626343 -0.001032734289765358 0.0010742302983999252 0.0 0.0 0.0 0.0
3.634 -0.395725816488266 -0.5332966446876526 -0.0010553300380706787 0.0012170244008302689 0.0 0.0 0.0 0.0
3.635 -0.4091636538505554 -0.5226306319236755 -0.0015528304502367973 0.0009779660031199455 0.0 0.0 0.0 0.0
3.636 -0.4418134391307831 -0.4976739287376404 0.00011799763888120651 0.0012897662818431854 0.0 0.0 0.0 0.0
3.637 -0.4561225175857544 -0.47966188192367554 -0.0011170348152518272 -0.00018032174557447433 0.0 0.0 0.0 0.0
3.638 -0.46941253542900085 -0.46226876974105835 -0.00017891917377710342 0.0008714227005839348 0.0 0.0 0.0 0.0
3.639 -0.4900471270084381 -0.44267067313194275 -0.0003776075318455696 0.00012708362191915512 0.0 0.0 0.0 0.0
3.64 -0.5014591813087463 -0.4164271652698517 0.00040449388325214386 0.0014824513345956802 0.0 0.0 0.0 0.0
3.641 -0.5122920870780945 -0.4045220911502838 -6.362143903970718e-05 0.0014752689749002457 0.0 0.0 0.0 0.0
3.642 -0.5330432653427124 -0.3677976727485657 -0.0006927493959665298 0.001372319646179676 0.0 0.0 0.0 0.0
3.643 -0.5361071228981018 -0.3545513153076172 -0.0007833857089281082 0.0010322565212845802 0.0 0.0 0.0 0.0
3.644 -0.5654032230377197 -0.31952595710754395 -0.0008647320792078972 0.0007070796564221382 0.0 0.0 0.0 0.0
3.645 -0.5607795715332031 -0.3055599629878998 -0.0007506478577852249 0.0019011171534657478 0.0 0.0 0.0 0.0
3.646 -0.5752098560333252 -0.27340713143348694 -0.0006877901032567024 0.001239253208041191 0.0 0.0 0.0 0.0
3.647 -0.5843096971511841 -0.2534104883670807 -0.00029054097831249237 0.000481639988720417 0.0 0.0 0.0 0.0
3.648 -0.5922830104827881 -0.22285938262939453 -0.00019620545208454132 0.001879040151834488 0.0 0.0 0.0 0.0
3.649 -0.5995854735374451 -0.202911376953125 -0.0005357963964343071 0.0003287568688392639 0.0 0.0 0.0 0.0
3.65 -0.6055507659912109 -0.176112100481987 -0.00048581231385469437 2.796761691570282e-06 0.0 0.0 0.0 0.0
3.651 -0.6093995571136475 -0.1401798278093338 -0.0007229363545775414 0.0008662622421979904 0.0 0.0 0.0 0.0
3.652 -0.6132696270942688 -0.12560731172561646 -0.0005842847749590874 0.00015253573656082153 0.0 0.0 0.0 0.0
3.653 -0.6140545606613159 -0.09408513456583023 -0.00028165895491838455 0.0008966336026787758 0.0 0.0 0.0 0.0
3.654 -0.6127588748931885 -0.06852836161851883 -0.00039292220026254654 0.0017813220620155334 0.0 0.0 0.0 0.0
3.655 -0.6128267645835876 -0.05203045532107353 -0.00020966865122318268 0.0011812755838036537 0.0 0.0 0.0 0.0
3.656 -0.6133943796157837 -0.01750384084880352 -0.00023941416293382645 0.0003481600433588028 0.0 0.0 0.0 0.0
3.657 -0.6133653521537781 0.018084976822137833 -0.0002326667308807373 0.0003809928894042969 0.0 0.0 0.0 0.0
3.658 -0.5985701084136963 0.03568123281002045 -0.0011354265734553337 0.001509539783000946 0.0 0.0 0.0 0.0
3.659 -0.601730227470398 0.07807362824678421 -0.0007376018911600113 0.00011563394218683243 0.0 0.0 0.0 0.0
3.66 -0.5911235213279724 0.09239561855792999 -0.001285403035581112 0.0006966032087802887 0.0 0.0 0.0 0.0
3.661 -0.5851144790649414 0.13079537451267242 -0.0017379531636834145 0.00022508855909109116 0.0 0.0 0.0 0.0
3.662 -0.5804101228713989 0.15062251687049866 6.38328492641449e-06 0.0005517639219760895 0.0 0.0 0.0 0.0
3.663 -0.5712279081344604 0.17783433198928833 0.0002331053838133812 0.0006567118689417839 0.0 0.0 0.0 0.0
3.664 -0.5544032454490662 0.19660291075706482 -0.000179387629032135 0.0014377646148204803 0.0 0.0 0.0 0.0
3.665 -0.550836980342865 0.22629256546497345 -4.168786108493805e-05 0.0006727622821927071 0.0 0.0 0.0 0.0
3.666 -0.5312226414680481 0.261555939912796 -0.000593394972383976 0.0008766679093241692 0.0 0.0 0.0 0.0
3.667 -0.5153388381004333 0.2780597507953644 -0.0008178269490599632 0.0009076334536075592 0.0 0.0 0.0 0.0
3.668 -0.49591994285583496 0.3018401861190796 -0.0006634602323174477 0.0010213414207100868 0.0 0.0 0.0 0.0
3.669 -0.4845869541168213 0.3188810348510742 -0.0012186896055936813 0.0003793826326727867 0.0 0.0 0.0 0.0
3.67 -0.4666644334793091 0.34691640734672546 -0.0005881600081920624 0.000677463598549366 0.0 0.0 0.0 0.0
3.671 -0.45352044701576233 0.3588173985481262 -0.0010057007893919945 0.0009490903466939926 0.0 0.0 0.0 0.0
3.672 -0.42981618642807007 0.3878166973590851 -0.001043706201016903 0.0015576593577861786 0.0 0.0 0.0 0.0
3.673 -0.41629472374916077 0.401902437210083 -3.058183938264847e-05 0.001230570487678051 0.0 0.0 0.0 0.0
3.674 -0.39086732268333435 0.42081841826438904 6.115995347499847e-05 0.0009046737104654312 0.0 0.0 0.0 0.0
3.675 -0.367362916469574 0.4384912848472595 -0.00039462558925151825 0.00196691881865263 0.0 0.0 0.0 0.0
3.676 -0.3442828059196472 0.452048122882843 -0.0011557340621948242 0.0016810130327939987 0.0 0.0 0.0 0.0
3.677 -0.3245418667793274 0.4662867486476898 -0.0007439218461513519 0.0012992657721042633 0.0 0.0 0.0 0.0
3.678 -0.3073856234550476 0.48427608609199524 -0.00038755591958761215 0.0007760040462017059 0.0 0.0 0.0 0.0
3.679 -0.2666282653808594 0.5003804564476013 -0.0012004943564534187 0.0013030925765633583 0.0 0.0 0.0 0.0
3.68 -0.2571445405483246 0.5095165967941284 -0.00014257803559303284 0.0018928162753582 0.0 0.0 0.0 0.0
3.681 -0.24288830161094666 0.512886106967926 -0.0006079990416765213 0.0016991132870316505 0.0 0.0 0.0 0.0
3.682 -0.2109353393316269 0.5289086103439331 -0.0011049425229430199 0.0006193406879901886 0.0 0.0 0.0 0.0
3.683 -0.18033555150032043 0.5363524556159973 -0.0005860850214958191 0.0018999706953763962 0.0 0.0 0.0 0.0
3.684 -0.15388444066047668 0.5466376543045044 -0.0014078766107559204 0.0010276250541210175 0.0 0.0 0.0 0.0
3.685 -0.1265227049589157 0.5560734272003174 -0.0012812744826078415 0.0009765215218067169 0.0 0.0 0.0 0.0
3.686 -0.0999833345413208 0.5620215535163879 -0.0007198536768555641 0.0016371486708521843 0.0 0.0 0.0 0.0
3.687 -0.08372219651937485 0.5616245865821838 -0.000853261910378933 0.00064893439412117 0.0 0.0 0.0 0.0
3.688 -0.0518333837389946 0.5660437345504761 0.00037620775401592255 0.0020292215049266815 0.0 0.0 0.0 0.0
3.689 -0.02905106171965599 0.5721323490142822 -0.0004426483064889908 0.0012941276654601097 0.0 0.0 0.0 0.0
3.69 0.003034878522157669 0.57098388671875 -0.00021739117801189423 0.0013163499534130096 0.0 0.0 0.0 0.0
3.691 0.014274276793003082 0.5683014392852783 -0.0008478192612528801 0.002159024588763714 0.0 0.0 0.0 0.0
3.692 0.0477137565612793 0.5731245279312134 -0.0007109744474291801 0.0020744558423757553 0.0 0.0 0.0 0.0
3.693 0.07265976071357727 0.5671676397323608 0.000186162069439888 0.0015376843512058258 0.0 0.0 0.0 0.0
3.694 0.0961153581738472 0.5660918354988098 -0.00012682657688856125 0.0021143248304724693 0.0 0.0 0.0 0.0
3.695 0.11797800660133362 0.5624758005142212 -0.0004111863672733307 0.0011822385713458061 0.0 0.0 0.0 0.0
3.696 0.1511518657207489 0.5528002381324768 0.00013843923807144165 0.0014665806666016579 0.0 0.0 0.0 0.0
3.697 0.16404402256011963 0.5559921860694885 0.000138869509100914 0.0019229631870985031 0.0 0.0 0.0 0.0
3.698 0.1915254294872284 0.5541118383407593 -0.0004467768594622612 0.0017090095207095146 0.0 0.0 0.0 0.0
3.699 0.21674303710460663 0.5365298986434937 0.0003179265186190605 0.00216884259134531 0.0 0.0 0.0 0.0
3.7 0.2316628396511078 0.5406803488731384 -0.00017284788191318512 0.0015829773619771004 0.0 0.0 0.0 0.0
3.701 0.2600438892841339 0.5214317440986633 -0.0006446372717618942 0.001180051825940609 0.0 0.0 0.0 0.0
3.702 0.276111900806427 0.5145472288131714 0.0005238493904471397 0.0024849707260727882 0.0 0.0 0.0 0.0
3.703 0.30417492985725403 0.5019317269325256 -0.0007131025195121765 0.002205461263656616 0.0 0.0 0.0 0.0
3.704 0.314659059047699 0.5014306902885437 -0.0011343946680426598 0.0019591283053159714 0.0 0.0 0.0 0.0
3.705 0.33895373344421387 0.4854479134082794 -0.0009476235136389732 0.002320307306945324 0.0 0.0 0.0 0.0
3.706 0.3519737422466278 0.4727558195590973 -0.0007374882698059082 0.0030008601024746895 0.0 0.0 0.0 0.0
3.707 0.3802299499511719 0.46359890699386597 -0.00011318642646074295 0.0013537732884287834 0.0 0.0 0.0 0.0
3.708 0.38814833760261536 0.4497976005077362 2.1195970475673676e-05 0.0022842613980174065 0.0 0.0 0.0 0.0
3.709 0.41829127073287964 0.43984752893447876 3.3865682780742645e-05 0.0019958531484007835 0.0 0.0 0.0 0.0
3.71 0.4276350140571594 0.42276421189308167 -0.00011919252574443817 0.0016509713605046272 0.0 0.0 0.0 0.0
3.711 0.4433521330356598 0.40788066387176514 0.00031832512468099594 0.0018557030707597733 0.0 0.0 0.0 0.0
3.712 0.46738120913505554 0.3890300691127777 0.0007885470986366272 0.0020824745297431946 0.0 0.0 0.0 0.0
3.713 0.47275206446647644 0.38111042976379395 -0.00010300800204277039 0.0016489196568727493 0.0 0.0 0.0 0.0
3.714 0.49118077754974365 0.36191990971565247 -0.00012010801583528519 0.0016108425334095955 0.0 0.0 0.0 0.0
3.715 0.5047749876976013 0.35412463545799255 0.0006939098238945007 0.0021958304569125175 0.0 0.0 0.0 0.0
3.716 0.5172957181930542 0.33291056752204895 -0.0005085403099656105 0.0014988332986831665 0.0 0.0 0.0 0.0
3.717 0.5307641625404358 0.32633697986602783 -0.0007881196215748787 0.001751675270497799 0.0 0.0 0.0 0.0
3.718 0.5448674559593201 0.29889217019081116 -0.0005605025216937065 0.00219146441668272 0.0 0.0 0.0 0.0
3.719 0.5550589561462402 0.29209768772125244 -0.0006808154284954071 0.0021338919177651405 0.0 0.0 0.0 0.0
3.72 0.574476957321167 0.26542070508003235 0.000705924816429615 0.0015310794115066528 0.0 0.0 0.0 0.0
3.721 0.572022557258606 0.25541210174560547 -0.0010197823867201805 0.002243936061859131 0.0 0.0 0.0 0.0
3.722 0.5922400951385498 0.23811222612857819 0.000715937465429306 0.001474558375775814 0.0 0.0 0.0 0.0
3.723 0.5891913771629333 0.21700546145439148 -0.00041970424354076385 0.003553486429154873 0.0 0.0 0.0 0.0
3.724 0.606127142906189 0.2150018811225891 0.0010139727964997292 0.0023335712030529976 0.0 0.0 0.0 0.0
3.725 0.6092461943626404 0.178794264793396 0.00038397498428821564 0.0017648888751864433 0.0 0.0 0.0 0.0
3.726 0.6167933940887451 0.1645585596561432 0.0004876246675848961 0.0020209746435284615 0.0 0.0 0.0 0.0
3.727 0.6266154050827026 0.16324885189533234 0.0016818316653370857 0.0008229110389947891 0.0 0.0 0.0 0.0
3.728 0.6343005299568176 0.1346246749162674 -0.0007143178954720497 0.0022343024611473083 0.0 0.0 0.0 0.0
3.729 0.6420843601226807 0.10181842744350433 -0.00017683766782283783 0.0017918283119797707 0.0 0.0 0.0 0.0
3.73 0.6389514207839966 0.11164359748363495 0.0025490354746580124 0.0004540560767054558 0.0 0.0 0.0 0.0
3.731 0.6548720598220825 0.06343997269868851 0.000119832344353199 0.002302182838320732 0.0 0.0 0.0 0.0
3.732 0.6596003174781799 0.059784870594739914 -0.0006043137982487679 8.368212729692459e-05 0.0 0.0 0.0 0.0
3.733 0.6476206183433533 0.04254000633955002 -0.00013505853712558746 0.0010170834138989449 0.0 0.0 0.0 0.0
3.734 0.6573917269706726 0.03519408032298088 0.0017271852120757103 0.0022049881517887115 0.0 0.0 0.0 0.0
3.735 0.653465211391449 0.0034332210198044777 0.0003871740773320198 0.002084464766085148 0.0 0.0 0.0 0.0
3.736 0.6721764206886292 -0.011382615193724632 0.002393319271504879 0.0018398622050881386 0.0 0.0 0.0 0.0
3.737 0.6678579449653625 -0.022385668009519577 0.002238859422504902 0.0027591949328780174 0.0 0.0 0.0 0.0
3.738 0.6623137593269348 -0.04381871968507767 0.00035168882459402084 0.0022110622376203537 0.0 0.0 0.0 0.0
3.739 0.6671876311302185 -0.06007705628871918 -0.0016495399177074432 0.0030342470854520798 0.0 0.0 0.0 0.0
3.74 0.6665297150611877 -0.09180428087711334 0.0017020944505929947 0.000615214928984642 0.0 0.0 0.0 0.0
3.741 0.6705093383789062 -0.09296931326389313 -0.0002674674615263939 0.002663329243659973 0.0 0.0 0.0 0.0
3.742 0.6688266396522522 -0.13315322995185852 0.00044512562453746796 0.0012353379279375076 0.0 0.0 0.0 0.0
3.743 0.6698551177978516 -0.12042420357465744 0.0023906556889414787 0.0002815471962094307 0.0 0.0 0.0 0.0
3.744 0.662009060382843 -0.16541688144207 0.00030943751335144043 0.00021591689437627792 0.0 0.0 0.0 0.0
3.745 0.6686669588088989 -0.16624270379543304 0.002589319832623005 -0.00022552814334630966 0.0 0.0 0.0 0.0
3.746 0.6651728749275208 -0.17545630037784576 0.0013668853789567947 0.0029747644439339638 0.0 0.0 0.0 0.0
3.747 0.6642123460769653 -0.20653289556503296 0.001788862980902195 0.00038217660039663315 0.0 0.0 0.0 0.0
3.748 0.6642974019050598 -0.20650528371334076 0.002980039454996586 0.00237447302788496 0.0 0.0 0.0 0.0
3.749 0.6391222476959229 -0.23477549850940704 7.374212145805359e-05 0.0002779541537165642 0.0 0.0 0.0 0.0
3.75 0.6470061540603638 -0.25129520893096924 0.0022417735308408737 7.645227015018463e-05 0.0 0.0 0.0 0.0
3.751 0.6394053101539612 -0.26888328790664673 -4.5462511479854584e-05 0.002020549029111862 0.0 0.0 0.0 0.0
3.752 0.633991539478302 -0.27713993191719055 0.0006130095571279526 -0.0010322760790586472 0.0 0.0 0.0 0.0
3.753 0.6225547194480896 -0.2952226400375366 0.0005946224555373192 0.0032530948519706726 0.0 0.0 0.0 0.0
3.754 0.6255737543106079 -0.3041265904903412 -0.0017556827515363693 0.001772935502231121 0.0 0.0 0.0 0.0
3.755 0.625117301940918 -0.33661189675331116 0.0015550628304481506 -0.00044061150401830673 0.0 0.0 0.0 0.0
3.756 0.613095760345459 -0.3444770574569702 0.00018480047583580017 -0.0006852811202406883 0.0 0.0 0.0 0.0
3.757 0.6091216802597046 -0.3699440360069275 0.0013763625174760818 0.001225735992193222 0.0 0.0 0.0 0.0
3.758 0.5988147854804993 -0.37474170327186584 5.906447768211365e-06 0.00012634973973035812 0.0 0.0 0.0 0.0
3.759 0.5922868847846985 -0.3811649680137634 0.0005244407802820206 0.0031319530680775642 0.0 0.0 0.0 0.0
3.76 0.5797010064125061 -0.39487317204475403 0.0016171075403690338 0.002811056561768055 0.0 0.0 0.0 0.0
3.761 0.5883201360702515 -0.4271736443042755 0.0027471110224723816 -0.0007582921534776688 0.0 0.0 0.0 0.0
3.762 0.5678041577339172 -0.4483155906200409 0.0023140665143728256 -0.0009708795696496964 0.0 0.0 0.0 0.0
3.763 0.5732840299606323 -0.4438161253929138 0.0024615712463855743 0.0017618918791413307 0.0 0.0 0.0 0.0
3.764 0.551523745059967 -0.46835359930992126 0.0022094817832112312 -0.0004291124641895294 0.0 0.0 0.0 0.0
3.765 0.5517705082893372 -0.4726683795452118 0.004111099988222122 0.002629302442073822 0.0 0.0 0.0 0.0
3.766 0.5314878225326538 -0.49882835149765015 0.002240678295493126 -0.00152607262134552 0.0 0.0 0.0 0.0
3.767 0.5300700664520264 -0.48875612020492554 0.0025238124653697014 0.0027901865541934967 0.0 0.0 0.0 0.0
3.768 0.5109001994132996 -0.5222077965736389 0.0024038972333073616 -0.0023499224334955215 0.0 0.0 0.0 0.0
3.769 0.5121406316757202 -0.512339174747467 0.004187881015241146 0.0004333155229687691 0.0 0.0 0.0 0.0
3.77 0.4925721287727356 -0.5437392592430115 0.002163033001124859 -0.0011583967134356499 0.0 0.0 0.0 0.0
3.771 0.47723641991615295 -0.5392061471939087 -0.0008789477869868279 0.002730634994804859 0.0 0.0 0.0 0.0
3.772 0.46400198340415955 -0.5759592652320862 0.0011511985212564468 -0.0014070328325033188 0.0 0.0 0.0 0.0
3.773 0.46188727021217346 -0.5754300355911255 0.0021538976579904556 -0.0004448890686035156 0.0 0.0 0.0 0.0
3.774 0.450437992811203 -0.5945253372192383 0.0029174815863370895 -0.0012473613023757935 0.0 0.0 0.0 0.0
3.775 0.4259299635887146 -0.6005390286445618 0.0024356739595532417 -0.0009110616520047188 0.0 0.0 0.0 0.0
3.776 0.43446463346481323 -0.599163293838501 0.0031477781012654305 0.0025253621861338615 0.0 0.0 0.0 0.0
3.777 0.4032747447490692 -0.6127628087997437 0.0030930815264582634 0.0017446978017687798 0.0 0.0 0.0 0.0
3.778 0.3984192907810211 -0.6081704497337341 0.0012952089309692383 0.003083295188844204 0.0 0.0 0.0 0.0
3.779 0.3634960949420929 -0.647980809211731 0.0012422092258930206 -0.003346409648656845 0.0 0.0 0.0 0.0
3.78 0.35846981406211853 -0.6345467567443848 -0.0008625946938991547 -0.00040128733962774277 0.0 0.0 0.0 0.0
3.781 0.34999409317970276 -0.6383163332939148 0.003788437694311142 0.0018911100924015045 0.0 0.0 0.0 0.0
3.782 0.335808664560318 -0.6527324318885803 0.001685374416410923 -0.002168041653931141 0.0 0.0 0.0 0.0
3.783 0.32868385314941406 -0.6507164239883423 0.004383633844554424 0.0016428744420409203 0.0 0.0 0.0 0.0
3.784 0.30806201696395874 -0.6569504141807556 0.00448520015925169 -0.001133030280470848 0.0 0.0 0.0 0.0
3.785 0.28763341903686523 -0.6930906176567078 0.001459326595067978 -0.0017955303192138672 0.0 0.0 0.0 0.0
3.786 0.2658379375934601 -0.6753432154655457 0.0014714570716023445 0.0026380345225334167 0.0 0.0 0.0 0.0
3.787 0.2691571116447449 -0.6755907535552979 -0.0022910069674253464 0.000865464098751545 0.0 0.0 0.0 0.0
3.788 0.2355247437953949 -0.7087284922599792 0.0024641817435622215 -0.0026994170621037483 0.0 0.0 0.0 0.0
3.789 0.2391669899225235 -0.6926589608192444 -0.0003825835883617401 0.001991095021367073 0.0 0.0 0.0 0.0
3.79 0.19806836545467377 -0.696061909198761 -0.00019505806267261505 0.002679993398487568 0.0 0.0 0.0 0.0
3.791 0.20662198960781097 -0.7131430506706238 0.005803557112812996 -0.0004457170143723488 0.0 0.0 0.0 0.0
3.792 0.1565052568912506 -0.7219715118408203 0.00046655721962451935 -0.003118596039712429 0.0 0.0 0.0 0.0
3.793 0.15249814093112946 -0.7114105224609375 -0.000456174835562706 0.0030918866395950317 0.0 0.0 0.0 0.0
3.794 0.15962927043437958 -0.7058169841766357 0.0034026438370347023 0.003079622983932495 0.0 0.0 0.0 0.0
3.795 0.13525229692459106 -0.7305247187614441 0.0023576784878969193 -0.004290053620934486 0.0 0.0 0.0 0.0
3.796 0.12379157543182373 -0.7214773297309875 0.0033066943287849426 0.001524604856967926 0.0 0.0 0.0 0.0
3.797 0.0905425101518631 -0.7141423225402832 0.0019377302378416061 0.0025789178907871246 0.0 0.0 0.0 0.0
3.798 0.09681706875562668 -0.738019585609436 0.004958281293511391 5.821697413921356e-05 0.0 0.0 0.0 0.0
3.799 0.050569094717502594 -0.7120163440704346 0.00030766241252422333 0.003952009603381157 0.0 0.0 0.0 0.0
3.8 0.020394012331962585 -0.7299814224243164 -0.0011649718508124352 -0.0012253960594534874 0.0 0.0 0.0 0.0
3.801 0.026855800300836563 -0.7122649550437927 0.002589321695268154 0.0030632177367806435 0.0 0.0 0.0 0.0
3.802 0.017940383404493332 -0.7175805568695068 0.0016020406037569046 0.0026028938591480255 0.0 0.0 0.0 0.0
3.803 -0.043730124831199646 -0.7256371378898621 -0.0017787758260965347 -0.0001038331538438797 0.0 0.0 0.0 0.0
3.804 -0.011907466687262058 -0.7208317518234253 0.004270262084901333 0.0032741744071245193 0.0 0.0 0.0 0.0
3.805 -0.07263507694005966 -0.7168155312538147 -0.00035660620778799057 -0.0009479532018303871 0.0 0.0 0.0 0.0
3.806 -0.052097856998443604 -0.7296927571296692 0.004545451141893864 -0.0006032837554812431 0.0 0.0 0.0 0.0
3.807 -0.10478992760181427 -0.7244482040405273 -0.000643865205347538 -0.0029151933267712593 0.0 0.0 0.0 0.0
3.808 -0.11773660778999329 -0.7151572704315186 -0.0027383090928196907 -0.001740223728120327 0.0 0.0 0.0 0.0
3.809 -0.1340896636247635 -0.727811336517334 0.00267587136477232 -0.0037332801148295403 0.0 0.0 0.0 0.0
3.81 -0.15305189788341522 -0.7180298566818237 0.00022233370691537857 -0.004581945948302746 0.0 0.0 0.0 0.0
3.811 -0.13050802052021027 -0.7005878686904907 0.004920772276818752 0.0014296509325504303 0.0 0.0 0.0 0.0
3.812 -0.20536744594573975 -0.6846433281898499 -0.0031346743926405907 -0.0003155553713440895 0.0 0.0 0.0 0.0
3.813 -0.22458864748477936 -0.6839240789413452 -0.0013631554320454597 -0.001572541892528534 0.0 0.0 0.0 0.0
3.814 -0.232218936085701 -0.6954331398010254 0.0012249359861016273 -0.004887636750936508 0.0 0.0 0.0 0.0
3.815 -0.25070449709892273 -0.6551036238670349 -0.0012589916586875916 -0.0023062797263264656 0.0 0.0 0.0 0.0
3.816 -0.2730928361415863 -0.6631568670272827 0.00035063084214925766 -0.0047166114673018456 0.0 0.0 0.0 0.0
3.817 -0.2550242841243744 -0.6580235958099365 0.005226275883615017 0.00012744497507810593 0.0 0.0 0.0 0.0
3.818 -0.2815154194831848 -0.6235293745994568 0.0019450988620519638 0.0009216172620654106 0.0 0.0 0.0 0.0
3.819 -0.30249112844467163 -0.610332727432251 0.0018592970445752144 0.004751523025333881 0.0 0.0 0.0 0.0
3.82 -0.32852405309677124 -0.5940269827842712 -0.00028570927679538727 0.001101459376513958 0.0 0.0 0.0 0.0
3.821 -0.330264151096344 -0.5893488526344299 0.0010252036154270172 0.0024162838235497475 0.0 0.0 0.0 0.0
3.822 -0.35958340764045715 -0.6168320178985596 0.0025163432583212852 -0.003924407996237278 0.0 0.0 0.0 0.0
3.823 -0.356429785490036 -0.5845063328742981 0.004043806344270706 -0.002131471410393715 0.0 0.0 0.0 0.0
3.824 -0.3696580231189728 -0.5526903867721558 3.799237310886383e-05 0.0030277837067842484 0.0 0.0 0.0 0.0
3.825 -0.39588478207588196 -0.5555597543716431 0.002981020137667656 -0.002146790735423565 0.0 0.0 0.0 0.0
3.826 -0.4180643558502197 -0.546751856803894 0.005326119251549244 -0.001548505388200283 0.0 0.0 0.0 0.0
3.827 -0.4151167869567871 -0.5103996396064758 0.002498369663953781 0.0028407759964466095 0.0 0.0 0.0 0.0
3.828 -0.45486849546432495 -0.49567872285842896 -0.0035475464537739754 -0.003522145561873913 0.0 0.0 0.0 0.0
3.829 -0.4746856391429901 -0.4598693549633026 -0.0032551921904087067 -0.0015876665711402893 0.0 0.0 0.0 0.0
3.83 -0.4776751697063446 -0.46633005142211914 -0.0014541642740368843 -0.0055283550173044205 0.0 0.0 0.0 0.0
3.831 -0.5054075717926025 -0.42842745780944824 -0.003092030994594097 -0.001940120942890644 0.0 0.0 0.0 0.0
3.832 -0.5028796195983887 -0.4208083152770996 -0.003979948349297047 -0.0002938592806458473 0.0 0.0 0.0 0.0
3.833 -0.51613849401474 -0.41578540205955505 0.0008548237383365631 -0.004198850132524967 0.0 0.0 0.0 0.0
3.834 -0.5334171056747437 -0.3686278462409973 -0.00215170718729496 0.0016026422381401062 0.0 0.0 0.0 0.0
3.835 -0.5372990369796753 -0.3615635335445404 -0.001420983113348484 -0.003654251806437969 0.0 0.0 0.0 0.0
3.836 -0.5349826216697693 -0.3511948883533478 0.0034534670412540436 -0.003224894404411316 0.0 0.0 0.0 0.0
3.837 -0.5299267768859863 -0.30880501866340637 -7.619708776473999e-05 0.0021430281922221184 0.0 0.0 0.0 0.0
3.838 -0.5669271945953369 -0.28554776310920715 -0.00036906078457832336 -0.004298302344977856 0.0 0.0 0.0 0.0
3.839 -0.5571175813674927 -0.28447651863098145 0.005238000303506851 -0.004371762275695801 0.0 0.0 0.0 0.0
3.84 -0.5538344383239746 -0.21157389879226685 -0.0031862305477261543 0.0006109680980443954 0.0 0.0 0.0 0.0
3.841 -0.5654417872428894 -0.2379780113697052 -0.0018378263339400291 -0.0052461326122283936 0.0 0.0 0.0 0.0
3.842 -0.5530655384063721 -0.2068944275379181 0.008219231851398945 -0.0013942578807473183 0.0 0.0 0.0 0.0
3.843 -0.5679677724838257 -0.16339656710624695 -0.0019072815775871277 -9.01930034160614e-05 0.0 0.0 0.0 0.0
3.844 -0.5735790729522705 -0.16713368892669678 0.002340148203074932 -0.00476642232388258 0.0 0.0 0.0 0.0
3.845 -0.5421143174171448 -0.12256128340959549 0.004270724952220917 0.003800954669713974 0.0 0.0 0.0 0.0
3.846 -0.5709304809570312 -0.11735966056585312 0.005614197812974453 -0.0036684460937976837 0.0 0.0 0.0 0.0
3.847 -0.5378763675689697 -0.07229398190975189 0.004257158376276493 7.05178827047348e-05 0.0 0.0 0.0 0.0
3.848 -0.5454992651939392 -0.07008172571659088 0.006181300617754459 -0.0003193588927388191 0.0 0.0 0.0 0.0
3.849 -0.5592485070228577 -0.041696611791849136 0.005598744377493858 -0.004393593408167362 0.0 0.0 0.0 0.0
3.85 -0.5350120067596436 -0.020804326981306076 0.0051830727607011795 0.0008468180894851685 0.0 0.0 0.0 0.0
3.851 -0.5371514558792114 0.040624044835567474 -0.001954309642314911 0.0004200441762804985 0.0 0.0 0.0 0.0
3.852 -0.5477125644683838 0.04785149171948433 0.00043570809066295624 -0.004239288158714771 0.0 0.0 0.0 0.0
3.853 -0.5089778900146484 0.0803171843290329 0.002952289767563343 0.0021140407770872116 0.0 0.0 0.0 0.0
3.854 -0.5113111734390259 0.09600142389535904 -0.0016099335625767708 0.0011892076581716537 0.0 0.0 0.0 0.0
3.855 -0.5010737180709839 0.13566391170024872 -0.0014554988592863083 0.004391939379274845 0.0 0.0 0.0 0.0
3.856 -0.48081400990486145 0.1484811156988144 0.0009909272193908691 0.005029711872339249 0.0 0.0 0.0 0.0
3.857 -0.4931900203227997 0.17236840724945068 -0.0020955605432391167 -0.0018822252750396729 0.0 0.0 0.0 0.0
3.858 -0.45421093702316284 0.1908162385225296 0.0059654200449585915 0.0027392208576202393 0.0 0.0 0.0 0.0
3.859 -0.46328723430633545 0.22706426680088043 -0.0025819996371865273 0.0001462949439883232 0.0 0.0 0.0 0.0
3.86 -0.4206456243991852 0.2243303507566452 0.006187048740684986 0.0003894912078976631 0.0 0.0 0.0 0.0
3.861 -0.4373902976512909 0.23383355140686035 0.001227126456797123 -0.006094560958445072 0.0 0.0 0.0 0.0
3.862 -0.4153890609741211 0.2836233973503113 0.00048552267253398895 -0.002989361993968487 0.0 0.0 0.0 0.0
3.863 -0.3775985836982727 0.29737696051597595 -0.00046597979962825775 0.0014686556532979012 0.0 0.0 0.0 0.0
3.864 -0.3639136254787445 0.2960087060928345 0.005582868121564388 -0.0020259814336895943 0.0 0.0 0.0 0.0
3.865 -0.34091049432754517 0.3178868889808655 0.009339426644146442 -0.0021386509761214256 0.0 0.0 0.0 0.0
3.866 -0.3236166834831238 0.3478674590587616 0.0009735533967614174 0.0024939579889178276 0.0 0.0 0.0 0.0
3.867 -0.30893778800964355 0.36356499791145325 -0.001421813853085041 0.0012447303161025047 0.0 0.0 0.0 0.0
3.868 -0.2736370265483856 0.3807700276374817 0.0023794304579496384 0.001842176541686058 0.0 0.0 0.0 0.0
3.869 -0.2527216374874115 0.36977478861808777 0.003385556861758232 -0.002826208248734474 0.0 0.0 0.0 0.0
3.87 -0.25162699818611145 0.400305837392807 -0.0021162815392017365 -0.0026534022763371468 0.0 0.0 0.0 0.0
3.871 -0.20549750328063965 0.4175395667552948 -0.0026374002918601036 -0.0012844456359744072 0.0 0.0 0.0 0.0
3.872 -0.17448315024375916 0.4227697551250458 -0.0020200414583086967 0.0005204221233725548 0.0 0.0 0.0 0.0
3.873 -0.15542499721050262 0.43360134959220886 -0.0012785671278834343 0.00023698806762695312 0.0 0.0 0.0 0.0
3.874 -0.1505163460969925 0.4276833236217499 0.007071482017636299 -0.0023963460698723793 0.0 0.0 0.0 0.0
3.875 -0.11606605350971222 0.4377366304397583 0.0063908398151397705 -0.004769285209476948 0.0 0.0 0.0 0.0
3.876 -0.08656463772058487 0.45022156834602356 -0.004558352753520012 -0.00016486458480358124 0.0 0.0 0.0 0.0
3.877 -0.06842733174562454 0.4399944841861725 0.001169390045106411 -0.006408466957509518 0.0 0.0 0.0 0.0
3.878 -0.03475181758403778 0.46126365661621094 0.00408764835447073 0.0013254592195153236 0.0 0.0 0.0 0.0
3.879 -0.015100843273103237 0.4471653699874878 0.0010716486722230911 -0.006644600071012974 0.0 0.0 0.0 0.0
3.88 0.02161787636578083 0.4597179591655731 0.005027574487030506 0.0006683627143502235 0.0 0.0 0.0 0.0
3.881 0.038501907140016556 0.47146135568618774 -0.0006457492709159851 0.0021438896656036377 0.0 0.0 0.0 0.0
3.882 0.0671890452504158 0.4585607349872589 0.0036351680755615234 -0.0022733379155397415 0.0 0.0 0.0 0.0
3.883 0.10181798785924911 0.46381819248199463 0.0028115659952163696 0.002647414803504944 0.0 0.0 0.0 0.0
3.884 0.10376160591840744 0.4563741981983185 0.00018354691565036774 -0.005945827811956406 0.0 0.0 0.0 0.0
3.885 0.14216041564941406 0.44734135270118713 0.003937005065381527 0.0016275392845273018 0.0 0.0 0.0 0.0
3.886 0.1681397557258606 0.44695818424224854 0.0027795881032943726 -0.005875145085155964 0.0 0.0 0.0 0.0
3.887 0.17625167965888977 0.449964702129364 0.0004122583195567131 -0.006731812842190266 0.0 0.0 0.0 0.0
3.888 0.22324645519256592 0.4227749705314636 0.004082692787051201 -0.0009367456659674644 0.0 0.0 0.0 0.0
3.889 0.23271523416042328 0.42426398396492004 0.005964994430541992 0.0020985715091228485 0.0 0.0 0.0 0.0
3.89 0.24800445139408112 0.41267749667167664 0.0013748342171311378 -0.00870141014456749 0.0 0.0 0.0 0.0
3.891 0.27070537209510803 0.41508749127388 -0.0030222292989492416 -0.00031504686921834946 0.0 0.0 0.0 0.0
3.892 0.28459739685058594 0.3925354480743408 -0.0012948466464877129 -0.005548272281885147 0.0 0.0 0.0 0.0
3.893 0.3196960389614105 0.37981316447257996 0.002901926636695862 -0.005911179818212986 0.0 0.0 0.0 0.0
3.894 0.33052724599838257 0.3932908773422241 -0.0035302480682730675 -0.0014700312167406082 0.0 0.0 0.0 0.0
3.895 0.3702560067176819 0.3571561872959137 0.004816528409719467 -0.0020294804126024246 0.0 0.0 0.0 0.0
3.896 0.3812875747680664 0.34724560379981995 0.004455053247511387 -0.005225544795393944 0.0 0.0 0.0 0.0
3.897 0.40393319725990295 0.32443225383758545 0.0013381987810134888 -0.007844150066375732 0.0 0.0 0.0 0.0
3.898 0.41410353779792786 0.31903719902038574 0.001805657520890236 -0.006465875543653965 0.0 0.0 0.0 0.0
3.899 0.44672924280166626 0.29995304346084595 0.004978696815669537 -0.0022827312350273132 0.0 0.0 0.0 0.0
3.9 0.440498024225235 0.2978806793689728 -0.003274739719927311 -0.004481782205402851 0.0 0.0 0.0 0.0
3.901 0.4678306579589844 0.2698356807231903 0.0016545886173844337 -0.006188134662806988 0.0 0.0 0.0 0.0
3.902 0.4891376793384552 0.26025134325027466 -0.0004643090069293976 9.363889694213867e-05 0.0 0.0 0.0 0.0
3.903 0.4944750666618347 0.23151731491088867 -0.00139584019780159 -0.005847161635756493 0.0 0.0 0.0 0.0
3.904 0.5075090527534485 0.22715912759304047 0.005305668339133263 -0.005727887153625488 0.0 0.0 0.0 0.0
3.905 0.5311458706855774 0.22116534411907196 0.0033004572615027428 -4.74611297249794e-05 0.0 0.0 0.0 0.0
3.906 0.5317493081092834 0.1751871258020401 -0.00267601665109396 -0.007352658547461033 0.0 0.0 0.0 0.0
3.907 0.5589024424552917 0.1679638773202896 0.004762998782098293 -0.0038056522607803345 0.0 0.0 0.0 0.0
3.908 0.5578712224960327 0.15662263333797455 0.003900059498846531 -0.0007686484605073929 0.0 0.0 0.0 0.0
3.909 0.5608975887298584 0.1267174929380417 0.0020415866747498512 -0.004574441350996494 0.0 0.0 0.0 0.0
3.91 0.5671012997627258 0.11594858765602112 0.0005301488563418388 -0.0012202747166156769 0.0 0.0 0.0 0.0
3.911 0.5787932276725769 0.10890665650367737 -0.0038177771493792534 -0.004360498860478401 0.0 0.0 0.0 0.0
3.912 0.5922549366950989 0.06482090801000595 0.0005115075036883354 -0.006240101531147957 0.0 0.0 0.0 0.0
3.913 0.588739275932312 0.065642349421978 -0.004247250966727734 -0.0006953766569495201 0.0 0.0 0.0 0.0
3.914 0.6008492112159729 0.03275984525680542 -0.00021729618310928345 -0.007637795992195606 0.0 0.0 0.0 0.0
3.915 0.6132035851478577 0.012781744822859764 0.0004364568740129471 -0.00811290554702282 0.0 0.0 0.0 0.0
3.916 0.6391529440879822 0.009079072624444962 0.004745629616081715 -0.003702521324157715 0.0 0.0 0.0 0.0
3.917 0.6233416795730591 0.00044206902384757996 0.0023410357534885406 0.00070158950984478 0.0 0.0 0.0 0.0
3.918 0.6255083680152893 -0.04016513749957085 0.0028507839888334274 -0.006312279962003231 0.0 0.0 0.0 0.0
3.919 0.6301239132881165 -0.05264518782496452 0.0023758020251989365 0.00047198589891195297 0.0 0.0 0.0 0.0
3.92 0.6273438930511475 -0.05988674610853195 0.00018016807734966278 0.001357601024210453 0.0 0.0 0.0 0.0
3.921 0.6391742825508118 -0.0881647989153862 0.003593611530959606 -0.0043632155284285545 0.0 0.0 0.0 0.0
3.922 0.6351656317710876 -0.0976007953286171 0.004381605423986912 0.0007171193137764931 0.0 0.0 0.0 0.0
3.923 0.6249006390571594 -0.11140140891075134 -0.0019281618297100067 0.00017985422164201736 0.0 0.0 0.0 0.0
3.924 0.6300140023231506 -0.13839870691299438 0.003755287267267704 -0.00043189339339733124 0.0 0.0 0.0 0.0
3.925 0.6397613286972046 -0.14716915786266327 0.004249071702361107 0.00023004785180091858 0.0 0.0 0.0 0.0
3.926 0.6187695860862732 -0.17473994195461273 -0.0015484858304262161 0.0016534188762307167 0.0 0.0 0.0 0.0
3.927 0.6522917747497559 -0.19509285688400269 0.0034625427797436714 -0.002217506058514118 0.0 0.0 0.0 0.0
3.928 0.6211015582084656 -0.20820049941539764 0.0024490710347890854 0.0011079292744398117 0.0 0.0 0.0 0.0
3.929 0.6254222393035889 -0.20957031846046448 -0.001227465458214283 -0.00018781237304210663 0.0 0.0 0.0 0.0
3.93 0.626745343208313 -0.25769567489624023 0.004612433724105358 -0.003736262209713459 0.0 0.0 0.0 0.0
3.931 0.6172580122947693 -0.24091678857803345 -0.0014629140496253967 0.0006485981866717339 0.0 0.0 0.0 0.0
3.932 0.5974292159080505 -0.2808082401752472 -0.004096739925444126 -0.0032147830352187157 0.0 0.0 0.0 0.0
3.933 0.6149676442146301 -0.2960846424102783 0.004210611805319786 -0.0013262657448649406 0.0 0.0 0.0 0.0
3.934 0.592514157295227 -0.31034472584724426 -0.0030137021094560623 -0.0014817845076322556 0.0 0.0 0.0 0.0
3.935 0.591459333896637 -0.32634061574935913 -0.004667011089622974 -0.0042425524443387985 0.0 0.0 0.0 0.0
3.936 0.5993033647537231 -0.3482949435710907 0.0014463840052485466 -0.0004100203514099121 0.0 0.0 0.0 0.0
3.937 0.5820983052253723 -0.34530749917030334 -0.004478246904909611 0.00014967098832130432 0.0 0.0 0.0 0.0
3.938 0.5541874170303345 -0.37958869338035583 -0.0010563656687736511 0.0007569156587123871 0.0 0.0 0.0 0.0
3.939 0.5726794600486755 -0.3758944272994995 -0.000406535342335701 0.0031092651188373566 0.0 0.0 0.0 0.0
3.94 0.550001859664917 -0.4076942801475525 -0.0033008158206939697 -0.0036328835412859917 0.0 0.0 0.0 0.0
3.941 0.5582079291343689 -0.4029490649700165 0.00042692478746175766 0.00047018658369779587 0.0 0.0 0.0 0.0
3.942 0.5412258505821228 -0.40928176045417786 -0.0026932889595627785 0.0010424712672829628 0.0 0.0 0.0 0.0
3.943 0.5406054258346558 -0.4618220329284668 -0.0001640552654862404 -0.006838640198111534 0.0 0.0 0.0 0.0
3.944 0.5442783236503601 -0.4474695920944214 -0.000538872554898262 0.00137226190418005 0.0 0.0 0.0 0.0
3.945 0.5012217164039612 -0.48575177788734436 -0.0034800320863723755 -0.004397262819111347 0.0 0.0 0.0 0.0
3.946 0.5096569061279297 -0.4854416847229004 3.990624099969864e-05 -0.005083050578832626 0.0 0.0 0.0 0.0
3.947 0.5126301646232605 -0.5107983350753784 0.0025515425950288773 -0.002716139890253544 0.0 0.0 0.0 0.0
3.948 0.4835803508758545 -0.5021572113037109 -0.003477528691291809 -0.0047576818615198135 0.0 0.0 0.0 0.0
3.949 0.4914344251155853 -0.5368116497993469 0.001409638673067093 -0.0034118397161364555 0.0 0.0 0.0 0.0
3.95 0.4896779954433441 -0.527761697769165 0.004197503440082073 -0.0008148802444338799 0.0 0.0 0.0 0.0
3.951 0.4539937376976013 -0.5606030821800232 -0.00280818622559309 -0.004284966737031937 0.0 0.0 0.0 0.0
3.952 0.44914761185646057 -0.5450493097305298 -0.00450239609926939 0.000271371565759182 0.0 0.0 0.0 0.0
3.953 0.4647313952445984 -0.5501492023468018 0.003099803812801838 0.0003545517101883888 0.0 0.0 0.0 0.0
3.954 0.43768975138664246 -0.5842393636703491 -0.0026787910610437393 -0.0045792292803525925 0.0 0.0 0.0 0.0
3.955 0.44141000509262085 -0.5986542701721191 0.0020331479609012604 -0.004307672381401062 0.0 0.0 0.0 0.0
3.956 0.4153946340084076 -0.5761567950248718 -0.0009346157312393188 -0.0025714533403515816 0.0 0.0 0.0 0.0
3.957 0.39140263199806213 -0.5962791442871094 -0.002979859709739685 -0.0049037029966712 0.0 0.0 0.0 0.0
3.958 0.38841545581817627 -0.6293911337852478 0.0014162175357341766 -0.0017478028312325478 0.0 0.0 0.0 0.0
3.959 0.38790950179100037 -0.6140060424804688 0.001982838846743107 0.0013586105778813362 0.0 0.0 0.0 0.0
3.96 0.3496052920818329 -0.6440669894218445 -0.0005284314975142479 -0.006567366421222687 0.0 0.0 0.0 0.0
3.961 0.34929612278938293 -0.6223757266998291 -0.004080371931195259 0.0007337629795074463 0.0 0.0 0.0 0.0
3.962 0.34912359714508057 -0.6325899958610535 0.0013800961896777153 0.0004729200154542923 0.0 0.0 0.0 0.0
3.963 0.32281121611595154 -0.6576242446899414 -0.0018155239522457123 -0.007606495171785355 0.0 0.0 0.0 0.0
3.964 0.342479944229126 -0.6608695983886719 0.002295653335750103 -0.002184058539569378 0.0 0.0 0.0 0.0
3.965 0.3060908913612366 -0.6491768956184387 0.0011386042460799217 0.0013639973476529121 0.0 0.0 0.0 0.0
3.966 0.28120869398117065 -0.6872797012329102 -4.916638135910034e-05 -0.005647588521242142 0.0 0.0 0.0 0.0
3.967 0.2819017469882965 -0.6733552813529968 0.0027613546699285507 -0.0011727819219231606 0.0 0.0 0.0 0.0
3.968 0.2789805829524994 -0.6744493842124939 -0.0005371831357479095 0.001847531646490097 0.0 0.0 0.0 0.0
3.969 0.22593747079372406 -0.6896970868110657 -0.0029508061707019806 -0.00414807815104723 0.0 0.0 0.0 0.0
3.97 0.23711425065994263 -0.699840247631073 0.0012485524639487267 -0.004743634723126888 0.0 0.0 0.0 0.0
3.971 0.21676523983478546 -0.6821848154067993 -0.0035900305956602097 -0.00048286188393831253 0.0 0.0 0.0 0.0
3.972 0.21455061435699463 -0.7037910223007202 0.0021805809810757637 -0.00496008712798357 0.0 0.0 0.0 0.0
3.973 0.21048730611801147 -0.6927911043167114 0.0006174491718411446 0.0003585219383239746 0.0 0.0 0.0 0.0
3.974 0.17542244493961334 -0.707899272441864 -0.003916498273611069 -0.0031116679310798645 0.0 0.0 0.0 0.0
3.975 0.16016480326652527 -0.7332941889762878 -0.00024195387959480286 -0.005822506733238697 0.0 0.0 0.0 0.0
3.976 0.15689308941364288 -0.7036962509155273 0.00036593619734048843 0.0019074175506830215 0.0 0.0 0.0 0.0
3.977 0.12314963340759277 -0.7197266221046448 -0.0020422469824552536 -0.0030637774616479874 0.0 0.0 0.0 0.0
3.978 0.1361890584230423 -0.7168473601341248 0.003124072216451168 -0.0008548684418201447 0.0 0.0 0.0 0.0
3.979 0.11891516298055649 -0.7056835889816284 -0.0013100700452923775 0.00234328955411911 0.0 0.0 0.0 0.0
3.98 0.0780627503991127 -0.7258934378623962 -0.0023842481896281242 -0.003956321626901627 0.0 0.0 0.0 0.0
3.981 0.10407304018735886 -0.7207823395729065 0.002113702706992626 0.0004327800124883652 0.0 0.0 0.0 0.0
3.982 0.0680428296327591 -0.7089337706565857 -0.0025822781026363373 0.00035210512578487396 0.0 0.0 0.0 0.0
3.983 0.053533464670181274 -0.7200343012809753 -0.003262280486524105 -0.003387032076716423 0.0 0.0 0.0 0.0
3.984 0.03935110569000244 -0.7118690609931946 -0.000333612784743309 0.0025161821395158768 0.0 0.0 0.0 0.0
3.985 0.028704678639769554 -0.7174026370048523 -0.003835972398519516 0.00033174455165863037 0.0 0.0 0.0 0.0
3.986 -0.002704070881009102 -0.7377485036849976 -0.0005148686468601227 -0.00474153645336628 0.0 0.0 0.0 0.0
3.987 0.013986650854349136 -0.7097575068473816 0.001405945047736168 0.0019717812538146973 0.0 0.0 0.0 0.0
3.988 -0.03326338902115822 -0.7172962427139282 -0.0029500694945454597 -0.00034262705594301224 0.0 0.0 0.0 0.0
3.989 -0.03406309336423874 -0.7317046523094177 -0.0013632839545607567 -0.0047574108466506 0.0 0.0 0.0 0.0
3.99 -0.039896171540021896 -0.6939014196395874 -0.001984851434826851 0.0008695507422089577 0.0 0.0 0.0 0.0
3.991 -0.07837586104869843 -0.7282094955444336 -0.0015513189136981964 -0.0033529382199048996 0.0 0.0 0.0 0.0
3.992 -0.0798816829919815 -0.7318603992462158 0.00023835059255361557 -0.0053710853680968285 0.0 0.0 0.0 0.0
3.993 -0.11266103386878967 -0.7121297121047974 -0.0027024848386645317 -0.0035752151161432266 0.0 0.0 0.0 0.0
3.994 -0.10446613281965256 -0.6991692185401917 -0.0041367411613464355 -0.0014900891110301018 0.0 0.0 0.0 0.0
3.995 -0.1215151697397232 -0.7169812917709351 0.000906011089682579 -0.0031257467344403267 0.0 0.0 0.0 0.0
3.996 -0.1291964203119278 -0.6847164034843445 -0.003588220104575157 -0.00017158128321170807 0.0 0.0 0.0 0.0
3.997 -0.15409773588180542 -0.6753824353218079 -0.003856239840388298 -0.0008276039734482765 0.0 0.0 0.0 0.0
3.998 -0.1421360969543457 -0.7019215226173401 0.0027486197650432587 -0.004436522722244263 0.0 0.0 0.0 0.0
3.999 -0.17162787914276123 -0.6720185279846191 0.0008424790576100349 0.0015713796019554138 0.0 0.0 0.0 0.0
4.0 -0.16659002006053925 -0.6947463750839233 0.002132762223482132 -0.0030556051060557365 0.0 0.0 0.0 0.0
