!Created with skrf (http://scikit-rf.org).
# GHz S RI R 50.0 
!freq ReS11 ImS11 ReS21 ImS21 ReS12 ImS12 ReS22 ImS22
0.001 1.052588939666748 -0.04156012460589409 6.354600191116333e-05 0.0001462278887629509 0.0 0.0 0.0 0.0
0.002 0.9960861206054688 -0.07466702163219452 -4.942808300256729e-05 7.465668022632599e-05 0.0 0.0 0.0 0.0
0.003 0.9917805194854736 -0.11223313212394714 9.323470294475555e-05 3.273226320743561e-05 0.0 0.0 0.0 0.0
0.004 0.989091157913208 -0.15007804334163666 3.587640821933746e-05 -5.599949508905411e-05 0.0 0.0 0.0 0.0
0.005 0.9800891876220703 -0.17875489592552185 0.00016352906823158264 0.0001550065353512764 0.0 0.0 0.0 0.0
0.006 0.9710153341293335 -0.21333833038806915 -2.6691704988479614e-05 -7.00121745467186e-05 0.0 0.0 0.0 0.0
0.007 0.9640254378318787 -0.2521025538444519 2.535153180360794e-05 1.3979151844978333e-05 0.0 0.0 0.0 0.0
0.008 0.9522649049758911 -0.2828933596611023 -4.64441254734993e-05 0.0001713549718260765 0.0 0.0 0.0 0.0
0.009 0.9415253400802612 -0.3155771791934967 -0.00010881945490837097 0.00010972749441862106 0.0 0.0 0.0 0.0
0.01 0.9302920699119568 -0.3489442765712738 -1.9759871065616608e-05 0.00014700833708047867 0.0 0.0 0.0 0.0
0.011 0.9166005253791809 -0.38495805859565735 0.00011344626545906067 -1.367274671792984e-05 0.0 0.0 0.0 0.0
0.012 0.9024242162704468 -0.414662629365921 -8.808448910713196e-06 0.00016062147915363312 0.0 0.0 0.0 0.0
0.013 0.8822049498558044 -0.4493594169616699 2.1984800696372986e-05 5.1680952310562134e-05 0.0 0.0 0.0 0.0
0.014 0.8736971020698547 -0.4779737591743469 -0.00010647159069776535 0.00013189762830734253 0.0 0.0 0.0 0.0
0.015 0.8545517325401306 -0.5109282732009888 7.639452815055847e-05 -0.00012170150876045227 0.0 0.0 0.0 0.0
0.016 0.8327188491821289 -0.5375373363494873 8.301809430122375e-05 0.00017467886209487915 0.0 0.0 0.0 0.0
0.017 0.8136643171310425 -0.5686413049697876 6.678793579339981e-05 -1.4355406165122986e-05 0.0 0.0 0.0 0.0
0.018 0.7941100001335144 -0.5941094756126404 -0.0002046581357717514 -4.380568861961365e-05 0.0 0.0 0.0 0.0
0.019 0.7730032801628113 -0.6225566267967224 0.00015904661267995834 3.107823431491852e-06 0.0 0.0 0.0 0.0
0.02 0.7521283626556396 -0.6564446687698364 0.00011016800999641418 5.9995800256729126e-05 0.0 0.0 0.0 0.0
0.021 0.7271815538406372 -0.6810663342475891 2.5257468223571777e-06 2.7093105018138885e-05 0.0 0.0 0.0 0.0
0.022 0.7040548920631409 -0.703385055065155 -3.897678107023239e-05 0.00017176475375890732 0.0 0.0 0.0 0.0
0.023 0.6784575581550598 -0.7253503799438477 -6.248895078897476e-05 4.2800791561603546e-05 0.0 0.0 0.0 0.0
0.024 0.6499186158180237 -0.7540930509567261 -3.719143569469452e-05 4.913751035928726e-05 0.0 0.0 0.0 0.0
0.025 0.6305954456329346 -0.7735593914985657 -0.00013944227248430252 0.00023885443806648254 0.0 0.0 0.0 0.0
0.026 0.6024419665336609 -0.7939322590827942 2.807285636663437e-05 7.942970842123032e-05 0.0 0.0 0.0 0.0
0.027 0.5711356997489929 -0.8180097937583923 4.891306161880493e-06 -2.590753138065338e-05 0.0 0.0 0.0 0.0
0.028 0.5392560958862305 -0.8343327641487122 -0.00014152750372886658 -2.187676727771759e-05 0.0 0.0 0.0 0.0
0.029 0.514833390712738 -0.8523783087730408 -0.00017495639622211456 -3.902800381183624e-05 0.0 0.0 0.0 0.0
0.03 0.48372137546539307 -0.8717511296272278 0.00012044794857501984 7.021520286798477e-05 0.0 0.0 0.0 0.0
0.031 0.45779383182525635 -0.8903806805610657 0.00011252425611019135 5.518272519111633e-05 0.0 0.0 0.0 0.0
0.032 0.4203774631023407 -0.8998841047286987 -0.00011538434773683548 -1.135747879743576e-05 0.0 0.0 0.0 0.0
0.033 0.38521212339401245 -0.9202370643615723 2.152286469936371e-06 -7.362477481365204e-05 0.0 0.0 0.0 0.0
0.034 0.354388564825058 -0.9342929124832153 -3.713089972734451e-05 -0.0001652119681239128 0.0 0.0 0.0 0.0
0.035 0.316254585981369 -0.9426519274711609 -1.4849938452243805e-05 7.755029946565628e-05 0.0 0.0 0.0 0.0
0.036 0.28349772095680237 -0.9542226791381836 -0.00017599761486053467 0.00014256220310926437 0.0 0.0 0.0 0.0
0.037 0.25966838002204895 -0.9126439094543457 -6.330665200948715e-05 0.0006520412862300873 0.0 0.0 0.0 0.0
0.038 0.24608519673347473 -0.9649449586868286 0.00013374071568250656 0.00011116079986095428 0.0 0.0 0.0 0.0
0.039 0.20376478135585785 -0.9775018095970154 0.00015376321971416473 0.00011835992336273193 0.0 0.0 0.0 0.0
0.04 0.17468500137329102 -0.9819504618644714 4.7985464334487915e-05 8.270051330327988e-05 0.0 0.0 0.0 0.0
0.041 0.13884037733078003 -0.9904773235321045 0.00010868534445762634 9.433086961507797e-05 0.0 0.0 0.0 0.0
0.042 0.10612380504608154 -0.995839536190033 0.00010764226317405701 7.956288754940033e-05 0.0 0.0 0.0 0.0
0.043 0.06996960937976837 -1.0013494491577148 8.920766413211823e-05 6.672367453575134e-05 0.0 0.0 0.0 0.0
0.044 0.029863640666007996 -1.0006861686706543 9.163282811641693e-05 -9.838398545980453e-05 0.0 0.0 0.0 0.0
0.045 0.002144903875887394 -0.9998252391815186 8.488446474075317e-05 5.501881241798401e-05 0.0 0.0 0.0 0.0
0.046 -0.03275037929415703 -1.0014586448669434 0.00024628080427646637 7.68117606639862e-05 0.0 0.0 0.0 0.0
0.047 -0.06355015188455582 -1.0049269199371338 0.0002981405705213547 -4.6596862375736237e-05 0.0 0.0 0.0 0.0
0.048 -0.1038174107670784 -1.002142071723938 0.00010591372847557068 -3.796163946390152e-05 0.0 0.0 0.0 0.0
0.049 -0.13096696138381958 -0.9946947693824768 4.279427230358124e-06 9.720958769321442e-05 0.0 0.0 0.0 0.0
0.05 -0.1657053381204605 -0.9886053800582886 0.0001238211989402771 0.00011497456580400467 0.0 0.0 0.0 0.0
0.051 -0.2009250819683075 -0.9866994619369507 8.456222712993622e-05 -0.00017709936946630478 0.0 0.0 0.0 0.0
0.052 -0.23833788931369781 -0.9793343544006348 4.929862916469574e-05 6.920658051967621e-06 0.0 0.0 0.0 0.0
0.053 -0.2680283784866333 -0.9659401178359985 7.112789899110794e-05 2.50842422246933e-05 0.0 0.0 0.0 0.0
0.054 -0.29576757550239563 -0.9597681760787964 0.00034338515251874924 1.863669604063034e-05 0.0 0.0 0.0 0.0
0.055 -0.32802873849868774 -0.9550176858901978 0.00024038460105657578 -4.777219146490097e-05 0.0 0.0 0.0 0.0
0.056 -0.36381402611732483 -0.9417862892150879 0.00012701284140348434 -5.3415074944496155e-05 0.0 0.0 0.0 0.0
0.057 -0.3929779827594757 -0.9230928421020508 -4.621502012014389e-05 -2.042856067419052e-05 0.0 0.0 0.0 0.0
0.058 -0.4193785786628723 -0.9112398028373718 5.675293505191803e-05 0.0001582074910402298 0.0 0.0 0.0 0.0
0.059 -0.4516603648662567 -0.9019109010696411 0.00015028659254312515 -0.00024046748876571655 0.0 0.0 0.0 0.0
0.06 -0.48717135190963745 -0.8846753835678101 1.5700235962867737e-05 2.133287489414215e-05 0.0 0.0 0.0 0.0
0.061 -0.51412034034729 -0.8703343868255615 0.00010587647557258606 -0.00019561592489480972 0.0 0.0 0.0 0.0
0.062 -0.5418412089347839 -0.8520225286483765 0.00022036395967006683 -0.00012431666254997253 0.0 0.0 0.0 0.0
0.063 -0.5724587440490723 -0.8296330571174622 0.00014334172010421753 -5.833245813846588e-05 0.0 0.0 0.0 0.0
0.064 -0.5901688933372498 -0.8116385340690613 0.00016108807176351547 -2.8507784008979797e-06 0.0 0.0 0.0 0.0
0.065 -0.6229918003082275 -0.7985396981239319 0.00027006492018699646 6.102025508880615e-05 0.0 0.0 0.0 0.0
0.066 -0.6471579670906067 -0.7776293158531189 0.00015829037874937057 -4.76837158203125e-07 0.0 0.0 0.0 0.0
0.067 -0.6724350452423096 -0.754505455493927 7.042475044727325e-05 -0.0002328762784600258 0.0 0.0 0.0 0.0
0.068 -0.6997184157371521 -0.7272167205810547 9.660329669713974e-05 -0.00013753212988376617 0.0 0.0 0.0 0.0
0.069 -0.7184265851974487 -0.7055919170379639 8.354894816875458e-05 -5.945377051830292e-05 0.0 0.0 0.0 0.0
0.07 -0.7404850125312805 -0.6843966245651245 0.000245056115090847 -0.00033192243427038193 0.0 0.0 0.0 0.0
0.071 -0.7672273516654968 -0.6630865335464478 0.00018110033124685287 -0.0001655248925089836 0.0 0.0 0.0 0.0
0.072 -0.7861011028289795 -0.6328410506248474 0.00013405177742242813 -0.0002843998372554779 0.0 0.0 0.0 0.0
0.073 -0.8065229654312134 -0.6056626439094543 0.00012888293713331223 -0.0002817874774336815 0.0 0.0 0.0 0.0
0.074 -0.8288583755493164 -0.580263614654541 0.00017270632088184357 -0.0002121003344655037 0.0 0.0 0.0 0.0
0.075 -0.8390666842460632 -0.5508856177330017 0.00020018406212329865 -0.0002673408016562462 0.0 0.0 0.0 0.0
0.076 -0.8577027916908264 -0.5290618538856506 0.0003059888258576393 -0.0003421781584620476 0.0 0.0 0.0 0.0
0.077 -0.8758379817008972 -0.5025078654289246 0.00011620670557022095 -0.00031548086553812027 0.0 0.0 0.0 0.0
0.078 -0.8910833597183228 -0.47070980072021484 3.891158849000931e-05 -0.0004938356578350067 0.0 0.0 0.0 0.0
0.079 -0.9088432788848877 -0.44279634952545166 0.0002952106297016144 -0.0004596645012497902 0.0 0.0 0.0 0.0
0.08 -0.9237304925918579 -0.40863901376724243 0.0001786230131983757 -0.000644611194729805 0.0 0.0 0.0 0.0
0.081 -0.9306547045707703 -0.37477967143058777 0.00012518931180238724 -0.00042744167149066925 0.0 0.0 0.0 0.0
0.082 -0.9419018030166626 -0.34492582082748413 0.00014296919107437134 -0.0006546285003423691 0.0 0.0 0.0 0.0
0.083 -0.9494490027427673 -0.31590646505355835 2.5519169867038727e-05 -0.0006073862314224243 0.0 0.0 0.0 0.0
0.084 -0.9647044539451599 -0.28816965222358704 8.766446262598038e-05 -0.0008043656125664711 0.0 0.0 0.0 0.0
0.085 -0.9740517139434814 -0.24898505210876465 1.4628283679485321e-05 -0.0008351253345608711 0.0 0.0 0.0 0.0
0.086 -0.9764167070388794 -0.2182607203722 -3.8718804717063904e-05 -0.0008421521633863449 0.0 0.0 0.0 0.0
0.087 -0.9809293150901794 -0.18507187068462372 -0.0001040194183588028 -0.0008698850870132446 0.0 0.0 0.0 0.0
0.088 -0.9828189611434937 -0.1509353518486023 -0.00021707359701395035 -0.0010469546541571617 0.0 0.0 0.0 0.0
0.089 -0.9887375235557556 -0.11390706151723862 -0.00023818016052246094 -0.0013139499351382256 0.0 0.0 0.0 0.0
0.09 -0.9888772964477539 -0.08128601312637329 -0.00038335006684064865 -0.0014868006110191345 0.0 0.0 0.0 0.0
0.091 -0.9908152222633362 -0.04245118051767349 -0.0005443757399916649 -0.0019064899533987045 0.0 0.0 0.0 0.0
0.092 -0.9877529144287109 -0.0070492783561348915 -0.0006182054057717323 -0.002332070842385292 0.0 0.0 0.0 0.0
0.093 -0.9835494756698608 0.03429552540183067 -0.0011237254366278648 -0.0031821010634303093 0.0 0.0 0.0 0.0
0.094 -0.9685338139533997 0.08573877811431885 -0.00229814276099205 -0.004195527173578739 0.0 0.0 0.0 0.0
0.095 -0.9281525611877441 0.14718656241893768 -0.005059178918600082 -0.005774680525064468 0.0 0.0 0.0 0.0
0.096 -0.7850960493087769 0.16990220546722412 -0.014121253043413162 -0.0047583188861608505 0.0 0.0 0.0 0.0
0.097 -0.8467878699302673 -0.05865747109055519 -0.00946970097720623 0.012822703458368778 0.0 0.0 0.0 0.0
0.098 -0.9756600856781006 0.034550681710243225 -0.0005023926496505737 0.008656778372824192 0.0 0.0 0.0 0.0
0.099 -0.9843788743019104 0.10981275141239166 0.000878957100212574 0.005663791671395302 0.0 0.0 0.0 0.0
0.1 -0.9818161129951477 0.16334769129753113 0.0012021996080875397 0.0042865825816988945 0.0 0.0 0.0 0.0
0.101 -0.9082897305488586 0.18236643075942993 0.0013437867164611816 0.0030351756140589714 0.0 0.0 0.0 0.0
0.102 -0.8999596834182739 0.22092413902282715 0.0012511229142546654 0.0027601132169365883 0.0 0.0 0.0 0.0
0.103 -0.8924916982650757 0.2544274926185608 0.001120290718972683 0.002136431634426117 0.0 0.0 0.0 0.0
0.104 -0.8801965713500977 0.28472670912742615 0.0013313191011548042 0.001795569434762001 0.0 0.0 0.0 0.0
0.105 -0.8682445883750916 0.31910568475723267 0.0011596204712986946 0.0017156880348920822 0.0 0.0 0.0 0.0
0.106 -0.8543464541435242 0.3465261161327362 0.0012251045554876328 0.0015812544152140617 0.0 0.0 0.0 0.0
0.107 -0.8406038880348206 0.37916985154151917 0.0011401800438761711 0.0014977483078837395 0.0 0.0 0.0 0.0
0.108 -0.8227134346961975 0.4056691527366638 0.001264568418264389 0.0013768961653113365 0.0 0.0 0.0 0.0
0.109 -0.8092221617698669 0.4350566267967224 0.0013638054952025414 0.0011880630627274513 0.0 0.0 0.0 0.0
0.11 -0.7875224351882935 0.4604603052139282 0.001419784501194954 0.0011956533417105675 0.0 0.0 0.0 0.0
0.111 -0.7677330374717712 0.4891871511936188 0.0013327496126294136 0.0010645631700754166 0.0 0.0 0.0 0.0
0.112 -0.7480756640434265 0.5120059847831726 0.0015612971037626266 0.0009736660867929459 0.0 0.0 0.0 0.0
0.113 -0.7244160175323486 0.5397374629974365 0.0014621904119849205 0.0009516468271613121 0.0 0.0 0.0 0.0
0.114 -0.6997312307357788 0.5643899440765381 0.001716609112918377 0.0007757646963000298 0.0 0.0 0.0 0.0
0.115 -0.6708657741546631 0.5843912959098816 0.0017650499939918518 0.0005985284224152565 0.0 0.0 0.0 0.0
0.116 -0.6384105682373047 0.6033919453620911 0.0019701309502124786 0.00041888002306222916 0.0 0.0 0.0 0.0
0.117 -0.6030288338661194 0.6142333149909973 0.0022026021033525467 0.0002662297338247299 0.0 0.0 0.0 0.0
0.118 -0.5674370527267456 0.6190125942230225 0.0023255376145243645 -7.269065827131271e-05 0.0 0.0 0.0 0.0
0.119 -0.5373978614807129 0.608997642993927 0.002296517603099346 -0.0004517603665590286 0.0 0.0 0.0 0.0
0.12 -0.521274209022522 0.5949928760528564 0.0021375808864831924 -0.0007543843239545822 0.0 0.0 0.0 0.0
0.121 -0.5217463970184326 0.5839816927909851 0.0019011767581105232 -0.001173853874206543 0.0 0.0 0.0 0.0
0.122 -0.5338178873062134 0.5868644118309021 0.0013081040233373642 -0.0015282724052667618 0.0 0.0 0.0 0.0
0.123 -0.5437498092651367 0.6065459847450256 0.000947064720094204 -0.001424890011548996 0.0 0.0 0.0 0.0
0.124 -0.5438513159751892 0.6345804929733276 0.000830402597784996 -0.0013004783540964127 0.0 0.0 0.0 0.0
0.125 -0.5344815254211426 0.668128490447998 0.0005176961421966553 -0.0012658610939979553 0.0 0.0 0.0 0.0
0.126 -0.5182335376739502 0.6943185329437256 0.00042283907532691956 -0.0011223843321204185 0.0 0.0 0.0 0.0
0.127 -0.4994048774242401 0.7227383255958557 0.00027402862906455994 -0.0008239550516009331 0.0 0.0 0.0 0.0
0.128 -0.4773859977722168 0.7479841709136963 0.00015908479690551758 -0.0007758745923638344 0.0 0.0 0.0 0.0
0.129 -0.45157644152641296 0.7738717794418335 0.0002549225464463234 -0.0006540454924106598 0.0 0.0 0.0 0.0
0.13 -0.42315128445625305 0.7939040064811707 -3.705359995365143e-05 -0.0006768098101019859 0.0 0.0 0.0 0.0
0.131 -0.3947027623653412 0.8143005967140198 0.00021890457719564438 -0.0006693834438920021 0.0 0.0 0.0 0.0
0.132 -0.36411619186401367 0.8338537216186523 0.00012525543570518494 -0.0006150165572762489 0.0 0.0 0.0 0.0
0.133 -0.33168497681617737 0.8504723906517029 -1.2252479791641235e-05 -0.0004770252853631973 0.0 0.0 0.0 0.0
0.134 -0.2993757128715515 0.862046480178833 0.00021517649292945862 -0.0004227571189403534 0.0 0.0 0.0 0.0
0.135 -0.2666268050670624 0.8752564191818237 0.00030082743614912033 -0.0005504488945007324 0.0 0.0 0.0 0.0
0.136 -0.23049615323543549 0.8868558406829834 0.00023624859750270844 -0.00038741715252399445 0.0 0.0 0.0 0.0
0.137 -0.1982041448354721 0.8928701281547546 0.00037964992225170135 -0.00042496155947446823 0.0 0.0 0.0 0.0
0.138 -0.16248935461044312 0.9006015062332153 0.00036454759538173676 -0.0005390960723161697 0.0 0.0 0.0 0.0
0.139 -0.12784618139266968 0.9055081009864807 0.00031414907425642014 -0.00041218288242816925 0.0 0.0 0.0 0.0
0.14 -0.09294058382511139 0.9088395237922668 0.0002935277298092842 -0.0004370519891381264 0.0 0.0 0.0 0.0
0.141 -0.0577700100839138 0.9098325371742249 0.00032220780849456787 -0.0004681656137108803 0.0 0.0 0.0 0.0
0.142 -0.02164854295551777 0.910212516784668 0.0004378780722618103 -0.0005165208131074905 0.0 0.0 0.0 0.0
0.143 0.011615301482379436 0.9067350029945374 0.00035114213824272156 -0.0006095338612794876 0.0 0.0 0.0 0.0
0.144 0.045000724494457245 0.9060347676277161 0.0004801535978913307 -0.000778823159635067 0.0 0.0 0.0 0.0
0.145 0.07979260385036469 0.9003357887268066 0.00039569102227687836 -0.0007118107751011848 0.0 0.0 0.0 0.0
0.146 0.1158088892698288 0.8944582939147949 0.00037670601159334183 -0.0006483998149633408 0.0 0.0 0.0 0.0
0.147 0.15023832023143768 0.8864860534667969 0.0004067821428179741 -0.0007985895499587059 0.0 0.0 0.0 0.0
0.148 0.1832006573677063 0.8751182556152344 0.00036592502146959305 -0.000867295078933239 0.0 0.0 0.0 0.0
0.149 0.2163248211145401 0.8635157346725464 0.0004486478865146637 -0.0010535316541790962 0.0 0.0 0.0 0.0
0.15 0.24973221123218536 0.8474931120872498 0.00035600829869508743 -0.0011436548084020615 0.0 0.0 0.0 0.0
0.151 0.2799561023712158 0.8306143283843994 0.0003016125410795212 -0.0012914175167679787 0.0 0.0 0.0 0.0
0.152 0.30660778284072876 0.8094392418861389 0.00013279542326927185 -0.0014657825231552124 0.0 0.0 0.0 0.0
0.153 0.3333825170993805 0.788896918296814 0.00012996699661016464 -0.0017315056174993515 0.0 0.0 0.0 0.0
0.154 0.3534650206565857 0.7675983309745789 -8.87792557477951e-05 -0.0017537930980324745 0.0 0.0 0.0 0.0
0.155 0.3709181845188141 0.7456068396568298 -0.00041973404586315155 -0.001957293599843979 0.0 0.0 0.0 0.0
0.156 0.3837165832519531 0.7230427861213684 -0.0007222583517432213 -0.0020009558647871017 0.0 0.0 0.0 0.0
0.157 0.39222583174705505 0.7052566409111023 -0.001256382092833519 -0.0022171465680003166 0.0 0.0 0.0 0.0
0.158 0.39440423250198364 0.6888924241065979 -0.001583261415362358 -0.001959475688636303 0.0 0.0 0.0 0.0
0.159 0.39109957218170166 0.6886037588119507 -0.0021392572671175003 -0.0017469879239797592 0.0 0.0 0.0 0.0
0.16 0.40064573287963867 0.7066240310668945 -0.0028037121519446373 -0.0010403767228126526 0.0 0.0 0.0 0.0
0.161 0.43006813526153564 0.7225929498672485 -0.0025997282937169075 -0.00013520941138267517 0.0 0.0 0.0 0.0
0.162 0.47378119826316833 0.7272624969482422 -0.002342402935028076 0.00026304833590984344 0.0 0.0 0.0 0.0
0.163 0.5152250528335571 0.71816086769104 -0.001969139091670513 0.0006335219368338585 0.0 0.0 0.0 0.0
0.164 0.5572516918182373 0.7016975283622742 -0.0015249727293848991 0.0008165016770362854 0.0 0.0 0.0 0.0
0.165 0.5938807725906372 0.6786746382713318 -0.0012759938836097717 0.000886848196387291 0.0 0.0 0.0 0.0
0.166 0.6280187368392944 0.6553070545196533 -0.0012980280444025993 0.0009749233722686768 0.0 0.0 0.0 0.0
0.167 0.6571034789085388 0.6275056600570679 -0.0009711636230349541 0.0008736243471503258 0.0 0.0 0.0 0.0
0.168 0.68357914686203 0.5994642972946167 -0.0006845211610198021 0.000801396556198597 0.0 0.0 0.0 0.0
0.169 0.7095654010772705 0.5688461065292358 -0.0007120771333575249 0.0009281858801841736 0.0 0.0 0.0 0.0
0.17 0.7325587272644043 0.5393961071968079 -0.0006599491462111473 0.0008637933060526848 0.0 0.0 0.0 0.0
0.171 0.755651593208313 0.5060144066810608 -0.0004193047061562538 0.0007056975737214088 0.0 0.0 0.0 0.0
0.172 0.7727646231651306 0.4755350351333618 -0.00043230317533016205 0.0008033448830246925 0.0 0.0 0.0 0.0
0.173 0.7915105223655701 0.44530126452445984 -0.0004105502739548683 0.00098430085927248 0.0 0.0 0.0 0.0
0.174 0.8059647083282471 0.41246339678764343 -0.00036688148975372314 0.0007885713130235672 0.0 0.0 0.0 0.0
0.175 0.8217214345932007 0.3782772421836853 -0.0002076486125588417 0.0008656131103634834 0.0 0.0 0.0 0.0
0.176 0.8334852457046509 0.34582895040512085 -0.00030383095145225525 0.0007122159004211426 0.0 0.0 0.0 0.0
0.177 0.8443877100944519 0.3143705725669861 -4.803389310836792e-05 0.0005034962669014931 0.0 0.0 0.0 0.0
0.178 0.8551091551780701 0.2799305319786072 -0.0001684175804257393 0.0007500890642404556 0.0 0.0 0.0 0.0
0.179 0.8638733625411987 0.24734625220298767 -0.00020148511976003647 0.0005895085632801056 0.0 0.0 0.0 0.0
0.18 0.8703921437263489 0.21322090923786163 -7.112231105566025e-05 0.0007351003587245941 0.0 0.0 0.0 0.0
0.181 0.8768481612205505 0.1786186248064041 -0.00013400427997112274 0.00046681053936481476 0.0 0.0 0.0 0.0
0.182 0.8820211291313171 0.14456112682819366 -5.1966868340969086e-05 0.0006489735096693039 0.0 0.0 0.0 0.0
0.183 0.8845141530036926 0.11400658637285233 1.2468546628952026e-05 0.0005874503403902054 0.0 0.0 0.0 0.0
0.184 0.887080729007721 0.07890532910823822 4.2809173464775085e-05 0.00046915654093027115 0.0 0.0 0.0 0.0
0.185 0.8877073526382446 0.04702531546354294 -5.1023438572883606e-05 0.0007075676694512367 0.0 0.0 0.0 0.0
0.186 0.8889603018760681 0.012244750745594501 9.865313768386841e-05 0.00046665966510772705 0.0 0.0 0.0 0.0
0.187 0.8874729871749878 -0.020480338484048843 8.098036050796509e-05 0.0004321010783314705 0.0 0.0 0.0 0.0
0.188 0.8836513757705688 -0.05333682522177696 9.999237954616547e-05 0.00041328929364681244 0.0 0.0 0.0 0.0
0.189 0.8800850510597229 -0.08421013504266739 -1.9064173102378845e-05 0.0005060257390141487 0.0 0.0 0.0 0.0
0.19 0.8754134774208069 -0.11705303937196732 0.0001664571464061737 0.0006026541814208031 0.0 0.0 0.0 0.0
0.191 0.8686313629150391 -0.1480739712715149 0.00018533505499362946 0.000462530180811882 0.0 0.0 0.0 0.0
0.192 0.8613705635070801 -0.17886784672737122 0.00011576153337955475 0.0003878297284245491 0.0 0.0 0.0 0.0
0.193 0.8545191884040833 -0.2100277990102768 0.0002222517505288124 0.00042698904871940613 0.0 0.0 0.0 0.0
0.194 0.8444300293922424 -0.2408127784729004 0.0002078702673316002 0.0004345867782831192 0.0 0.0 0.0 0.0
0.195 0.8348040580749512 -0.2729375958442688 0.0002061072736978531 0.0004220549017190933 0.0 0.0 0.0 0.0
0.196 0.8233335018157959 -0.2999807894229889 0.00015240907669067383 0.00037255045026540756 0.0 0.0 0.0 0.0
0.197 0.8121322393417358 -0.32967498898506165 0.00027289893478155136 0.000565684400498867 0.0 0.0 0.0 0.0
0.198 0.7950525879859924 -0.35734862089157104 0.0002621002495288849 0.00032808817923069 0.0 0.0 0.0 0.0
0.199 0.7819876074790955 -0.3867734372615814 0.00027566589415073395 0.000196920707821846 0.0 0.0 0.0 0.0
0.2 0.765330970287323 -0.4118446707725525 0.0002357959747314453 0.00031868740916252136 0.0 0.0 0.0 0.0
0.201 0.7499399781227112 -0.43790102005004883 0.00022992119193077087 0.00027267448604106903 0.0 0.0 0.0 0.0
0.202 0.7345649003982544 -0.46438756585121155 0.000245693139731884 0.000273900106549263 0.0 0.0 0.0 0.0
0.203 0.7157317399978638 -0.4886500835418701 0.00030342862010002136 0.00023130886256694794 0.0 0.0 0.0 0.0
0.204 0.6985647678375244 -0.5112569332122803 0.00023664813488721848 0.0004614526405930519 0.0 0.0 0.0 0.0
0.205 0.6789685487747192 -0.5344351530075073 0.0002051880583167076 0.00038931891322135925 0.0 0.0 0.0 0.0
0.206 0.6593846082687378 -0.5582226514816284 0.00039402488619089127 0.0002676891162991524 0.0 0.0 0.0 0.0
0.207 0.6382541060447693 -0.5779454708099365 0.0002917218953371048 0.00042872410267591476 0.0 0.0 0.0 0.0
0.208 0.6173171401023865 -0.601478636264801 0.0003195805475115776 0.00022995006293058395 0.0 0.0 0.0 0.0
0.209 0.594822108745575 -0.6185639500617981 0.0003841938450932503 0.00020074285566806793 0.0 0.0 0.0 0.0
0.21 0.5748679637908936 -0.6401504278182983 0.0003820592537522316 0.000316559337079525 0.0 0.0 0.0 0.0
0.211 0.5525261759757996 -0.6574549674987793 0.00038933660835027695 0.00020837318152189255 0.0 0.0 0.0 0.0
0.212 0.5285332798957825 -0.6740500926971436 0.0004384629428386688 0.00013658404350280762 0.0 0.0 0.0 0.0
0.213 0.5063390135765076 -0.6914616823196411 0.00040624290704727173 0.0001433873549103737 0.0 0.0 0.0 0.0
0.214 0.483267217874527 -0.7055760025978088 0.0004299180582165718 0.0002601807937026024 0.0 0.0 0.0 0.0
0.215 0.46047693490982056 -0.7220078110694885 0.00047191232442855835 0.00018501374870538712 0.0 0.0 0.0 0.0
0.216 0.43548738956451416 -0.7352941632270813 0.000520722009241581 0.00019165407866239548 0.0 0.0 0.0 0.0
0.217 0.41272813081741333 -0.7519494295120239 0.00045024044811725616 0.00022334512323141098 0.0 0.0 0.0 0.0
0.218 0.3842217028141022 -0.7629462480545044 0.0004908228293061256 0.00020015891641378403 0.0 0.0 0.0 0.0
0.219 0.3584262430667877 -0.779249370098114 0.0005073398351669312 4.9831345677375793e-05 0.0 0.0 0.0 0.0
0.22 0.33323055505752563 -0.7845745086669922 0.0004546763375401497 8.69138166308403e-05 0.0 0.0 0.0 0.0
0.221 0.3080262541770935 -0.7997336983680725 0.0006368206813931465 0.00014515593647956848 0.0 0.0 0.0 0.0
0.222 0.2793605923652649 -0.8067120909690857 0.00039351172745227814 0.0002071661874651909 0.0 0.0 0.0 0.0
0.223 0.2524137496948242 -0.8155261278152466 0.0005610836669802666 0.0001539122313261032 0.0 0.0 0.0 0.0
0.224 0.22205181419849396 -0.8207328915596008 0.00048433151096105576 5.8826059103012085e-05 0.0 0.0 0.0 0.0
0.225 0.1966940462589264 -0.8260005116462708 0.0005294289439916611 0.00011220388114452362 0.0 0.0 0.0 0.0
0.226 0.17076483368873596 -0.8297970294952393 0.000601641833782196 0.00016243942081928253 0.0 0.0 0.0 0.0
0.227 0.14286376535892487 -0.8332562446594238 0.0006505269557237625 0.00011012237519025803 0.0 0.0 0.0 0.0
0.228 0.11858154088258743 -0.8401165008544922 0.0006944956257939339 8.067674934864044e-05 0.0 0.0 0.0 0.0
0.229 0.09129250049591064 -0.8407574892044067 0.0007328633219003677 6.433483213186264e-05 0.0 0.0 0.0 0.0
0.23 0.06551970541477203 -0.8464853763580322 0.0008694091811776161 0.0001690797507762909 0.0 0.0 0.0 0.0
0.231 0.038143545389175415 -0.8465707898139954 0.0007692687213420868 2.557225525379181e-05 0.0 0.0 0.0 0.0
0.232 0.010089796967804432 -0.848675012588501 0.000813610851764679 -7.735192775726318e-05 0.0 0.0 0.0 0.0
0.233 -0.017548847943544388 -0.8459150791168213 0.0008731652051210403 -0.0003129560500383377 0.0 0.0 0.0 0.0
0.234 -0.04662926867604256 -0.8449364900588989 0.0007535004988312721 -0.00017162319272756577 0.0 0.0 0.0 0.0
0.235 -0.07149410992860794 -0.8413940668106079 0.00080121960490942 -0.00015745405107736588 0.0 0.0 0.0 0.0
0.236 -0.09895547479391098 -0.8410038352012634 0.0008832104504108429 -0.0003759106621146202 0.0 0.0 0.0 0.0
0.237 -0.12835334241390228 -0.8343369364738464 0.000820639543235302 -0.00040293391793966293 0.0 0.0 0.0 0.0
0.238 -0.15253044664859772 -0.8304495811462402 0.0009578866884112358 -0.0002514375373721123 0.0 0.0 0.0 0.0
0.239 -0.18310052156448364 -0.8246874809265137 0.0008302014321088791 -0.0004474874585866928 0.0 0.0 0.0 0.0
0.24 -0.20848634839057922 -0.8159492611885071 0.0008309977129101753 -0.00038608256727457047 0.0 0.0 0.0 0.0
0.241 -0.23440414667129517 -0.8063082695007324 0.0008386652916669846 -0.000584789551794529 0.0 0.0 0.0 0.0
0.242 -0.2591087222099304 -0.7959824800491333 0.0009918147698044777 -0.0007200036197900772 0.0 0.0 0.0 0.0
0.243 -0.2874535024166107 -0.7873713374137878 0.0010056784376502037 -0.0008723204955458641 0.0 0.0 0.0 0.0
0.244 -0.3077889680862427 -0.7735840082168579 0.0009759049862623215 -0.0007507605478167534 0.0 0.0 0.0 0.0
0.245 -0.33605486154556274 -0.7614490985870361 0.001110992394387722 -0.0010862983763217926 0.0 0.0 0.0 0.0
0.246 -0.356192022562027 -0.7441509366035461 0.0009228503331542015 -0.00102308951318264 0.0 0.0 0.0 0.0
0.247 -0.3764536678791046 -0.7325348854064941 0.00099222082644701 -0.0010610688477754593 0.0 0.0 0.0 0.0
0.248 -0.3965093493461609 -0.7135888338088989 0.0009251721203327179 -0.0011731339618563652 0.0 0.0 0.0 0.0
0.249 -0.4158419072628021 -0.6992312073707581 0.0009563537314534187 -0.0013646753504872322 0.0 0.0 0.0 0.0
0.25 -0.4314810633659363 -0.6796486377716064 0.0008540116250514984 -0.0015371832996606827 0.0 0.0 0.0 0.0
0.251 -0.44618475437164307 -0.6619921922683716 0.0006199562922120094 -0.0018020905554294586 0.0 0.0 0.0 0.0
0.252 -0.4617581367492676 -0.6473920345306396 0.0004020659253001213 -0.001952987164258957 0.0 0.0 0.0 0.0
0.253 -0.46745532751083374 -0.63295978307724 0.00033555272966623306 -0.0018608598038554192 0.0 0.0 0.0 0.0
0.254 -0.4837370216846466 -0.6246398091316223 3.642495721578598e-05 -0.0022447966039180756 0.0 0.0 0.0 0.0
0.255 -0.49487248063087463 -0.6116870045661926 -0.00020058639347553253 -0.002120046876370907 0.0 0.0 0.0 0.0
0.256 -0.5070545673370361 -0.603665292263031 -0.00024200696498155594 -0.0020488211885094643 0.0 0.0 0.0 0.0
0.257 -0.5168230533599854 -0.5930896997451782 -0.0006548762321472168 -0.002174537628889084 0.0 0.0 0.0 0.0
0.258 -0.5271512866020203 -0.5907068848609924 -0.0013353433459997177 -0.002035253681242466 0.0 0.0 0.0 0.0
0.259 -0.5452253818511963 -0.5955222249031067 -0.0012951847165822983 -0.0013653505593538284 0.0 0.0 0.0 0.0
0.26 -0.576158881187439 -0.5941107869148254 -0.0009073251858353615 -0.0010966667905449867 0.0 0.0 0.0 0.0
0.261 -0.6143550276756287 -0.5839554071426392 -0.0006701191887259483 -0.0008358405902981758 0.0 0.0 0.0 0.0
0.262 -0.6472852826118469 -0.5610770583152771 -0.0003232453018426895 -0.0009328024461865425 0.0 0.0 0.0 0.0
0.263 -0.6761420369148254 -0.5319818258285522 -0.0001039654016494751 -0.0010953964665532112 0.0 0.0 0.0 0.0
0.264 -0.6997777819633484 -0.5022963285446167 3.060046583414078e-05 -0.0013589337468147278 0.0 0.0 0.0 0.0
0.265 -0.7222318649291992 -0.47368231415748596 0.0002103680744767189 -0.001886138692498207 0.0 0.0 0.0 0.0
0.266 -0.7385470271110535 -0.44334471225738525 0.00018714368343353271 -0.0022629396989941597 0.0 0.0 0.0 0.0
0.267 -0.7518002986907959 -0.41056784987449646 -9.756814688444138e-05 -0.0027445340529084206 0.0 0.0 0.0 0.0
0.268 -0.761400580406189 -0.37548941373825073 -0.000520782545208931 -0.003235164098441601 0.0 0.0 0.0 0.0
0.269 -0.7704998850822449 -0.3402770161628723 -0.0011332277208566666 -0.0038381265476346016 0.0 0.0 0.0 0.0
0.27 -0.769835352897644 -0.30525046586990356 -0.002037426456809044 -0.004030113108456135 0.0 0.0 0.0 0.0
0.271 -0.7681459188461304 -0.2764045298099518 -0.003174370154738426 -0.00433927308768034 0.0 0.0 0.0 0.0
0.272 -0.7626718282699585 -0.2514214515686035 -0.0042345840483903885 -0.003908300772309303 0.0 0.0 0.0 0.0
0.273 -0.7560552954673767 -0.22863426804542542 -0.005579288117587566 -0.003087058663368225 0.0 0.0 0.0 0.0
0.274 -0.7495465278625488 -0.2154422253370285 -0.006504705175757408 -0.0018895138055086136 0.0 0.0 0.0 0.0
0.275 -0.7517128586769104 -0.20765361189842224 -0.0067700473591685295 -0.000451480969786644 0.0 0.0 0.0 0.0
0.276 -0.7600655555725098 -0.1985439956188202 -0.006514611653983593 0.0011675739660859108 0.0 0.0 0.0 0.0
0.277 -0.7724970579147339 -0.18213699758052826 -0.0058222198858857155 0.0022629471495747566 0.0 0.0 0.0 0.0
0.278 -0.7882454991340637 -0.16228781640529633 -0.005025273188948631 0.002963069826364517 0.0 0.0 0.0 0.0
0.279 -0.799339771270752 -0.13686783611774445 -0.004393693059682846 0.003475387580692768 0.0 0.0 0.0 0.0
0.28 -0.8095936179161072 -0.11273754388093948 -0.003596602939069271 0.003783571533858776 0.0 0.0 0.0 0.0
0.281 -0.8185884952545166 -0.08381827175617218 -0.003086863085627556 0.0038943197578191757 0.0 0.0 0.0 0.0
0.282 -0.8222151398658752 -0.05520985648036003 -0.002388513647019863 0.004102500155568123 0.0 0.0 0.0 0.0
0.283 -0.829923152923584 -0.02055407501757145 -0.0018044589087367058 0.003847244195640087 0.0 0.0 0.0 0.0
0.284 -0.8283501863479614 0.010950914584100246 -0.0014095073565840721 0.00377811212092638 0.0 0.0 0.0 0.0
0.285 -0.8287509679794312 0.04394197463989258 -0.00120600126683712 0.003665674477815628 0.0 0.0 0.0 0.0
0.286 -0.8236094117164612 0.07154561579227448 -0.0007179640233516693 0.0035735582932829857 0.0 0.0 0.0 0.0
0.287 -0.8194109797477722 0.10637958347797394 -0.0005372222512960434 0.0035834936425089836 0.0 0.0 0.0 0.0
0.288 -0.8131417632102966 0.13217200338840485 -0.00021384190768003464 0.003578624688088894 0.0 0.0 0.0 0.0
0.289 -0.8092918992042542 0.1645163595676422 1.653190702199936e-05 0.003339981660246849 0.0 0.0 0.0 0.0
0.29 -0.7982801198959351 0.19461654126644135 0.00032253749668598175 0.003170538693666458 0.0 0.0 0.0 0.0
0.291 -0.7877538204193115 0.22491556406021118 0.0004157125949859619 0.003245108760893345 0.0 0.0 0.0 0.0
0.292 -0.7737765312194824 0.2559659779071808 0.0005339914932847023 0.0029949303716421127 0.0 0.0 0.0 0.0
0.293 -0.7618348002433777 0.28318512439727783 0.0006498945876955986 0.0028365571051836014 0.0 0.0 0.0 0.0
0.294 -0.74277663230896 0.3131534457206726 0.0008095270022749901 0.00291471928358078 0.0 0.0 0.0 0.0
0.295 -0.727008044719696 0.3384343981742859 0.0007884763181209564 0.002723848447203636 0.0 0.0 0.0 0.0
0.296 -0.7097190618515015 0.36414146423339844 0.0010790834203362465 0.0025743022561073303 0.0 0.0 0.0 0.0
0.297 -0.6873980760574341 0.38714858889579773 0.0011890605092048645 0.0026426399126648903 0.0 0.0 0.0 0.0
0.298 -0.669638991355896 0.410489022731781 0.0013264240697026253 0.0023369183763861656 0.0 0.0 0.0 0.0
0.299 -0.6468911170959473 0.43129196763038635 0.0013634776696562767 0.002289378084242344 0.0 0.0 0.0 0.0
0.3 -0.6239643692970276 0.4515262544155121 0.0017224252223968506 0.002277761697769165 0.0 0.0 0.0 0.0
0.301 -0.6006370186805725 0.4715653657913208 0.0017723878845572472 0.002139374613761902 0.0 0.0 0.0 0.0
0.302 -0.5768477916717529 0.48858460783958435 0.0016119368374347687 0.0018466319888830185 0.0 0.0 0.0 0.0
0.303 -0.5522411465644836 0.5044329166412354 0.0018465230241417885 0.0016563842073082924 0.0 0.0 0.0 0.0
0.304 -0.5257533192634583 0.5181635618209839 0.002035013400018215 0.0017876196652650833 0.0 0.0 0.0 0.0
0.305 -0.5006966590881348 0.5325058698654175 0.001971133053302765 0.0016036927700042725 0.0 0.0 0.0 0.0
0.306 -0.4769360423088074 0.5436933040618896 0.002092234790325165 0.0014567095786333084 0.0 0.0 0.0 0.0
0.307 -0.4515472948551178 0.5542803406715393 0.0021187588572502136 0.0012681446969509125 0.0 0.0 0.0 0.0
0.308 -0.42504432797431946 0.5614429712295532 0.002313564531505108 0.001253942959010601 0.0 0.0 0.0 0.0
0.309 -0.39861202239990234 0.5705438256263733 0.002489035949110985 0.001115436665713787 0.0 0.0 0.0 0.0
0.31 -0.3727063238620758 0.5765072107315063 0.002395711839199066 0.0008861441165208817 0.0 0.0 0.0 0.0
0.311 -0.3462499976158142 0.5817592740058899 0.0023946790024638176 0.0008515762165188789 0.0 0.0 0.0 0.0
0.312 -0.3198249936103821 0.5841273665428162 0.002592172473669052 0.0007652491331100464 0.0 0.0 0.0 0.0
0.313 -0.294583261013031 0.5873540043830872 0.002557249739766121 0.000486752949655056 0.0 0.0 0.0 0.0
0.314 -0.2672100067138672 0.5885872840881348 0.0026189330965280533 0.0003373837098479271 0.0 0.0 0.0 0.0
0.315 -0.2405121624469757 0.5839442014694214 0.0027373405173420906 0.0003503737971186638 0.0 0.0 0.0 0.0
0.316 -0.21675585210323334 0.5820583701133728 0.002568421885371208 -1.2430362403392792e-05 0.0 0.0 0.0 0.0
0.317 -0.1941557377576828 0.5752725601196289 0.0027817022055387497 -0.00029170140624046326 0.0 0.0 0.0 0.0
0.318 -0.16986900568008423 0.5693432092666626 0.002676641568541527 -0.0001756027340888977 0.0 0.0 0.0 0.0
0.319 -0.14886055886745453 0.5612309575080872 0.002574736252427101 -0.0005619172006845474 0.0 0.0 0.0 0.0
0.32 -0.1287708580493927 0.5498527884483337 0.002607036381959915 -0.0007943762466311455 0.0 0.0 0.0 0.0
0.321 -0.11272916942834854 0.5368064641952515 0.002675808034837246 -0.0009085042402148247 0.0 0.0 0.0 0.0
0.322 -0.0990978255867958 0.5250492095947266 0.0025513572618365288 -0.0011353082954883575 0.0 0.0 0.0 0.0
0.323 -0.08893134444952011 0.5118113160133362 0.002354266121983528 -0.0013806400820612907 0.0 0.0 0.0 0.0
0.324 -0.07800287008285522 0.5035366415977478 0.0020241672173142433 -0.0015569040551781654 0.0 0.0 0.0 0.0
0.325 -0.0697581022977829 0.4902888834476471 0.002156107686460018 -0.0017009908333420753 0.0 0.0 0.0 0.0
0.326 -0.06589586287736893 0.4790545403957367 0.002064465545117855 -0.0019430341199040413 0.0 0.0 0.0 0.0
0.327 -0.061705734580755234 0.46917563676834106 0.0016654087230563164 -0.002019135281443596 0.0 0.0 0.0 0.0
0.328 -0.06426406651735306 0.463224858045578 0.001609060913324356 -0.002168893814086914 0.0 0.0 0.0 0.0
0.329 -0.06534554064273834 0.459415078163147 0.0013639051467180252 -0.0021977853029966354 0.0 0.0 0.0 0.0
0.33 -0.06556386500597 0.457539439201355 0.0012043211609125137 -0.0021146228536963463 0.0 0.0 0.0 0.0
0.331 -0.06576596945524216 0.46019965410232544 0.0010310038924217224 -0.0022843685001134872 0.0 0.0 0.0 0.0
0.332 -0.06745030730962753 0.4641572833061218 0.0007173269987106323 -0.0024410905316472054 0.0 0.0 0.0 0.0
0.333 -0.06604474782943726 0.4700099229812622 0.000703158788383007 -0.00221158005297184 0.0 0.0 0.0 0.0
0.334 -0.06272848695516586 0.4774780869483948 0.0004844712093472481 -0.0022447342053055763 0.0 0.0 0.0 0.0
0.335 -0.05823492631316185 0.48466765880584717 0.0003041597083210945 -0.0023682238534092903 0.0 0.0 0.0 0.0
0.336 -0.05290625989437103 0.49325382709503174 8.74251127243042e-05 -0.0022722454741597176 0.0 0.0 0.0 0.0
0.337 -0.04717568680644035 0.5041170120239258 -1.4713965356349945e-05 -0.002221016213297844 0.0 0.0 0.0 0.0
0.338 -0.0389128252863884 0.5132511854171753 -0.00012166518718004227 -0.002501140348613262 0.0 0.0 0.0 0.0
0.339 -0.02983762137591839 0.5250385999679565 -0.0001910170540213585 -0.0023628873750567436 0.0 0.0 0.0 0.0
0.34 -0.017674999311566353 0.5362432599067688 -0.0006716391071677208 -0.0022328589111566544 0.0 0.0 0.0 0.0
0.341 -0.007388926111161709 0.5511208772659302 -0.0007428070530295372 -0.002084622159600258 0.0 0.0 0.0 0.0
0.342 0.009388193488121033 0.5623795986175537 -0.0005777888000011444 -0.002075633965432644 0.0 0.0 0.0 0.0
0.343 0.024093909189105034 0.5756117105484009 -0.001134183257818222 -0.0019520875066518784 0.0 0.0 0.0 0.0
0.344 0.04349474236369133 0.5905889868736267 -0.0013999370858073235 -0.0018671723082661629 0.0 0.0 0.0 0.0
0.345 0.06882977485656738 0.6032652258872986 -0.0011928007006645203 -0.001639735884964466 0.0 0.0 0.0 0.0
0.346 0.0975445881485939 0.6117498278617859 -0.0012751221656799316 -0.001530386507511139 0.0 0.0 0.0 0.0
0.347 0.12078534066677094 0.6172182559967041 -0.0014413846656680107 -0.001348697580397129 0.0 0.0 0.0 0.0
0.348 0.15058675408363342 0.6248558163642883 -0.001503962092101574 -0.001279435120522976 0.0 0.0 0.0 0.0
0.349 0.18201833963394165 0.6276924014091492 -0.0015957951545715332 -0.0009702444076538086 0.0 0.0 0.0 0.0
0.35 0.21399039030075073 0.6257091760635376 -0.001466546207666397 -0.0008040191605687141 0.0 0.0 0.0 0.0
0.351 0.244697704911232 0.6206074357032776 -0.0015600882470607758 -0.0007023094221949577 0.0 0.0 0.0 0.0
0.352 0.27352970838546753 0.6148360371589661 -0.0015189694240689278 -0.0004572393372654915 0.0 0.0 0.0 0.0
0.353 0.30159705877304077 0.6067229509353638 -0.001686382107436657 -0.0005833441391587257 0.0 0.0 0.0 0.0
0.354 0.3271157741546631 0.5988903641700745 -0.0014976980164647102 -0.0005686692893505096 0.0 0.0 0.0 0.0
0.355 0.3561510443687439 0.5907468795776367 -0.0015004342421889305 -0.00027478858828544617 0.0 0.0 0.0 0.0
0.356 0.3850703537464142 0.5795571208000183 -0.001563502475619316 1.143570989370346e-05 0.0 0.0 0.0 0.0
0.357 0.4144306182861328 0.5658406615257263 -0.001408522017300129 7.277168333530426e-05 0.0 0.0 0.0 0.0
0.358 0.4374603033065796 0.5488934516906738 -0.0013912208378314972 1.9762665033340454e-06 0.0 0.0 0.0 0.0
0.359 0.4633558988571167 0.5339363217353821 -0.0014604134485125542 0.00011053215712308884 0.0 0.0 0.0 0.0
0.36 0.4862470030784607 0.517291247844696 -0.001431616023182869 0.00018202420324087143 0.0 0.0 0.0 0.0
0.361 0.5106745958328247 0.5020263195037842 -0.0012306449934840202 0.00043926481157541275 0.0 0.0 0.0 0.0
0.362 0.5348913073539734 0.48325905203819275 -0.0012628240510821342 0.0006102034822106361 0.0 0.0 0.0 0.0
0.363 0.5581218600273132 0.4665219485759735 -0.001201908104121685 0.0003697965294122696 0.0 0.0 0.0 0.0
0.364 0.5816798806190491 0.44504767656326294 -0.000920051708817482 0.0004969323053956032 0.0 0.0 0.0 0.0
0.365 0.6070632338523865 0.4228690564632416 -0.0010190345346927643 0.0004648985341191292 0.0 0.0 0.0 0.0
0.366 0.6294229030609131 0.3977743983268738 -0.0008711647242307663 0.0005598803982138634 0.0 0.0 0.0 0.0
0.367 0.6474846005439758 0.36995476484298706 -0.0007489947602152824 0.000605706125497818 0.0 0.0 0.0 0.0
0.368 0.6685172319412231 0.3430579602718353 -0.0007358016446232796 0.000596298836171627 0.0 0.0 0.0 0.0
0.369 0.6832646727561951 0.31371983885765076 -0.0006558531895279884 0.0005349405109882355 0.0 0.0 0.0 0.0
0.37 0.7024615406990051 0.2901085913181305 -0.0006474200636148453 0.0008191065862774849 0.0 0.0 0.0 0.0
0.371 0.7182950973510742 0.25625792145729065 -0.0004043877124786377 0.0006422540172934532 0.0 0.0 0.0 0.0
0.372 0.7312761545181274 0.22316603362560272 -0.00037711020559072495 0.0005058730021119118 0.0 0.0 0.0 0.0
0.373 0.7403875589370728 0.18987497687339783 -0.00045128539204597473 0.0006383182480931282 0.0 0.0 0.0 0.0
0.374 0.749937891960144 0.15833646059036255 -0.00025754235684871674 0.0004892358556389809 0.0 0.0 0.0 0.0
0.375 0.7580013275146484 0.12502792477607727 -0.00015129521489143372 0.0006883135065436363 0.0 0.0 0.0 0.0
0.376 0.7622833847999573 0.0919371247291565 -0.0003503859043121338 0.0005852235481142998 0.0 0.0 0.0 0.0
0.377 0.7657145857810974 0.05647962540388107 -0.00010022148489952087 0.0007319971919059753 0.0 0.0 0.0 0.0
0.378 0.7679181694984436 0.023889822885394096 -0.00035245902836322784 0.0005578342825174332 0.0 0.0 0.0 0.0
0.379 0.7674062252044678 -0.011447779834270477 -7.838662713766098e-05 0.00040862057358026505 0.0 0.0 0.0 0.0
0.38 0.7635459303855896 -0.0406339205801487 -8.243881165981293e-05 0.0003769984468817711 0.0 0.0 0.0 0.0
0.381 0.7572058439254761 -0.07560406625270844 -0.0003202194347977638 0.0004289252683520317 0.0 0.0 0.0 0.0
0.382 0.7522741556167603 -0.10303811728954315 -2.8862617909908295e-05 0.0005451636388897896 0.0 0.0 0.0 0.0
0.383 0.7452579140663147 -0.13162218034267426 -0.0003205472603440285 0.0006420165300369263 0.0 0.0 0.0 0.0
0.384 0.7379631996154785 -0.16248665750026703 -0.0002214023843407631 0.0004903580993413925 0.0 0.0 0.0 0.0
0.385 0.7323532104492188 -0.1904425472021103 5.2383169531822205e-05 0.0006421506404876709 0.0 0.0 0.0 0.0
0.386 0.7207239866256714 -0.21805906295776367 -8.015800267457962e-05 0.0005812458693981171 0.0 0.0 0.0 0.0
0.387 0.7100527882575989 -0.24529330432415009 -3.38992103934288e-05 0.0004781177267432213 0.0 0.0 0.0 0.0
0.388 0.6961647272109985 -0.2714293599128723 -0.00016926787793636322 0.00046651531010866165 0.0 0.0 0.0 0.0
0.389 0.6844037771224976 -0.2972002327442169 1.905485987663269e-06 0.0004934342578053474 0.0 0.0 0.0 0.0
0.39 0.6698070764541626 -0.32292765378952026 8.593592792749405e-05 0.00020274147391319275 0.0 0.0 0.0 0.0
0.391 0.6552303433418274 -0.34340035915374756 8.875969797372818e-05 0.00043798331171274185 0.0 0.0 0.0 0.0
0.392 0.63896644115448 -0.3690744936466217 7.484573870897293e-05 0.0004022950306534767 0.0 0.0 0.0 0.0
0.393 0.6254761219024658 -0.3889804482460022 -6.380770355463028e-05 0.00047013722360134125 0.0 0.0 0.0 0.0
0.394 0.6066381335258484 -0.4086657762527466 -5.717668682336807e-05 0.0006127180531620979 0.0 0.0 0.0 0.0
0.395 0.5886590480804443 -0.4287642240524292 0.0002734474837779999 0.0003392845392227173 0.0 0.0 0.0 0.0
0.396 0.5705758929252625 -0.44880247116088867 0.00024754274636507034 0.00031736213713884354 0.0 0.0 0.0 0.0
0.397 0.5534144639968872 -0.4648496210575104 0.00029249023646116257 0.00036959536373615265 0.0 0.0 0.0 0.0
0.398 0.5340949296951294 -0.48007023334503174 0.0002519572153687477 0.0002213241532444954 0.0 0.0 0.0 0.0
0.399 0.5143117308616638 -0.49373671412467957 0.00020200293511152267 0.0002996176481246948 0.0 0.0 0.0 0.0
0.4 0.49626263976097107 -0.5068454146385193 0.00014831125736236572 0.00023202132433652878 0.0 0.0 0.0 0.0
0.401 0.4776650369167328 -0.5228258967399597 0.00023982487618923187 0.00022914353758096695 0.0 0.0 0.0 0.0
0.402 0.45926332473754883 -0.5309885144233704 8.576642721891403e-05 0.00016340985894203186 0.0 0.0 0.0 0.0
0.403 0.43742746114730835 -0.5439432859420776 0.000295441597700119 0.0001073647290468216 0.0 0.0 0.0 0.0
0.404 0.42149612307548523 -0.551094651222229 0.0003033829852938652 0.00016318261623382568 0.0 0.0 0.0 0.0
0.405 0.4016292691230774 -0.5630725622177124 0.00030918605625629425 -0.00013623852282762527 0.0 0.0 0.0 0.0
0.406 0.3858591914176941 -0.5687785744667053 0.0003595268353819847 -5.417410284280777e-05 0.0 0.0 0.0 0.0
0.407 0.3703663647174835 -0.5752982497215271 0.000373203307390213 -0.00015972089022397995 0.0 0.0 0.0 0.0
0.408 0.35654962062835693 -0.5835158824920654 0.00025569554418325424 -0.00017890054732561111 0.0 0.0 0.0 0.0
0.409 0.34459388256073 -0.5925856828689575 0.00013346318155527115 -4.286784678697586e-05 0.0 0.0 0.0 0.0
0.41 0.3255782127380371 -0.6049107909202576 0.00020405836403369904 -0.00014532171189785004 0.0 0.0 0.0 0.0
0.411 0.30910924077033997 -0.6136084198951721 4.489906132221222e-05 -0.00014091003686189651 0.0 0.0 0.0 0.0
0.412 0.2875734865665436 -0.6195458173751831 6.579607725143433e-05 -0.00010945554822683334 0.0 0.0 0.0 0.0
0.413 0.2750664949417114 -0.6218228936195374 0.0002215467393398285 5.9262849390506744e-05 0.0 0.0 0.0 0.0
0.414 0.25955134630203247 -0.6304142475128174 0.00016522035002708435 -0.0001447964459657669 0.0 0.0 0.0 0.0
0.415 0.24131324887275696 -0.6356432437896729 1.7590820789337158e-05 -9.786151349544525e-05 0.0 0.0 0.0 0.0
0.416 0.22932638227939606 -0.6380937695503235 0.00010091159492731094 -0.00013569742441177368 0.0 0.0 0.0 0.0
0.417 0.2156686782836914 -0.6438166499137878 -3.275647759437561e-05 -0.0002542119473218918 0.0 0.0 0.0 0.0
0.418 0.20400269329547882 -0.6548786759376526 -2.665352076292038e-05 -0.0003730393946170807 0.0 0.0 0.0 0.0
0.419 0.19392941892147064 -0.6638733744621277 -0.00011422019451856613 -0.00024520233273506165 0.0 0.0 0.0 0.0
0.42 0.17632317543029785 -0.6765889525413513 -0.00028855446726083755 -0.0003936532884836197 0.0 0.0 0.0 0.0
0.421 0.1583881825208664 -0.6908122301101685 -0.00026537105441093445 -0.00033610034734010696 0.0 0.0 0.0 0.0
0.422 0.13916118443012238 -0.6989644169807434 -0.0005005141720175743 -0.00013948418200016022 0.0 0.0 0.0 0.0
0.423 0.1157030239701271 -0.7081587910652161 -0.00033119507133960724 -0.0001248866319656372 0.0 0.0 0.0 0.0
0.424 0.09436333924531937 -0.7118782997131348 -0.00038193073123693466 -0.00010646507143974304 0.0 0.0 0.0 0.0
0.425 0.07366889715194702 -0.7152782678604126 -0.0005054567009210587 4.609115421772003e-05 0.0 0.0 0.0 0.0
0.426 0.05461171641945839 -0.7224825024604797 -0.0005910871550440788 -0.00020896457135677338 0.0 0.0 0.0 0.0
0.427 0.033648520708084106 -0.7310844659805298 -0.0005563776940107346 -4.117749631404877e-05 0.0 0.0 0.0 0.0
0.428 0.009003831073641777 -0.73524409532547 -0.0005276501178741455 3.947131335735321e-05 0.0 0.0 0.0 0.0
0.429 -0.019051983952522278 -0.7393642663955688 -0.0006219604983925819 0.00011432729661464691 0.0 0.0 0.0 0.0
0.43 -0.04486505314707756 -0.7343993186950684 -0.000613274984061718 0.0003184294328093529 0.0 0.0 0.0 0.0
0.431 -0.06759171932935715 -0.7355935573577881 -0.000426742248237133 0.00013657379895448685 0.0 0.0 0.0 0.0
0.432 -0.08578754961490631 -0.7321624755859375 -0.0006957445293664932 0.0003918120637536049 0.0 0.0 0.0 0.0
0.433 -0.10990062355995178 -0.7284249067306519 -0.0006579747423529625 0.0003583710640668869 0.0 0.0 0.0 0.0
0.434 -0.13064852356910706 -0.7285836935043335 -0.0007115509361028671 0.00042424071580171585 0.0 0.0 0.0 0.0
0.435 -0.15435081720352173 -0.7243015766143799 -0.0009542116895318031 0.0004665609449148178 0.0 0.0 0.0 0.0
0.436 -0.17685678601264954 -0.7215163707733154 -0.0010227710008621216 0.0005762381479144096 0.0 0.0 0.0 0.0
0.437 -0.19680573046207428 -0.7164512872695923 -0.0008862577378749847 0.0009881248697638512 0.0 0.0 0.0 0.0
0.438 -0.22023990750312805 -0.714144766330719 -0.0007923198863863945 0.0008815284818410873 0.0 0.0 0.0 0.0
0.439 -0.23824115097522736 -0.7095516920089722 -0.0009249038994312286 0.0011197449639439583 0.0 0.0 0.0 0.0
0.44 -0.2646457552909851 -0.7055941820144653 -0.0006722593680024147 0.0012153619900345802 0.0 0.0 0.0 0.0
0.441 -0.2887919545173645 -0.6965526342391968 -0.0007676733657717705 0.0014133322983980179 0.0 0.0 0.0 0.0
0.442 -0.3185386061668396 -0.6871771216392517 -0.0005195308476686478 0.0014653969556093216 0.0 0.0 0.0 0.0
0.443 -0.34001731872558594 -0.6745505928993225 -0.00030774064362049103 0.001550976186990738 0.0 0.0 0.0 0.0
0.444 -0.3603760302066803 -0.6598114967346191 -0.0005704415962100029 0.0019536493346095085 0.0 0.0 0.0 0.0
0.445 -0.3825708031654358 -0.6500351428985596 -0.0003740256652235985 0.001846075989305973 0.0 0.0 0.0 0.0
0.446 -0.40219321846961975 -0.6372304558753967 -0.0001116488128900528 0.0020690299570560455 0.0 0.0 0.0 0.0
0.447 -0.4226325452327728 -0.6227856278419495 0.00018642377108335495 0.0021927403286099434 0.0 0.0 0.0 0.0
0.448 -0.4392554461956024 -0.6073558926582336 0.0004099002107977867 0.0020854035392403603 0.0 0.0 0.0 0.0
0.449 -0.45981714129447937 -0.5875549912452698 0.0005797268822789192 0.002202976495027542 0.0 0.0 0.0 0.0
0.45 -0.47981733083724976 -0.5733844041824341 0.0008597010746598244 0.0023949770256876945 0.0 0.0 0.0 0.0
0.451 -0.4988670349121094 -0.5581699013710022 0.0012720366939902306 0.002337542362511158 0.0 0.0 0.0 0.0
0.452 -0.510554313659668 -0.5392289757728577 0.0014951825141906738 0.0024001337587833405 0.0 0.0 0.0 0.0
0.453 -0.5315853357315063 -0.5219737887382507 0.0017152419313788414 0.0020704036578536034 0.0 0.0 0.0 0.0
0.454 -0.546379029750824 -0.4975822865962982 0.0018187379464507103 0.0021444177255034447 0.0 0.0 0.0 0.0
0.455 -0.5606625080108643 -0.4794032573699951 0.002270105294883251 0.0019822996109724045 0.0 0.0 0.0 0.0
0.456 -0.5738858580589294 -0.45435503125190735 0.002438451163470745 0.0018865307793021202 0.0 0.0 0.0 0.0
0.457 -0.5830449461936951 -0.43582430481910706 0.0028832266107201576 0.0017741816118359566 0.0 0.0 0.0 0.0
0.458 -0.5932438373565674 -0.41289085149765015 0.0029101474210619926 0.0013488056138157845 0.0 0.0 0.0 0.0
0.459 -0.6025315523147583 -0.3890954554080963 0.0030667223036289215 0.0010682456195354462 0.0 0.0 0.0 0.0
0.46 -0.6078534126281738 -0.36167824268341064 0.003197910264134407 0.0011280057951807976 0.0 0.0 0.0 0.0
0.461 -0.6116856336593628 -0.34245434403419495 0.003356184810400009 0.0006352188065648079 0.0 0.0 0.0 0.0
0.462 -0.6148303151130676 -0.3234461843967438 0.003602927550673485 0.00035446882247924805 0.0 0.0 0.0 0.0
0.463 -0.6176709532737732 -0.30403926968574524 0.003762206993997097 -3.6189332604408264e-05 0.0 0.0 0.0 0.0
0.464 -0.6218435168266296 -0.2833157777786255 0.0037110066041350365 -0.0004107421264052391 0.0 0.0 0.0 0.0
0.465 -0.6262802481651306 -0.26505446434020996 0.003567563369870186 -0.0007601277902722359 0.0 0.0 0.0 0.0
0.466 -0.6311686635017395 -0.24386538565158844 0.0035713836550712585 -0.0009980741888284683 0.0 0.0 0.0 0.0
0.467 -0.629020631313324 -0.22132620215415955 0.00337362103164196 -0.0011667963117361069 0.0 0.0 0.0 0.0
0.468 -0.6309597492218018 -0.2035573124885559 0.0034817857667803764 -0.0016294093802571297 0.0 0.0 0.0 0.0
0.469 -0.6267935633659363 -0.1858542412519455 0.0033633243292570114 -0.001789085566997528 0.0 0.0 0.0 0.0
0.47 -0.628022313117981 -0.17048315703868866 0.003440825268626213 -0.002049011178314686 0.0 0.0 0.0 0.0
0.471 -0.6300533413887024 -0.1517471969127655 0.0032632015645503998 -0.0025737034156918526 0.0 0.0 0.0 0.0
0.472 -0.629588782787323 -0.13717177510261536 0.003033298999071121 -0.0028471192345023155 0.0 0.0 0.0 0.0
0.473 -0.6286345720291138 -0.11697787046432495 0.0027144579216837883 -0.00290015060454607 0.0 0.0 0.0 0.0
0.474 -0.6290008425712585 -0.0991155207157135 0.0025971168652176857 -0.0031760158017277718 0.0 0.0 0.0 0.0
0.475 -0.6298211216926575 -0.08029334992170334 0.0024430761113762856 -0.003530733287334442 0.0 0.0 0.0 0.0
0.476 -0.6234496235847473 -0.06027214229106903 0.0020869895815849304 -0.0036640046164393425 0.0 0.0 0.0 0.0
0.477 -0.6181021928787231 -0.04165742173790932 0.0020362380892038345 -0.003825652413070202 0.0 0.0 0.0 0.0
0.478 -0.610903263092041 -0.027051711454987526 0.0016841134056448936 -0.004041729494929314 0.0 0.0 0.0 0.0
0.479 -0.6077358722686768 -0.012232508510351181 0.0014088815078139305 -0.004422806203365326 0.0 0.0 0.0 0.0
0.48 -0.6009145975112915 -0.0003090137615799904 0.0010562166571617126 -0.004247845150530338 0.0 0.0 0.0 0.0
0.481 -0.6000759601593018 0.016363775357604027 0.0005718311294913292 -0.004477161914110184 0.0 0.0 0.0 0.0
0.482 -0.5941202044487 0.027948474511504173 0.0003798520192503929 -0.004590983502566814 0.0 0.0 0.0 0.0
0.483 -0.5948812365531921 0.04176802933216095 4.510022699832916e-05 -0.004701842553913593 0.0 0.0 0.0 0.0
0.484 -0.5913379788398743 0.05435636639595032 -0.00034866947680711746 -0.004617447033524513 0.0 0.0 0.0 0.0
0.485 -0.5915829539299011 0.07111041247844696 -0.0006552189588546753 -0.005017423070967197 0.0 0.0 0.0 0.0
0.486 -0.5875632762908936 0.09394139796495438 -0.0010950220748782158 -0.0046760449185967445 0.0 0.0 0.0 0.0
0.487 -0.5788800716400146 0.11165434867143631 -0.0016123922541737556 -0.004512261599302292 0.0 0.0 0.0 0.0
0.488 -0.5680217742919922 0.13188102841377258 -0.0018499735742807388 -0.0043602753430604935 0.0 0.0 0.0 0.0
0.489 -0.5569524168968201 0.147071972489357 -0.0022678887471556664 -0.004202330484986305 0.0 0.0 0.0 0.0
0.49 -0.5455392003059387 0.1607239991426468 -0.0026799216866493225 -0.004003655165433884 0.0 0.0 0.0 0.0
0.491 -0.5318816900253296 0.17351612448692322 -0.0027486486360430717 -0.004042970947921276 0.0 0.0 0.0 0.0
0.492 -0.5200905203819275 0.18387502431869507 -0.002967214211821556 -0.0035932790488004684 0.0 0.0 0.0 0.0
0.493 -0.506264328956604 0.1956220269203186 -0.003549727611243725 -0.0034909723326563835 0.0 0.0 0.0 0.0
0.494 -0.49473047256469727 0.20095397531986237 -0.003718532621860504 -0.003521605394780636 0.0 0.0 0.0 0.0
0.495 -0.48279091715812683 0.2085077166557312 -0.003945573233067989 -0.0031087901443243027 0.0 0.0 0.0 0.0
0.496 -0.4726511836051941 0.21215219795703888 -0.004209060221910477 -0.0026659108698368073 0.0 0.0 0.0 0.0
0.497 -0.46320855617523193 0.21876192092895508 -0.004432918503880501 -0.0024529658257961273 0.0 0.0 0.0 0.0
0.498 -0.45622125267982483 0.2220553159713745 -0.004695759154856205 -0.002144121564924717 0.0 0.0 0.0 0.0
0.499 -0.4490188658237457 0.22511979937553406 -0.00490268599241972 -0.0017382670193910599 0.0 0.0 0.0 0.0
0.5 -0.44453611969947815 0.22925598919391632 -0.00512621458619833 -0.001479126513004303 0.0 0.0 0.0 0.0
0.501 -0.43910539150238037 0.2354511171579361 -0.005252686329185963 -0.000918765552341938 0.0 0.0 0.0 0.0
0.502 -0.43347811698913574 0.23714835941791534 -0.00535417627543211 -0.0005538510158658028 0.0 0.0 0.0 0.0
0.503 -0.43144091963768005 0.2404649406671524 -0.005479509010910988 -6.071757525205612e-05 0.0 0.0 0.0 0.0
0.504 -0.4284035861492157 0.24805884063243866 -0.005574439652264118 0.0005295528098940849 0.0 0.0 0.0 0.0
0.505 -0.4261521100997925 0.2524814307689667 -0.0053015900775790215 0.0012268107384443283 0.0 0.0 0.0 0.0
0.506 -0.4232454299926758 0.2555184066295624 -0.005219915881752968 0.0014251023530960083 0.0 0.0 0.0 0.0
0.507 -0.4258705973625183 0.2611173689365387 -0.004959420301020145 0.002064221538603306 0.0 0.0 0.0 0.0
0.508 -0.43249762058258057 0.2707405984401703 -0.004907948896288872 0.002128233201801777 0.0 0.0 0.0 0.0
0.509 -0.4332665503025055 0.27953624725341797 -0.0046204011887311935 0.002522011287510395 0.0 0.0 0.0 0.0
0.51 -0.4332120716571808 0.29338338971138 -0.00429343618452549 0.0031970925629138947 0.0 0.0 0.0 0.0
0.511 -0.4359355568885803 0.30175113677978516 -0.004193989560008049 0.00335643719881773 0.0 0.0 0.0 0.0
0.512 -0.4418419599533081 0.31721675395965576 -0.004036253318190575 0.0036764293909072876 0.0 0.0 0.0 0.0
0.513 -0.44270217418670654 0.3325800895690918 -0.0036292392760515213 0.004092944785952568 0.0 0.0 0.0 0.0
0.514 -0.44630855321884155 0.35398751497268677 -0.003202340565621853 0.004327005706727505 0.0 0.0 0.0 0.0
0.515 -0.4488145411014557 0.371271014213562 -0.002672807313501835 0.004624827764928341 0.0 0.0 0.0 0.0
0.516 -0.44687992334365845 0.39904719591140747 -0.0023800451308488846 0.004968843422830105 0.0 0.0 0.0 0.0
0.517 -0.4437713921070099 0.42394542694091797 -0.0016147224232554436 0.004842634312808514 0.0 0.0 0.0 0.0
0.518 -0.4367198050022125 0.4539395868778229 -0.0013281283900141716 0.0049663446843624115 0.0 0.0 0.0 0.0
0.519 -0.42241933941841125 0.4801076650619507 -0.0009001428261399269 0.005041842348873615 0.0 0.0 0.0 0.0
0.52 -0.4118816554546356 0.5016821026802063 -0.0002511013299226761 0.005031024105846882 0.0 0.0 0.0 0.0
0.521 -0.40051379799842834 0.5273393392562866 0.0002784980461001396 0.004966914653778076 0.0 0.0 0.0 0.0
0.522 -0.38784506916999817 0.554054856300354 0.000903659500181675 0.004672260023653507 0.0 0.0 0.0 0.0
0.523 -0.3682019114494324 0.5861375331878662 0.001152658835053444 0.004554188810288906 0.0 0.0 0.0 0.0
0.524 -0.3463696241378784 0.6133551597595215 0.0015947045758366585 0.00402608048170805 0.0 0.0 0.0 0.0
0.525 -0.3178725838661194 0.6424177289009094 0.001942470669746399 0.0038972031325101852 0.0 0.0 0.0 0.0
0.526 -0.2886887788772583 0.664441704750061 0.002187219448387623 0.0035274820402264595 0.0 0.0 0.0 0.0
0.527 -0.25723159313201904 0.6876805424690247 0.0022072941064834595 0.003036821261048317 0.0 0.0 0.0 0.0
0.528 -0.22000397741794586 0.7054166793823242 0.0024043554440140724 0.0027371076866984367 0.0 0.0 0.0 0.0
0.529 -0.185589998960495 0.7225309014320374 0.0024895984679460526 0.0025099972262978554 0.0 0.0 0.0 0.0
0.53 -0.14850236475467682 0.7372024059295654 0.002261587418615818 0.0021417448297142982 0.0 0.0 0.0 0.0
0.531 -0.10854482650756836 0.746709406375885 0.00236466433852911 0.001917518675327301 0.0 0.0 0.0 0.0
0.532 -0.07049654424190521 0.7523980736732483 0.002557991072535515 0.001664305105805397 0.0 0.0 0.0 0.0
0.533 -0.03389446809887886 0.7559621930122375 0.002316736616194248 0.0015008756890892982 0.0 0.0 0.0 0.0
0.534 0.007049999199807644 0.7582029700279236 0.0027119964361190796 0.0012315800413489342 0.0 0.0 0.0 0.0
0.535 0.04419794678688049 0.7573356032371521 0.0024851281195878983 0.001191779039800167 0.0 0.0 0.0 0.0
0.536 0.08018459379673004 0.7547169923782349 0.0024107517674565315 0.0007261717692017555 0.0 0.0 0.0 0.0
0.537 0.11809021234512329 0.748295247554779 0.0025610709562897682 0.000654212199151516 0.0 0.0 0.0 0.0
0.538 0.1541413962841034 0.7428138852119446 0.0023099444806575775 0.00048116128891706467 0.0 0.0 0.0 0.0
0.539 0.18832388520240784 0.7319762110710144 0.00223352387547493 0.0002459501847624779 0.0 0.0 0.0 0.0
0.54 0.21931399405002594 0.720179557800293 0.002025427296757698 -4.939921200275421e-05 0.0 0.0 0.0 0.0
0.541 0.2539193332195282 0.7069887518882751 0.0021754680201411247 -4.44706529378891e-06 0.0 0.0 0.0 0.0
0.542 0.28414446115493774 0.6937353610992432 0.0018420098349452019 7.85980373620987e-05 0.0 0.0 0.0 0.0
0.543 0.3157670199871063 0.6784070730209351 0.001916743814945221 -0.00027071405202150345 0.0 0.0 0.0 0.0
0.544 0.3442252278327942 0.6641952991485596 0.0019407682120800018 -0.0004160478711128235 0.0 0.0 0.0 0.0
0.545 0.3735051453113556 0.6498700976371765 0.0016258517280220985 -0.0003140578046441078 0.0 0.0 0.0 0.0
0.546 0.4023723900318146 0.6304828524589539 0.0015558423474431038 -0.0006219744682312012 0.0 0.0 0.0 0.0
0.547 0.43052127957344055 0.6128404140472412 0.0016922932118177414 -0.0006824126467108727 0.0 0.0 0.0 0.0
0.548 0.45749610662460327 0.5906403064727783 0.001458774320781231 -0.0007939413189888 0.0 0.0 0.0 0.0
0.549 0.4818735420703888 0.5690183043479919 0.0013949302956461906 -0.0009185886010527611 0.0 0.0 0.0 0.0
0.55 0.5049307942390442 0.5446313619613647 0.001209520734846592 -0.0007651764899492264 0.0 0.0 0.0 0.0
0.551 0.5270589590072632 0.5220832824707031 0.0010217046365141869 -0.0006442004814743996 0.0 0.0 0.0 0.0
0.552 0.5469176769256592 0.49531203508377075 0.0010039741173386574 -0.0009570559486746788 0.0 0.0 0.0 0.0
0.553 0.5654277205467224 0.47336190938949585 0.0007825680077075958 -0.0007485458627343178 0.0 0.0 0.0 0.0
0.554 0.585149884223938 0.4471920132637024 0.0008236793801188469 -0.0009657992050051689 0.0 0.0 0.0 0.0
0.555 0.5986176133155823 0.4223537743091583 0.0007721344009041786 -0.0008658310398459435 0.0 0.0 0.0 0.0
0.556 0.6156337261199951 0.3949562609195709 0.0006457744166254997 -0.0010150186717510223 0.0 0.0 0.0 0.0
0.557 0.6298242807388306 0.36934489011764526 0.0006194133311510086 -0.0008458644151687622 0.0 0.0 0.0 0.0
0.558 0.6441477537155151 0.3422204256057739 0.0005995631217956543 -0.0010368973016738892 0.0 0.0 0.0 0.0
0.559 0.654188871383667 0.31529700756073 0.00040321145206689835 -0.0008887602016329765 0.0 0.0 0.0 0.0
0.56 0.6665081977844238 0.2891905903816223 0.0003954283893108368 -0.0008268114179372787 0.0 0.0 0.0 0.0
0.561 0.6747807264328003 0.2655802071094513 0.0003259284421801567 -0.0008977791294455528 0.0 0.0 0.0 0.0
0.562 0.6850574612617493 0.23893320560455322 0.00022773537784814835 -0.000690077431499958 0.0 0.0 0.0 0.0
0.563 0.6912393569946289 0.21152357757091522 0.00023487303406000137 -0.0006609242409467697 0.0 0.0 0.0 0.0
0.564 0.6984764337539673 0.18524722754955292 -4.23947349190712e-05 -0.0006126463413238525 0.0 0.0 0.0 0.0
0.565 0.7043238878250122 0.16129322350025177 0.00020008813589811325 -0.0009592128917574883 0.0 0.0 0.0 0.0
0.566 0.710053026676178 0.13544359803199768 -0.00013040192425251007 -0.0008811010047793388 0.0 0.0 0.0 0.0
0.567 0.7153165340423584 0.10608267784118652 1.2641772627830505e-05 -0.0008866935968399048 0.0 0.0 0.0 0.0
0.568 0.7180482745170593 0.08095262944698334 -0.0002890443429350853 -0.0007446836680173874 0.0 0.0 0.0 0.0
0.569 0.7195770740509033 0.052497562021017075 -0.0002020290121436119 -0.0006252434104681015 0.0 0.0 0.0 0.0
0.57 0.7200155258178711 0.027579162269830704 -0.00034221168607473373 -0.00058768130838871 0.0 0.0 0.0 0.0
0.571 0.7243221998214722 0.00026827864348888397 -0.00015915464609861374 -0.000592624768614769 0.0 0.0 0.0 0.0
0.572 0.723729133605957 -0.023271694779396057 -0.00026099570095539093 -0.0005990061908960342 0.0 0.0 0.0 0.0
0.573 0.7220967411994934 -0.05216873064637184 -0.00025738682597875595 -0.0006463602185249329 0.0 0.0 0.0 0.0
0.574 0.7202279567718506 -0.07524912804365158 -0.00026727933436632156 -0.00024371594190597534 0.0 0.0 0.0 0.0
0.575 0.7195976376533508 -0.10201317816972733 -0.0002451930195093155 -0.00025701895356178284 0.0 0.0 0.0 0.0
0.576 0.7139448523521423 -0.12397653609514236 -0.0004084901884198189 -0.0003036428242921829 0.0 0.0 0.0 0.0
0.577 0.7102512717247009 -0.14899735152721405 -0.00043818727135658264 -8.40676948428154e-05 0.0 0.0 0.0 0.0
0.578 0.7073048949241638 -0.17729711532592773 -0.00038449373096227646 -0.00020220689475536346 0.0 0.0 0.0 0.0
0.579 0.7008847594261169 -0.19653216004371643 -0.00040546245872974396 -0.0001703202724456787 0.0 0.0 0.0 0.0
0.58 0.6928211450576782 -0.22451786696910858 -0.0003559896722435951 -0.0001475811004638672 0.0 0.0 0.0 0.0
0.581 0.6889072060585022 -0.2474714070558548 -0.00026205554604530334 -3.244355320930481e-05 0.0 0.0 0.0 0.0
0.582 0.6825010776519775 -0.2726258337497711 -0.0003130985423922539 0.00018275342881679535 0.0 0.0 0.0 0.0
0.583 0.6726515293121338 -0.29507261514663696 -0.000309615395963192 -1.9766390323638916e-05 0.0 0.0 0.0 0.0
0.584 0.6636538505554199 -0.31822213530540466 -0.00039922352880239487 -9.223632514476776e-05 0.0 0.0 0.0 0.0
0.585 0.6522148251533508 -0.3431570529937744 -0.00047655217349529266 4.9872323870658875e-05 0.0 0.0 0.0 0.0
0.586 0.6419745087623596 -0.36260348558425903 -0.0005178572610020638 9.131710976362228e-05 0.0 0.0 0.0 0.0
0.587 0.6319758296012878 -0.3877983093261719 -0.00017547141760587692 0.00016166642308235168 0.0 0.0 0.0 0.0
0.588 0.6168450713157654 -0.4071672260761261 -0.0002028234302997589 0.00026888027787208557 0.0 0.0 0.0 0.0
0.589 0.6029500961303711 -0.4305805563926697 -0.0002602655440568924 0.00015622377395629883 0.0 0.0 0.0 0.0
0.59 0.5885856747627258 -0.4501691162586212 -0.00022880267351865768 0.00014034006744623184 0.0 0.0 0.0 0.0
0.591 0.5759484171867371 -0.472786009311676 -4.097912460565567e-05 9.499583393335342e-05 0.0 0.0 0.0 0.0
0.592 0.5603212118148804 -0.48873504996299744 -0.0002004941925406456 0.00020786933600902557 0.0 0.0 0.0 0.0
0.593 0.547746479511261 -0.5080963373184204 -6.275344640016556e-05 0.00041642412543296814 0.0 0.0 0.0 0.0
0.594 0.52679842710495 -0.5238577723503113 -0.00021292641758918762 0.00022760778665542603 0.0 0.0 0.0 0.0
0.595 0.5137512683868408 -0.5399078130722046 -0.0002619978040456772 0.00025395117700099945 0.0 0.0 0.0 0.0
0.596 0.49511170387268066 -0.5594025254249573 -6.714276969432831e-05 0.00019128993153572083 0.0 0.0 0.0 0.0
0.597 0.47930318117141724 -0.5752357244491577 -0.0001486223191022873 0.00014788564294576645 0.0 0.0 0.0 0.0
0.598 0.46129870414733887 -0.5927693247795105 -0.00014601647853851318 0.0003657117486000061 0.0 0.0 0.0 0.0
0.599 0.44144442677497864 -0.6045849919319153 -0.0001783519983291626 0.0003979876637458801 0.0 0.0 0.0 0.0
0.6 0.41986769437789917 -0.6207565665245056 -0.00018036551773548126 0.000551973469555378 0.0 0.0 0.0 0.0
0.601 0.4045199453830719 -0.6310995221138 -0.00023042317479848862 0.0006419559940695763 0.0 0.0 0.0 0.0
0.602 0.385334849357605 -0.646648108959198 -6.15529716014862e-05 0.0006512803956866264 0.0 0.0 0.0 0.0
0.603 0.3635546863079071 -0.6592355966567993 -0.00020744837820529938 0.0005250610411167145 0.0 0.0 0.0 0.0
0.604 0.3439023196697235 -0.6710889339447021 -8.979905396699905e-05 0.0007829545065760612 0.0 0.0 0.0 0.0
0.605 0.3210147023200989 -0.6814262866973877 0.00015939027070999146 0.0004548272117972374 0.0 0.0 0.0 0.0
0.606 0.3001629114151001 -0.6893959045410156 -0.00019327085465192795 0.0004731202498078346 0.0 0.0 0.0 0.0
0.607 0.27979329228401184 -0.6977479457855225 -3.3029355108737946e-05 0.0009092306718230247 0.0 0.0 0.0 0.0
0.608 0.26028451323509216 -0.7087092995643616 7.017701864242554e-05 0.0007295934483408928 0.0 0.0 0.0 0.0
0.609 0.23495517671108246 -0.7147274017333984 0.00010718125849962234 0.0009461352601647377 0.0 0.0 0.0 0.0
0.61 0.21651162207126617 -0.7221978306770325 0.00010100472718477249 0.0009204568341374397 0.0 0.0 0.0 0.0
0.611 0.19280663132667542 -0.7322072982788086 0.000315970741212368 0.0007823975756764412 0.0 0.0 0.0 0.0
0.612 0.17178180813789368 -0.7317601442337036 0.0002383338287472725 0.0009656557813286781 0.0 0.0 0.0 0.0
0.613 0.14789338409900665 -0.7376492619514465 0.0003682496026158333 0.0008707735687494278 0.0 0.0 0.0 0.0
0.614 0.12898600101470947 -0.7437856197357178 0.0006820093840360641 0.0010804049670696259 0.0 0.0 0.0 0.0
0.615 0.10837502032518387 -0.7468655705451965 0.00045368634164333344 0.0011348184198141098 0.0 0.0 0.0 0.0
0.616 0.0851842537522316 -0.7492291331291199 0.0006075408309698105 0.001094946637749672 0.0 0.0 0.0 0.0
0.617 0.0576772540807724 -0.7512592077255249 0.0008910205215215683 0.0007401639595627785 0.0 0.0 0.0 0.0
0.618 0.03661312907934189 -0.7536253929138184 0.0008310349658131599 0.0007177982479333878 0.0 0.0 0.0 0.0
0.619 0.014363444410264492 -0.7524063587188721 0.0007875077426433563 0.0008830064907670021 0.0 0.0 0.0 0.0
0.62 -0.005885009653866291 -0.7519478797912598 0.000988026149570942 0.0007824227213859558 0.0 0.0 0.0 0.0
0.621 -0.029269952327013016 -0.751969039440155 0.0008814604952931404 0.0008313087746500969 0.0 0.0 0.0 0.0
0.622 -0.052727650851011276 -0.74974125623703 0.0011296048760414124 0.0008138967677950859 0.0 0.0 0.0 0.0
0.623 -0.07111641764640808 -0.748424768447876 0.0012876521795988083 0.0007400000467896461 0.0 0.0 0.0 0.0
0.624 -0.0987698882818222 -0.745802640914917 0.001216413453221321 0.0008291425183415413 0.0 0.0 0.0 0.0
0.625 -0.1142277643084526 -0.7395728230476379 0.001272391527891159 0.0007621990516781807 0.0 0.0 0.0 0.0
0.626 -0.13437211513519287 -0.7353444695472717 0.001540347933769226 0.0007414128631353378 0.0 0.0 0.0 0.0
0.627 -0.15874581038951874 -0.7281745672225952 0.0014579733833670616 0.000727667473256588 0.0 0.0 0.0 0.0
0.628 -0.17669300734996796 -0.724107027053833 0.0016232086345553398 0.0005996134132146835 0.0 0.0 0.0 0.0
0.629 -0.20096540451049805 -0.7150380611419678 0.001577901653945446 0.0004206402227282524 0.0 0.0 0.0 0.0
0.63 -0.21837857365608215 -0.709805965423584 0.00170817319303751 0.0004576928913593292 0.0 0.0 0.0 0.0
0.631 -0.23939475417137146 -0.7029885649681091 0.0018492359668016434 0.0003042556345462799 0.0 0.0 0.0 0.0
0.632 -0.25462010502815247 -0.6906391978263855 0.0018454696983098984 0.00041608698666095734 0.0 0.0 0.0 0.0
0.633 -0.27631333470344543 -0.68031907081604 0.001735868863761425 0.00017813313752412796 0.0 0.0 0.0 0.0
0.634 -0.29109489917755127 -0.671077311038971 0.002010519616305828 0.0002237074077129364 0.0 0.0 0.0 0.0
0.635 -0.3150084912776947 -0.6628424525260925 0.0022783903405070305 -0.00017682556062936783 0.0 0.0 0.0 0.0
0.636 -0.33089756965637207 -0.6533378958702087 0.0021867919713258743 -0.00018126890063285828 0.0 0.0 0.0 0.0
0.637 -0.34418562054634094 -0.6401427388191223 0.0020224489271640778 -0.000253947451710701 0.0 0.0 0.0 0.0
0.638 -0.36072561144828796 -0.6285462379455566 0.0024528270587325096 -0.00044959504157304764 0.0 0.0 0.0 0.0
0.639 -0.3768630027770996 -0.6163550615310669 0.0023631276562809944 -0.0003159400075674057 0.0 0.0 0.0 0.0
0.64 -0.395205020904541 -0.6053825616836548 0.0023965127766132355 -0.0008098585531115532 0.0 0.0 0.0 0.0
0.641 -0.40896570682525635 -0.5961587429046631 0.0025393711403012276 -0.0009288229048252106 0.0 0.0 0.0 0.0
0.642 -0.424728661775589 -0.5801656246185303 0.002522590570151806 -0.000856093131005764 0.0 0.0 0.0 0.0
0.643 -0.4416324496269226 -0.5701043605804443 0.0025775348767638206 -0.0011824443936347961 0.0 0.0 0.0 0.0
0.644 -0.4550606608390808 -0.5583754181861877 0.002774006687104702 -0.0014871954917907715 0.0 0.0 0.0 0.0
0.645 -0.47091934084892273 -0.5410284399986267 0.0025703441351652145 -0.0016647139564156532 0.0 0.0 0.0 0.0
0.646 -0.4833650290966034 -0.5250863432884216 0.0024618785828351974 -0.0019182302057743073 0.0 0.0 0.0 0.0
0.647 -0.495836466550827 -0.5141344666481018 0.002369925379753113 -0.0020428700372576714 0.0 0.0 0.0 0.0
0.648 -0.5110577344894409 -0.4964236319065094 0.0023920442909002304 -0.0023584431037306786 0.0 0.0 0.0 0.0
0.649 -0.5244477391242981 -0.4833720028400421 0.002358989790081978 -0.0025091348215937614 0.0 0.0 0.0 0.0
0.65 -0.5353509187698364 -0.4677780270576477 0.002435099333524704 -0.00267802644520998 0.0 0.0 0.0 0.0
0.651 -0.5468413829803467 -0.4481232464313507 0.0021746037527918816 -0.002825201489031315 0.0 0.0 0.0 0.0
0.652 -0.5600501894950867 -0.4351145923137665 0.0021381042897701263 -0.0030604079365730286 0.0 0.0 0.0 0.0
0.653 -0.5731905102729797 -0.4175797402858734 0.0019951025024056435 -0.0034294212237000465 0.0 0.0 0.0 0.0
0.654 -0.5864872336387634 -0.39784127473831177 0.0015165815129876137 -0.0036569591611623764 0.0 0.0 0.0 0.0
0.655 -0.600294828414917 -0.3738985061645508 0.0014834953472018242 -0.0039664627984166145 0.0 0.0 0.0 0.0
0.656 -0.6062994003295898 -0.3570435643196106 0.001330534927546978 -0.004002050496637821 0.0 0.0 0.0 0.0
0.657 -0.6153292059898376 -0.3302556276321411 0.0008786255493760109 -0.003923851065337658 0.0 0.0 0.0 0.0
0.658 -0.6213313937187195 -0.3157249987125397 0.0008110888302326202 -0.004147794097661972 0.0 0.0 0.0 0.0
0.659 -0.6287910342216492 -0.29256412386894226 0.0006252340972423553 -0.004287666641175747 0.0 0.0 0.0 0.0
0.66 -0.6364253163337708 -0.26860684156417847 0.0003702854737639427 -0.004551030695438385 0.0 0.0 0.0 0.0
0.661 -0.6425190567970276 -0.24889150261878967 0.00013085082173347473 -0.004555128514766693 0.0 0.0 0.0 0.0
0.662 -0.6437005400657654 -0.22535952925682068 -8.327141404151917e-05 -0.004690092988312244 0.0 0.0 0.0 0.0
0.663 -0.6473171710968018 -0.19981516897678375 -0.0006167003884911537 -0.004670579917728901 0.0 0.0 0.0 0.0
0.664 -0.6478848457336426 -0.17383624613285065 -0.0009294226765632629 -0.004742760211229324 0.0 0.0 0.0 0.0
0.665 -0.6478300094604492 -0.15592491626739502 -0.0010290546342730522 -0.0052196551114320755 0.0 0.0 0.0 0.0
0.666 -0.6467236876487732 -0.127083420753479 -0.0015425290912389755 -0.005076991394162178 0.0 0.0 0.0 0.0
0.667 -0.6443469524383545 -0.10976090282201767 -0.0019248677417635918 -0.0049471138045191765 0.0 0.0 0.0 0.0
0.668 -0.6427993178367615 -0.08670896291732788 -0.0021763164550065994 -0.005206391215324402 0.0 0.0 0.0 0.0
0.669 -0.638784646987915 -0.060081224888563156 -0.002602590247988701 -0.005152271129190922 0.0 0.0 0.0 0.0
0.67 -0.6314679384231567 -0.039277803152799606 -0.003187716007232666 -0.005041773431003094 0.0 0.0 0.0 0.0
0.671 -0.6223805546760559 -0.021874556317925453 -0.003454875200986862 -0.0051044682040810585 0.0 0.0 0.0 0.0
0.672 -0.6149508953094482 -0.000596826896071434 -0.004147329367697239 -0.0049056680873036385 0.0 0.0 0.0 0.0
0.673 -0.6064834594726562 0.02285335771739483 -0.004704581573605537 -0.004970979876816273 0.0 0.0 0.0 0.0
0.674 -0.5956212282180786 0.03662029281258583 -0.005190898664295673 -0.004882252775132656 0.0 0.0 0.0 0.0
0.675 -0.5823630094528198 0.056069113314151764 -0.00580174382776022 -0.004283125512301922 0.0 0.0 0.0 0.0
0.676 -0.5703996419906616 0.06682271510362625 -0.006206232123076916 -0.0042544640600681305 0.0 0.0 0.0 0.0
0.677 -0.5577093362808228 0.08613092452287674 -0.006697896867990494 -0.003516147844493389 0.0 0.0 0.0 0.0
0.678 -0.544874906539917 0.09449417889118195 -0.007154453545808792 -0.0031435806304216385 0.0 0.0 0.0 0.0
0.679 -0.5338685512542725 0.10655835270881653 -0.007661527022719383 -0.0025293277576565742 0.0 0.0 0.0 0.0
0.68 -0.5183869004249573 0.11447945982217789 -0.007858130149543285 -0.0020157331600785255 0.0 0.0 0.0 0.0
0.681 -0.504609227180481 0.1218833327293396 -0.008335383608937263 -0.0009944373741745949 0.0 0.0 0.0 0.0
0.682 -0.4933148920536041 0.12706612050533295 -0.008723224513232708 -0.0004316456615924835 0.0 0.0 0.0 0.0
0.683 -0.4811165928840637 0.12673741579055786 -0.008993535302579403 0.0005405480042099953 0.0 0.0 0.0 0.0
0.684 -0.47609779238700867 0.12966705858707428 -0.009065041318535805 0.0014394531026482582 0.0 0.0 0.0 0.0
0.685 -0.4718095660209656 0.12736982107162476 -0.009156336076557636 0.0024557383731007576 0.0 0.0 0.0 0.0
0.686 -0.4690006673336029 0.1321551352739334 -0.008657674305140972 0.0034458255395293236 0.0 0.0 0.0 0.0
0.687 -0.47111910581588745 0.1340240091085434 -0.008476822637021542 0.004246247000992298 0.0 0.0 0.0 0.0
0.688 -0.47024813294410706 0.13911184668540955 -0.008114304393529892 0.0053145308047533035 0.0 0.0 0.0 0.0
0.689 -0.4741983115673065 0.14201173186302185 -0.007521497085690498 0.006120818667113781 0.0 0.0 0.0 0.0
0.69 -0.4780602753162384 0.15110480785369873 -0.006921778433024883 0.0070328060537576675 0.0 0.0 0.0 0.0
0.691 -0.4848271310329437 0.1601921170949936 -0.005992310121655464 0.0076090432703495026 0.0 0.0 0.0 0.0
0.692 -0.49255672097206116 0.17301414906978607 -0.0049767401069402695 0.008173623122274876 0.0 0.0 0.0 0.0
0.693 -0.4966047406196594 0.18900437653064728 -0.004054396413266659 0.008477622643113136 0.0 0.0 0.0 0.0
0.694 -0.49964162707328796 0.20953528583049774 -0.00311150960624218 0.008796462789177895 0.0 0.0 0.0 0.0
0.695 -0.4981432557106018 0.2315995991230011 -0.002258777618408203 0.008672663941979408 0.0 0.0 0.0 0.0
0.696 -0.5000666379928589 0.2490701526403427 -0.00121279526501894 0.0088125541806221 0.0 0.0 0.0 0.0
0.697 -0.49892109632492065 0.27349624037742615 -0.00030245818197727203 0.008656748570501804 0.0 0.0 0.0 0.0
0.698 -0.49534091353416443 0.2919721007347107 0.0006463043391704559 0.008510671555995941 0.0 0.0 0.0 0.0
0.699 -0.48826587200164795 0.3215358257293701 0.001306573860347271 0.00799953006207943 0.0 0.0 0.0 0.0
0.7 -0.48007017374038696 0.3426479995250702 0.0021041082218289375 0.007430327124893665 0.0 0.0 0.0 0.0
0.701 -0.46650564670562744 0.36925768852233887 0.002521442249417305 0.007148459553718567 0.0 0.0 0.0 0.0
0.702 -0.45094946026802063 0.3913397490978241 0.0032147374004125595 0.006713562645018101 0.0 0.0 0.0 0.0
0.703 -0.43654078245162964 0.4130966365337372 0.0038474835455417633 0.0060319313779473305 0.0 0.0 0.0 0.0
0.704 -0.42014291882514954 0.4342438578605652 0.004051967523992062 0.005559062585234642 0.0 0.0 0.0 0.0
0.705 -0.40069103240966797 0.45795461535453796 0.004323241300880909 0.005136282183229923 0.0 0.0 0.0 0.0
0.706 -0.38071563839912415 0.4754314422607422 0.004488714970648289 0.004494396038353443 0.0 0.0 0.0 0.0
0.707 -0.35532769560813904 0.4946833550930023 0.004576720297336578 0.003876310773193836 0.0 0.0 0.0 0.0
0.708 -0.32817357778549194 0.5094300508499146 0.004498462192714214 0.0033766133710741997 0.0 0.0 0.0 0.0
0.709 -0.3043195903301239 0.5225602984428406 0.004404415376484394 0.0028676046058535576 0.0 0.0 0.0 0.0
0.71 -0.2797932028770447 0.5337187647819519 0.004415764473378658 0.002397492527961731 0.0 0.0 0.0 0.0
0.711 -0.2577381134033203 0.5400089621543884 0.004635686054825783 0.002194071188569069 0.0 0.0 0.0 0.0
0.712 -0.23297075927257538 0.5534617900848389 0.004341620020568371 0.0017148926854133606 0.0 0.0 0.0 0.0
0.713 -0.209264874458313 0.5580325722694397 0.004386218264698982 0.0015711206942796707 0.0 0.0 0.0 0.0
0.714 -0.1796341836452484 0.5669859647750854 0.004351712763309479 0.0011946409940719604 0.0 0.0 0.0 0.0
0.715 -0.15824729204177856 0.5733236074447632 0.004190751351416111 0.0009195851162075996 0.0 0.0 0.0 0.0
0.716 -0.13290531933307648 0.5775294899940491 0.004343222826719284 0.0005958415567874908 0.0 0.0 0.0 0.0
0.717 -0.10965942591428757 0.5799182653427124 0.004065440036356449 0.0004176301881670952 0.0 0.0 0.0 0.0
0.718 -0.08535944670438766 0.5835428237915039 0.003761613741517067 0.00035534799098968506 0.0 0.0 0.0 0.0
0.719 -0.0615546852350235 0.5880607962608337 0.0037328870967030525 -7.645227015018463e-05 0.0 0.0 0.0 0.0
0.72 -0.03835025802254677 0.5882567763328552 0.0038619302213191986 -0.00021842122077941895 0.0 0.0 0.0 0.0
0.721 -0.011662033386528492 0.5920643210411072 0.003561723977327347 -0.0005309144034981728 0.0 0.0 0.0 0.0
0.722 0.010023081675171852 0.5923481583595276 0.0035046953707933426 -0.0006269374862313271 0.0 0.0 0.0 0.0
0.723 0.03955242410302162 0.5929514169692993 0.0034108655527234077 -0.0008323602378368378 0.0 0.0 0.0 0.0
0.724 0.06358260661363602 0.5907931923866272 0.003209219314157963 -0.0008901301771402359 0.0 0.0 0.0 0.0
0.725 0.09211494773626328 0.5901954770088196 0.0029539773240685463 -0.000913265161216259 0.0 0.0 0.0 0.0
0.726 0.11608941853046417 0.5827088356018066 0.0029466673731803894 -0.0011463221162557602 0.0 0.0 0.0 0.0
0.727 0.14414075016975403 0.5794788002967834 0.0027320925146341324 -0.0012788865715265274 0.0 0.0 0.0 0.0
0.728 0.17080211639404297 0.571516215801239 0.0025423895567655563 -0.0012481193989515305 0.0 0.0 0.0 0.0
0.729 0.19548331201076508 0.5623583793640137 0.0025118552148342133 -0.0014721602201461792 0.0 0.0 0.0 0.0
0.73 0.2200213521718979 0.5535278916358948 0.002393614500761032 -0.001536766067147255 0.0 0.0 0.0 0.0
0.731 0.24230244755744934 0.5418089628219604 0.0023799464106559753 -0.0017259856685996056 0.0 0.0 0.0 0.0
0.732 0.26598021388053894 0.529936671257019 0.0021354230120778084 -0.0017611999064683914 0.0 0.0 0.0 0.0
0.733 0.2885371148586273 0.5197007060050964 0.0019592810422182083 -0.001703830435872078 0.0 0.0 0.0 0.0
0.734 0.31073325872421265 0.5058557391166687 0.0018355632200837135 -0.0019688569009304047 0.0 0.0 0.0 0.0
0.735 0.3294408619403839 0.49343791604042053 0.0015942407771945 -0.0020137885585427284 0.0 0.0 0.0 0.0
0.736 0.35337239503860474 0.4790249466896057 0.0015996629372239113 -0.001976153813302517 0.0 0.0 0.0 0.0
0.737 0.3712764084339142 0.4639265835285187 0.001515544019639492 -0.001987159252166748 0.0 0.0 0.0 0.0
0.738 0.39425551891326904 0.4496379792690277 0.0012787766754627228 -0.002006402239203453 0.0 0.0 0.0 0.0
0.739 0.4105300009250641 0.4344942569732666 0.001068349927663803 -0.0020985091105103493 0.0 0.0 0.0 0.0
0.74 0.4326888918876648 0.4142462909221649 0.0010314714163541794 -0.002151632681488991 0.0 0.0 0.0 0.0
0.741 0.4465271532535553 0.3985273241996765 0.0008271466940641403 -0.002152109518647194 0.0 0.0 0.0 0.0
0.742 0.46550989151000977 0.378812700510025 0.0007461421191692352 -0.002148181200027466 0.0 0.0 0.0 0.0
0.743 0.4810367524623871 0.3605125844478607 0.0005154171958565712 -0.0020087333396077156 0.0 0.0 0.0 0.0
0.744 0.4943481385707855 0.34175264835357666 0.0004388783127069473 -0.0021361801773309708 0.0 0.0 0.0 0.0
0.745 0.5103784203529358 0.32112181186676025 0.00045668892562389374 -0.0020303940400481224 0.0 0.0 0.0 0.0
0.746 0.5222657322883606 0.3008135259151459 0.0003671906888484955 -0.0020873043686151505 0.0 0.0 0.0 0.0
0.747 0.5353274941444397 0.2801230549812317 0.0003842487931251526 -0.0020396579056978226 0.0 0.0 0.0 0.0
0.748 0.5472567677497864 0.2606244683265686 -7.749535143375397e-06 -0.0020269863307476044 0.0 0.0 0.0 0.0
0.749 0.5596028566360474 0.23831182718276978 -3.8106925785541534e-05 -0.0019766464829444885 0.0 0.0 0.0 0.0
0.75 0.5699716806411743 0.21874630451202393 -0.00025831442326307297 -0.0018314691260457039 0.0 0.0 0.0 0.0
0.751 0.5799539089202881 0.19419442117214203 -0.00023082830011844635 -0.0019102087244391441 0.0 0.0 0.0 0.0
0.752 0.587186872959137 0.17089930176734924 -0.00039952900260686874 -0.0018601668998599052 0.0 0.0 0.0 0.0
0.753 0.5926228761672974 0.145370751619339 -0.000583140179514885 -0.001980651170015335 0.0 0.0 0.0 0.0
0.754 0.5974905490875244 0.12788310647010803 -0.00044568534940481186 -0.0018865913152694702 0.0 0.0 0.0 0.0
0.755 0.6057055592536926 0.10138904303312302 -0.0006914976984262466 -0.0017682239413261414 0.0 0.0 0.0 0.0
0.756 0.6085008978843689 0.08108747005462646 -0.0006199954077601433 -0.0018167877569794655 0.0 0.0 0.0 0.0
0.757 0.6145241856575012 0.06148751452565193 -0.0007994202896952629 -0.001705205999314785 0.0 0.0 0.0 0.0
0.758 0.6154740452766418 0.039452288299798965 -0.001003543846309185 -0.0016414923593401909 0.0 0.0 0.0 0.0
0.759 0.6206778287887573 0.017200982198119164 -0.0009590489789843559 -0.0015019113197922707 0.0 0.0 0.0 0.0
0.76 0.6194859147071838 -0.008149730041623116 -0.0013269297778606415 -0.0016703689470887184 0.0 0.0 0.0 0.0
0.761 0.6223254799842834 -0.024399999529123306 -0.0012514200061559677 -0.001591729000210762 0.0 0.0 0.0 0.0
0.762 0.6248946785926819 -0.046877842396497726 -0.0013200286775827408 -0.0015544481575489044 0.0 0.0 0.0 0.0
0.763 0.6225702166557312 -0.06856157630681992 -0.0013974308967590332 -0.0013280892744660378 0.0 0.0 0.0 0.0
0.764 0.6206898093223572 -0.09199333190917969 -0.0014746524393558502 -0.0011368785053491592 0.0 0.0 0.0 0.0
0.765 0.6178305149078369 -0.1115226149559021 -0.0016510477289557457 -0.0010268939658999443 0.0 0.0 0.0 0.0
0.766 0.6164770126342773 -0.13742049038410187 -0.0015722550451755524 -0.0009459881111979485 0.0 0.0 0.0 0.0
0.767 0.6163439750671387 -0.15459401905536652 -0.0016501601785421371 -0.0006577726453542709 0.0 0.0 0.0 0.0
0.768 0.6121193766593933 -0.17850330471992493 -0.0017030611634254456 -0.0006005009636282921 0.0 0.0 0.0 0.0
0.769 0.6065701842308044 -0.19951315224170685 -0.0015351148322224617 -0.0004034265875816345 0.0 0.0 0.0 0.0
0.77 0.5993003249168396 -0.2193126380443573 -0.001569865271449089 -0.0005511632189154625 0.0 0.0 0.0 0.0
0.771 0.5931022763252258 -0.24048644304275513 -0.0016219718381762505 -0.0003438517451286316 0.0 0.0 0.0 0.0
0.772 0.5879865288734436 -0.2569354474544525 -0.0016130516305565834 -0.00030801258981227875 0.0 0.0 0.0 0.0
0.773 0.5781905651092529 -0.27723369002342224 -0.0017295880243182182 7.21123069524765e-06 0.0 0.0 0.0 0.0
0.774 0.5728931427001953 -0.2960396111011505 -0.001717190258204937 -5.0729140639305115e-06 0.0 0.0 0.0 0.0
0.775 0.5666874051094055 -0.3169332444667816 -0.001732856035232544 8.518900722265244e-05 0.0 0.0 0.0 0.0
0.776 0.5581227540969849 -0.3337666988372803 -0.0015826886519789696 7.76480883359909e-05 0.0 0.0 0.0 0.0
0.777 0.5476243495941162 -0.3568980395793915 -0.00161807332187891 0.00032335612922906876 0.0 0.0 0.0 0.0
0.778 0.5352210402488708 -0.36881905794143677 -0.0016642995178699493 0.0004428131505846977 0.0 0.0 0.0 0.0
0.779 0.5268515944480896 -0.3854745924472809 -0.0015400974079966545 0.0006801951676607132 0.0 0.0 0.0 0.0
0.78 0.512868344783783 -0.4070228040218353 -0.0015525994822382927 0.0006826650351285934 0.0 0.0 0.0 0.0
0.781 0.5076680183410645 -0.4227033853530884 -0.001535726711153984 0.0006988337263464928 0.0 0.0 0.0 0.0
0.782 0.491394966840744 -0.4376388490200043 -0.001346072182059288 0.000846298411488533 0.0 0.0 0.0 0.0
0.783 0.48105180263519287 -0.45369017124176025 -0.0012746378779411316 0.0008869944140315056 0.0 0.0 0.0 0.0
0.784 0.4657824635505676 -0.4687359035015106 -0.0012902449816465378 0.001149025745689869 0.0 0.0 0.0 0.0
0.785 0.45284080505371094 -0.4826430082321167 -0.0012458665296435356 0.00118278618901968 0.0 0.0 0.0 0.0
0.786 0.4354011118412018 -0.5012559294700623 -0.0011658873409032822 0.0010713785886764526 0.0 0.0 0.0 0.0
0.787 0.4244212508201599 -0.5095646381378174 -0.0012017209082841873 0.0012921299785375595 0.0 0.0 0.0 0.0
0.788 0.4120924174785614 -0.5258898735046387 -0.000706118531525135 0.0011568451300263405 0.0 0.0 0.0 0.0
0.789 0.3946813941001892 -0.5338625907897949 -0.0008441479876637459 0.001362629234790802 0.0 0.0 0.0 0.0
0.79 0.37985774874687195 -0.5495054125785828 -0.0008667735382914543 0.0014797113835811615 0.0 0.0 0.0 0.0
0.791 0.3681723475456238 -0.5552326440811157 -0.0008032172918319702 0.0015714820474386215 0.0 0.0 0.0 0.0
0.792 0.35132163763046265 -0.5698983073234558 -0.0005660569295287132 0.0016574198380112648 0.0 0.0 0.0 0.0
0.793 0.3346271514892578 -0.5785674452781677 -0.0004975823685526848 0.0016028117388486862 0.0 0.0 0.0 0.0
0.794 0.3226783573627472 -0.5894025564193726 -0.0002008667215704918 0.0016257492825388908 0.0 0.0 0.0 0.0
0.795 0.3033164441585541 -0.6005128026008606 -0.0003199055790901184 0.0016014063730835915 0.0 0.0 0.0 0.0
0.796 0.29179662466049194 -0.608496904373169 -0.00018977373838424683 0.0016598328948020935 0.0 0.0 0.0 0.0
0.797 0.26903194189071655 -0.6193024516105652 5.2288174629211426e-05 0.0015483079478144646 0.0 0.0 0.0 0.0
0.798 0.25654667615890503 -0.6250078678131104 0.00019455794245004654 0.001498437486588955 0.0 0.0 0.0 0.0
0.799 0.23550866544246674 -0.6334824562072754 0.0001467028632760048 0.0016087163239717484 0.0 0.0 0.0 0.0
0.8 0.2202620804309845 -0.6394141912460327 0.0002789357677102089 0.0015978757292032242 0.0 0.0 0.0 0.0
0.801 0.20083509385585785 -0.6483650803565979 0.00039084162563085556 0.0014060195535421371 0.0 0.0 0.0 0.0
0.802 0.18363654613494873 -0.6527764797210693 0.0004252800717949867 0.0016137240454554558 0.0 0.0 0.0 0.0
0.803 0.16565263271331787 -0.6599092483520508 0.0005929833278059959 0.001349729485809803 0.0 0.0 0.0 0.0
0.804 0.14596667885780334 -0.6611811518669128 0.0005508381873369217 0.001330026425421238 0.0 0.0 0.0 0.0
0.805 0.13067282736301422 -0.6675271391868591 0.0008501233533024788 0.001478993333876133 0.0 0.0 0.0 0.0
0.806 0.1091790497303009 -0.6672226786613464 0.0010134894400835037 0.0013717124238610268 0.0 0.0 0.0 0.0
0.807 0.09375334531068802 -0.6691305041313171 0.0007074791938066483 0.0010608276352286339 0.0 0.0 0.0 0.0
0.808 0.07076002657413483 -0.6695501804351807 0.000736764632165432 0.001258697360754013 0.0 0.0 0.0 0.0
0.809 0.05943911522626877 -0.6690084934234619 0.0010442482307553291 0.0010223388671875 0.0 0.0 0.0 0.0
0.81 0.041861698031425476 -0.6666153073310852 0.0011501787230372429 0.001292380504310131 0.0 0.0 0.0 0.0
0.811 0.026531118899583817 -0.6686376333236694 0.0010971948504447937 0.0010866960510611534 0.0 0.0 0.0 0.0
0.812 0.008298824541270733 -0.6669363975524902 0.001305101439356804 0.0011395877227187157 0.0 0.0 0.0 0.0
0.813 -0.005633999593555927 -0.669654130935669 0.0013478733599185944 0.0009257886558771133 0.0 0.0 0.0 0.0
0.814 -0.02430114336311817 -0.6689758896827698 0.0013524284586310387 0.0007917387410998344 0.0 0.0 0.0 0.0
0.815 -0.03884517028927803 -0.6638522744178772 0.001596362330019474 0.0008399393409490585 0.0 0.0 0.0 0.0
0.816 -0.05634722113609314 -0.663810670375824 0.0014286190271377563 0.0007930733263492584 0.0 0.0 0.0 0.0
0.817 -0.06861023604869843 -0.6648426651954651 0.00163170974701643 0.0005593616515398026 0.0 0.0 0.0 0.0
0.818 -0.08466760069131851 -0.6604737043380737 0.0016561765223741531 0.0005569607019424438 0.0 0.0 0.0 0.0
0.819 -0.10140178352594376 -0.6612941026687622 0.001668764278292656 0.00023674685508012772 0.0 0.0 0.0 0.0
0.82 -0.1143818274140358 -0.6583122611045837 0.0020387284457683563 0.00016534049063920975 0.0 0.0 0.0 0.0
0.821 -0.1314038783311844 -0.6533576846122742 0.0019172551110386848 0.00019699055701494217 0.0 0.0 0.0 0.0
0.822 -0.1452827751636505 -0.6547861695289612 0.0019051125273108482 -0.00010929722338914871 0.0 0.0 0.0 0.0
0.823 -0.16577750444412231 -0.6488395929336548 0.0019020810723304749 -0.00024904217571020126 0.0 0.0 0.0 0.0
0.824 -0.1785249263048172 -0.6481605172157288 0.0018922509625554085 -0.0004241224378347397 0.0 0.0 0.0 0.0
0.825 -0.20281551778316498 -0.6452829241752625 0.0018462659791111946 -0.0006868178024888039 0.0 0.0 0.0 0.0
0.826 -0.2161892205476761 -0.6371399164199829 0.0016409866511821747 -0.0007900698110461235 0.0 0.0 0.0 0.0
0.827 -0.23598496615886688 -0.630526065826416 0.0016055330634117126 -0.0010523004457354546 0.0 0.0 0.0 0.0
0.828 -0.24815484881401062 -0.6259135007858276 0.0016154134646058083 -0.0009073447436094284 0.0 0.0 0.0 0.0
0.829 -0.26480260491371155 -0.6177242994308472 0.0013801977038383484 -0.000883227214217186 0.0 0.0 0.0 0.0
0.83 -0.28199291229248047 -0.609950840473175 0.001513318158686161 -0.001081850379705429 0.0 0.0 0.0 0.0
0.831 -0.2978103756904602 -0.6000539064407349 0.0013358183205127716 -0.0012087821960449219 0.0 0.0 0.0 0.0
0.832 -0.31261005997657776 -0.5905996561050415 0.0013933740556240082 -0.0012369584292173386 0.0 0.0 0.0 0.0
0.833 -0.32625606656074524 -0.5826429128646851 0.0014517875388264656 -0.0014599282294511795 0.0 0.0 0.0 0.0
0.834 -0.3422778248786926 -0.5752797722816467 0.0012180134654045105 -0.001454778015613556 0.0 0.0 0.0 0.0
0.835 -0.3552086651325226 -0.5613318681716919 0.001099628396332264 -0.0014214608818292618 0.0 0.0 0.0 0.0
0.836 -0.3707621693611145 -0.5535356402397156 0.0012259036302566528 -0.001690543256700039 0.0 0.0 0.0 0.0
0.837 -0.38327276706695557 -0.5429686903953552 0.0007826527580618858 -0.0014696400612592697 0.0 0.0 0.0 0.0
0.838 -0.3979889750480652 -0.5301885008811951 0.0007024509832262993 -0.0015858151018619537 0.0 0.0 0.0 0.0
0.839 -0.409702867269516 -0.520900547504425 0.0006848620250821114 -0.0018289405852556229 0.0 0.0 0.0 0.0
0.84 -0.4240511655807495 -0.5089709162712097 0.000772806815803051 -0.0017666500061750412 0.0 0.0 0.0 0.0
0.841 -0.43985456228256226 -0.4933423101902008 0.0005692364647984505 -0.0017506023868918419 0.0 0.0 0.0 0.0
0.842 -0.45076876878738403 -0.4775260090827942 0.00030911341309547424 -0.0018143048509955406 0.0 0.0 0.0 0.0
0.843 -0.4643663763999939 -0.46336644887924194 0.00014422740787267685 -0.0020642103627324104 0.0 0.0 0.0 0.0
0.844 -0.4723431169986725 -0.4500325322151184 0.00027931202203035355 -0.001912107691168785 0.0 0.0 0.0 0.0
0.845 -0.4842981994152069 -0.4313267469406128 -0.0001546153798699379 -0.002047431655228138 0.0 0.0 0.0 0.0
0.846 -0.49307680130004883 -0.4188416600227356 -0.0002378290519118309 -0.0021052993834018707 0.0 0.0 0.0 0.0
0.847 -0.5035412907600403 -0.3982071876525879 -0.000380566343665123 -0.0019173827022314072 0.0 0.0 0.0 0.0
0.848 -0.5099405646324158 -0.38788899779319763 -0.00034215953201055527 -0.00202899519354105 0.0 0.0 0.0 0.0
0.849 -0.5187876224517822 -0.3712753653526306 -0.0006700679659843445 -0.0016527706757187843 0.0 0.0 0.0 0.0
0.85 -0.527125895023346 -0.3537437617778778 -0.0007104771211743355 -0.0016860729083418846 0.0 0.0 0.0 0.0
0.851 -0.5372304916381836 -0.3360995650291443 -0.0007885303348302841 -0.0018469598144292831 0.0 0.0 0.0 0.0
0.852 -0.5389387607574463 -0.31945642828941345 -0.0008949525654315948 -0.0018121134489774704 0.0 0.0 0.0 0.0
0.853 -0.5436117053031921 -0.3028404712677002 -0.0010441793128848076 -0.0016316724941134453 0.0 0.0 0.0 0.0
0.854 -0.5477762818336487 -0.28441548347473145 -0.0011770166456699371 -0.0014352258294820786 0.0 0.0 0.0 0.0
0.855 -0.5541686415672302 -0.26961734890937805 -0.0014261044561862946 -0.0014520958065986633 0.0 0.0 0.0 0.0
0.856 -0.5603213906288147 -0.25024116039276123 -0.0015114601701498032 -0.0013492684811353683 0.0 0.0 0.0 0.0
0.857 -0.5627701282501221 -0.23590338230133057 -0.001445976085960865 -0.0012149494141340256 0.0 0.0 0.0 0.0
0.858 -0.5691037178039551 -0.21480241417884827 -0.0016562175005674362 -0.0010945368558168411 0.0 0.0 0.0 0.0
0.859 -0.5697435140609741 -0.20011493563652039 -0.0016193119809031487 -0.0009467257186770439 0.0 0.0 0.0 0.0
0.86 -0.5749076008796692 -0.18143318593502045 -0.0017425613477826118 -0.001077611930668354 0.0 0.0 0.0 0.0
0.861 -0.5726297497749329 -0.16360674798488617 -0.0017101215198636055 -0.0005959188565611839 0.0 0.0 0.0 0.0
0.862 -0.5783866047859192 -0.14617349207401276 -0.001565837301313877 -0.0006802575662732124 0.0 0.0 0.0 0.0
0.863 -0.5780525207519531 -0.12429913878440857 -0.0017083259299397469 -0.0006567966192960739 0.0 0.0 0.0 0.0
0.864 -0.5764736533164978 -0.10561785846948624 -0.0017276983708143234 -0.0005345363169908524 0.0 0.0 0.0 0.0
0.865 -0.5759983062744141 -0.08775430917739868 -0.0018634423613548279 -0.00041488558053970337 0.0 0.0 0.0 0.0
0.866 -0.5715652704238892 -0.07318921387195587 -0.0016941726207733154 -0.00017561204731464386 0.0 0.0 0.0 0.0
0.867 -0.5694851875305176 -0.05171391740441322 -0.0016991402953863144 0.00015176460146903992 0.0 0.0 0.0 0.0
0.868 -0.5660210847854614 -0.03630597144365311 -0.0017721718177199364 0.00013971049338579178 0.0 0.0 0.0 0.0
0.869 -0.5665964484214783 -0.017443304881453514 -0.001714259386062622 4.9656257033348083e-05 0.0 0.0 0.0 0.0
0.87 -0.5581366419792175 -0.0010637370869517326 -0.001650828868150711 0.00039475131779909134 0.0 0.0 0.0 0.0
0.871 -0.5554694533348083 0.014486272819340229 -0.0015176087617874146 0.000565655529499054 0.0 0.0 0.0 0.0
0.872 -0.5501787066459656 0.03273347020149231 -0.0015671392902731895 0.0006399229168891907 0.0 0.0 0.0 0.0
0.873 -0.543427586555481 0.049555908888578415 -0.0015654219314455986 0.0008565420284867287 0.0 0.0 0.0 0.0
0.874 -0.5366576910018921 0.06757626682519913 -0.0014936644583940506 0.0009435536339879036 0.0 0.0 0.0 0.0
0.875 -0.5344610214233398 0.08099236339330673 -0.001375609077513218 0.0009346324950456619 0.0 0.0 0.0 0.0
0.876 -0.5242955684661865 0.10274146497249603 -0.0013752924278378487 0.0010209949687123299 0.0 0.0 0.0 0.0
0.877 -0.5189430117607117 0.1126076728105545 -0.0009934064000844955 0.000980348326265812 0.0 0.0 0.0 0.0
0.878 -0.5108519792556763 0.1301882565021515 -0.0010088803246617317 0.000988369807600975 0.0 0.0 0.0 0.0
0.879 -0.5025411248207092 0.1453225016593933 -0.0010201316326856613 0.0012044236063957214 0.0 0.0 0.0 0.0
0.88 -0.49179551005363464 0.16010484099388123 -0.0008682999759912491 0.0013512130826711655 0.0 0.0 0.0 0.0
0.881 -0.4854675829410553 0.17440581321716309 -0.0008520055562257767 0.000982970930635929 0.0 0.0 0.0 0.0
0.882 -0.4751410484313965 0.19221051037311554 -0.0006851274520158768 0.001238144002854824 0.0 0.0 0.0 0.0
0.883 -0.46346747875213623 0.20377443730831146 -0.000585709698498249 0.0012805750593543053 0.0 0.0 0.0 0.0
0.884 -0.4514968693256378 0.2201513797044754 -0.0003702491521835327 0.0013824859634041786 0.0 0.0 0.0 0.0
0.885 -0.43949708342552185 0.23342649638652802 -0.00027416180819272995 0.0015044640749692917 0.0 0.0 0.0 0.0
0.886 -0.4313555359840393 0.24646539986133575 -4.719570279121399e-05 0.0014391755685210228 0.0 0.0 0.0 0.0
0.887 -0.41785410046577454 0.26204797625541687 -0.00024019647389650345 0.001313021406531334 0.0 0.0 0.0 0.0
0.888 -0.40676751732826233 0.27333417534828186 0.00021079368889331818 0.0014193123206496239 0.0 0.0 0.0 0.0
0.889 -0.39147302508354187 0.2881965637207031 0.00029361341148614883 0.001354319043457508 0.0 0.0 0.0 0.0
0.89 -0.37942853569984436 0.30090847611427307 9.888317435979843e-05 0.0011831428855657578 0.0 0.0 0.0 0.0
0.891 -0.3641592264175415 0.31435146927833557 0.000262959860265255 0.0011854702606797218 0.0 0.0 0.0 0.0
0.892 -0.3506433665752411 0.32519954442977905 0.00038655754178762436 0.0010155495256185532 0.0 0.0 0.0 0.0
0.893 -0.33250942826271057 0.33530738949775696 0.0006580771878361702 0.0009228754788637161 0.0 0.0 0.0 0.0
0.894 -0.31863293051719666 0.3459276854991913 0.0005746111273765564 0.0009545106440782547 0.0 0.0 0.0 0.0
0.895 -0.3010326325893402 0.3530440330505371 0.0006995312869548798 0.000847967341542244 0.0 0.0 0.0 0.0
0.896 -0.2837417721748352 0.36290329694747925 0.0005389368161559105 0.0007057003676891327 0.0 0.0 0.0 0.0
0.897 -0.2678016722202301 0.37017756700515747 0.0006373552605509758 0.0007163938134908676 0.0 0.0 0.0 0.0
0.898 -0.24883587658405304 0.3805038332939148 0.0007021408528089523 0.0004926016554236412 0.0 0.0 0.0 0.0
0.899 -0.23063386976718903 0.38505029678344727 0.0005475301295518875 0.0004382254555821419 0.0 0.0 0.0 0.0
0.9 -0.2099718600511551 0.391361802816391 0.0006743753328919411 0.0006106840446591377 0.0 0.0 0.0 0.0
0.901 -0.19439084827899933 0.3975834250450134 0.000672532245516777 0.00042276177555322647 0.0 0.0 0.0 0.0
0.902 -0.17432482540607452 0.40294787287712097 0.0003823535516858101 0.0004176488146185875 0.0 0.0 0.0 0.0
0.903 -0.1562950760126114 0.40548232197761536 0.0007217526435852051 0.00018071848899126053 0.0 0.0 0.0 0.0
0.904 -0.13907307386398315 0.4073803722858429 0.0006794165819883347 0.00031558144837617874 0.0 0.0 0.0 0.0
0.905 -0.11807408183813095 0.41094791889190674 0.0006376281380653381 7.288716733455658e-05 0.0 0.0 0.0 0.0
0.906 -0.1022101491689682 0.4123894274234772 0.0006162123754620552 0.0002397354692220688 0.0 0.0 0.0 0.0
0.907 -0.0827493816614151 0.4141792953014374 0.0006738947704434395 8.205696940422058e-05 0.0 0.0 0.0 0.0
0.908 -0.06488511711359024 0.41376516222953796 0.0005428614094853401 -2.4577602744102478e-05 0.0 0.0 0.0 0.0
0.909 -0.044977881014347076 0.4155292809009552 0.00030978117138147354 1.179426908493042e-05 0.0 0.0 0.0 0.0
0.91 -0.026774834841489792 0.41388362646102905 0.000683092512190342 -1.27376988530159e-05 0.0 0.0 0.0 0.0
0.911 -0.00970201101154089 0.4137590229511261 0.0005798507481813431 -6.139744073152542e-05 0.0 0.0 0.0 0.0
0.912 0.01321232970803976 0.4109359085559845 0.0007004542276263237 0.00027647241950035095 0.0 0.0 0.0 0.0
0.913 0.028980137780308723 0.4094409644603729 0.0005213357508182526 0.00011457130312919617 0.0 0.0 0.0 0.0
0.914 0.04919928312301636 0.40593308210372925 0.00040207337588071823 -0.00016762036830186844 0.0 0.0 0.0 0.0
0.915 0.06718964874744415 0.4008866250514984 0.0005014091730117798 4.999060183763504e-05 0.0 0.0 0.0 0.0
0.916 0.08686693757772446 0.3963322937488556 0.0005137808620929718 5.812384188175201e-06 0.0 0.0 0.0 0.0
0.917 0.10337657481431961 0.3893147110939026 0.00029428116977214813 -0.0002745548263192177 0.0 0.0 0.0 0.0
0.918 0.1200350821018219 0.3834468424320221 0.00037271343171596527 -0.00032552890479564667 0.0 0.0 0.0 0.0
0.919 0.13488854467868805 0.37549346685409546 0.00043938402086496353 -0.00038054119795560837 0.0 0.0 0.0 0.0
0.92 0.15360724925994873 0.36856913566589355 0.0002139471471309662 -0.00042000412940979004 0.0 0.0 0.0 0.0
0.921 0.1694827675819397 0.3594007194042206 0.00037906691431999207 -0.0003281673416495323 0.0 0.0 0.0 0.0
0.922 0.18476907908916473 0.35288968682289124 6.079860031604767e-05 -0.00020261574536561966 0.0 0.0 0.0 0.0
0.923 0.2001459002494812 0.34229445457458496 0.0003885887563228607 -0.000250048004090786 0.0 0.0 0.0 0.0
0.924 0.21437720954418182 0.3351249694824219 0.00012507755309343338 -0.000592503696680069 0.0 0.0 0.0 0.0
0.925 0.23077711462974548 0.3240426480770111 0.0002797730267047882 -0.0003856997936964035 0.0 0.0 0.0 0.0
0.926 0.24463441967964172 0.313929945230484 -6.99404627084732e-05 -0.000469001941382885 0.0 0.0 0.0 0.0
0.927 0.260769248008728 0.3009122610092163 0.00018686801195144653 -0.0002606092020869255 0.0 0.0 0.0 0.0
0.928 0.2712315618991852 0.2904522716999054 -4.0150247514247894e-05 -0.00048543326556682587 0.0 0.0 0.0 0.0
0.929 0.2864522635936737 0.27735164761543274 -0.00013496261090040207 -0.00011389516294002533 0.0 0.0 0.0 0.0
0.93 0.298409104347229 0.2635234296321869 -6.685778498649597e-05 -0.0003314288333058357 0.0 0.0 0.0 0.0
0.931 0.310677707195282 0.25018495321273804 3.838632255792618e-05 -0.0003428701311349869 0.0 0.0 0.0 0.0
0.932 0.32040107250213623 0.23790138959884644 3.8370490074157715e-05 -0.00014023296535015106 0.0 0.0 0.0 0.0
0.933 0.33064180612564087 0.22320027649402618 -5.102623254060745e-05 -0.000601036474108696 0.0 0.0 0.0 0.0
0.934 0.33959370851516724 0.20815253257751465 -0.0001620696857571602 -0.000302034430205822 0.0 0.0 0.0 0.0
0.935 0.3493872880935669 0.19521628320217133 0.0001233462244272232 -6.145890802145004e-05 0.0 0.0 0.0 0.0
0.936 0.357350617647171 0.18001921474933624 -0.00025975704193115234 -0.00014492496848106384 0.0 0.0 0.0 0.0
0.937 0.3659191429615021 0.16564404964447021 -0.00022837240248918533 4.8121437430381775e-06 0.0 0.0 0.0 0.0
0.938 0.37227752804756165 0.148734912276268 -0.00021243561059236526 -0.00012068729847669601 0.0 0.0 0.0 0.0
0.939 0.37924283742904663 0.13462291657924652 2.9939226806163788e-05 3.8714148104190826e-05 0.0 0.0 0.0 0.0
0.94 0.385466605424881 0.11821495741605759 -0.00018064025789499283 -4.150904715061188e-05 0.0 0.0 0.0 0.0
0.941 0.38887301087379456 0.10403070598840714 -0.00016603339463472366 0.00010706949979066849 0.0 0.0 0.0 0.0
0.942 0.39383652806282043 0.08421625941991806 -6.312690675258636e-05 -0.00013283267617225647 0.0 0.0 0.0 0.0
0.943 0.3960641622543335 0.0728912353515625 -0.0002397596836090088 -8.700322359800339e-05 0.0 0.0 0.0 0.0
0.944 0.3987238109111786 0.05802571028470993 -0.00020284205675125122 -1.9573606550693512e-05 0.0 0.0 0.0 0.0
0.945 0.40151843428611755 0.04191998392343521 0.00010325480252504349 0.00017296522855758667 0.0 0.0 0.0 0.0
0.946 0.401924192905426 0.026673179119825363 0.00021099019795656204 0.00016476772725582123 0.0 0.0 0.0 0.0
0.947 0.4022062420845032 0.01443745382130146 -3.434717655181885e-05 2.4493783712387085e-05 0.0 0.0 0.0 0.0
0.948 0.40324899554252625 0.0006261235103011131 -1.8174760043621063e-05 0.00010485760867595673 0.0 0.0 0.0 0.0
0.949 0.40372103452682495 -0.012818463146686554 4.2207539081573486e-05 6.966758519411087e-05 0.0 0.0 0.0 0.0
0.95 0.40380552411079407 -0.024908676743507385 0.00012154411524534225 -0.0001583285629749298 0.0 0.0 0.0 0.0
0.951 0.4016035795211792 -0.040663160383701324 -6.293877959251404e-06 -0.00011386629194021225 0.0 0.0 0.0 0.0
0.952 0.4009079933166504 -0.05164696276187897 5.1353126764297485e-05 -2.267584204673767e-05 0.0 0.0 0.0 0.0
0.953 0.3971901834011078 -0.06756831705570221 0.00012099742889404297 -0.00028304848819971085 0.0 0.0 0.0 0.0
0.954 0.3964645266532898 -0.07815910130739212 0.0001464923843741417 -0.00015762820839881897 0.0 0.0 0.0 0.0
0.955 0.39526933431625366 -0.08882943540811539 7.155910134315491e-05 0.0001497473567724228 0.0 0.0 0.0 0.0
0.956 0.39112624526023865 -0.09933394938707352 -0.0002152835950255394 -4.500430077314377e-05 0.0 0.0 0.0 0.0
0.957 0.38884684443473816 -0.10824687033891678 7.993541657924652e-06 -0.0003363024443387985 0.0 0.0 0.0 0.0
0.958 0.38630425930023193 -0.12135569006204605 0.00012807827442884445 -0.0001635504886507988 0.0 0.0 0.0 0.0
0.959 0.38605138659477234 -0.12554381787776947 4.948582500219345e-05 -0.00019310414791107178 0.0 0.0 0.0 0.0
0.96 0.3825394809246063 -0.14056910574436188 0.0001985142007470131 -0.00026585254818201065 0.0 0.0 0.0 0.0
0.961 0.3825348913669586 -0.1432122439146042 -0.0001427922397851944 -9.441748261451721e-05 0.0 0.0 0.0 0.0
0.962 0.3814067542552948 -0.15789158642292023 0.00013038422912359238 -0.00015183445066213608 0.0 0.0 0.0 0.0
0.963 0.3804340064525604 -0.16580650210380554 -2.6910565793514252e-05 -0.00030327867716550827 0.0 0.0 0.0 0.0
0.964 0.3794795870780945 -0.1798211634159088 -6.375554949045181e-05 -0.00029669981449842453 0.0 0.0 0.0 0.0
0.965 0.3777381181716919 -0.18703050911426544 -5.113985389471054e-05 -0.00035214051604270935 0.0 0.0 0.0 0.0
0.966 0.37432199716567993 -0.198942631483078 -0.0001641456037759781 -0.0003947848454117775 0.0 0.0 0.0 0.0
0.967 0.37166157364845276 -0.20684927701950073 -0.0005113733932375908 -0.0002555297687649727 0.0 0.0 0.0 0.0
0.968 0.37019985914230347 -0.2191690355539322 -0.00023611914366483688 -0.00047507230192422867 0.0 0.0 0.0 0.0
0.969 0.36726462841033936 -0.22917836904525757 -0.00043371040374040604 -0.00039143115282058716 0.0 0.0 0.0 0.0
0.97 0.3668232560157776 -0.23893366754055023 -0.0005135349929332733 -0.00014241132885217667 0.0 0.0 0.0 0.0
0.971 0.362851083278656 -0.25290805101394653 -0.0004890821874141693 -6.306171417236328e-05 0.0 0.0 0.0 0.0
0.972 0.36128461360931396 -0.2627774775028229 -0.000500064343214035 -0.0003018006682395935 0.0 0.0 0.0 0.0
0.973 0.3545997440814972 -0.27626389265060425 -0.0006324667483568192 -0.00018919724971055984 0.0 0.0 0.0 0.0
0.974 0.35100433230400085 -0.28685829043388367 -0.0004575485363602638 -4.184059798717499e-05 0.0 0.0 0.0 0.0
0.975 0.34237760305404663 -0.29906678199768066 -0.0007810397073626518 -2.367515116930008e-05 0.0 0.0 0.0 0.0
0.976 0.3355519771575928 -0.3086256980895996 -0.000803997740149498 0.00012824591249227524 0.0 0.0 0.0 0.0
0.977 0.3294115960597992 -0.319132536649704 -0.0005870778113603592 0.00012829340994358063 0.0 0.0 0.0 0.0
0.978 0.3202410340309143 -0.3296270966529846 -0.0007712384685873985 9.008683264255524e-06 0.0 0.0 0.0 0.0
0.979 0.3152115046977997 -0.3364262580871582 -0.0008027739822864532 0.00017652753740549088 0.0 0.0 0.0 0.0
0.98 0.3065897524356842 -0.3461245894432068 -0.0007505947723984718 0.00025508180260658264 0.0 0.0 0.0 0.0
0.981 0.30107730627059937 -0.3545129895210266 -0.00048009585589170456 0.000448053702712059 0.0 0.0 0.0 0.0
0.982 0.2915177345275879 -0.36301466822624207 -0.0007331408560276031 0.00043346546590328217 0.0 0.0 0.0 0.0
0.983 0.2856968939304352 -0.3695701062679291 -0.00038680899888277054 0.00071686040610075 0.0 0.0 0.0 0.0
0.984 0.2745484411716461 -0.37859082221984863 -0.0005254987627267838 0.0005037235096096992 0.0 0.0 0.0 0.0
0.985 0.2690730690956116 -0.38460400700569153 -0.00038744229823350906 0.0006828363984823227 0.0 0.0 0.0 0.0
0.986 0.2590446174144745 -0.39066562056541443 -0.00041146669536828995 0.0005769850686192513 0.0 0.0 0.0 0.0
0.987 0.25481116771698 -0.39474353194236755 -0.00041251443326473236 0.0006817560642957687 0.0 0.0 0.0 0.0
0.988 0.24849417805671692 -0.4005022943019867 -0.0004629194736480713 0.0008144937455654144 0.0 0.0 0.0 0.0
0.989 0.23889793455600739 -0.4094662070274353 -0.00022103358060121536 0.0007549533620476723 0.0 0.0 0.0 0.0
0.99 0.23561689257621765 -0.4145912528038025 -5.846936255693436e-05 0.0008707689121365547 0.0 0.0 0.0 0.0
0.991 0.22588668763637543 -0.421336829662323 -0.0002232808619737625 0.0007441900670528412 0.0 0.0 0.0 0.0
0.992 0.2210364043712616 -0.4250154495239258 5.600042641162872e-05 0.001079796813428402 0.0 0.0 0.0 0.0
0.993 0.213099867105484 -0.43482592701911926 5.499646067619324e-05 0.0008325455710291862 0.0 0.0 0.0 0.0
0.994 0.20833013951778412 -0.4392979145050049 0.0002065841108560562 0.0008772006258368492 0.0 0.0 0.0 0.0
0.995 0.19986167550086975 -0.44718095660209656 0.0003155190497636795 0.000912458635866642 0.0 0.0 0.0 0.0
0.996 0.1930418610572815 -0.45257967710494995 0.00026216544210910797 0.000662539154291153 0.0 0.0 0.0 0.0
0.997 0.1855177879333496 -0.46173521876335144 0.0003954814746975899 0.0007825754582881927 0.0 0.0 0.0 0.0
0.998 0.1792392134666443 -0.4665157198905945 0.0004040636122226715 0.0006266012787818909 0.0 0.0 0.0 0.0
0.999 0.1712854653596878 -0.476616770029068 0.00057261623442173 0.0007199449464678764 0.0 0.0 0.0 0.0
1.0 0.16056294739246368 -0.4821147620677948 0.00041982252150774 0.0009233495220541954 0.0 0.0 0.0 0.0
1.001 0.1568780243396759 -0.4919871389865875 0.0005252789705991745 0.0005127796903252602 0.0 0.0 0.0 0.0
1.002 0.14979439973831177 -0.49980759620666504 0.0005847755819559097 0.0007318509742617607 0.0 0.0 0.0 0.0
1.003 0.14018823206424713 -0.5070942640304565 0.0004151565954089165 0.0005919644609093666 0.0 0.0 0.0 0.0
1.004 0.12769532203674316 -0.5154111981391907 0.0006175059825181961 0.0004538297653198242 0.0 0.0 0.0 0.0
1.005 0.11520722508430481 -0.5265913009643555 0.0007231170311570168 0.0005179485306143761 0.0 0.0 0.0 0.0
1.006 0.10544910281896591 -0.5294089317321777 0.0008187582716345787 0.0006457138806581497 0.0 0.0 0.0 0.0
1.007 0.0895422026515007 -0.5373440980911255 0.0007913326844573021 0.0003548143431544304 0.0 0.0 0.0 0.0
1.008 0.08069850504398346 -0.5402966737747192 0.0006473669782280922 0.0006337855011224747 0.0 0.0 0.0 0.0
1.009 0.06632214039564133 -0.5465259552001953 0.0010451050475239754 0.00018745381385087967 0.0 0.0 0.0 0.0
1.01 0.05415046587586403 -0.5502990484237671 0.001042993739247322 0.0002898881211876869 0.0 0.0 0.0 0.0
1.011 0.040281929075717926 -0.5552416443824768 0.0011353185400366783 0.0002218112349510193 0.0 0.0 0.0 0.0
1.012 0.026330655440688133 -0.5591197609901428 0.0011586640030145645 0.000267859548330307 0.0 0.0 0.0 0.0
1.013 0.012965695932507515 -0.5597013831138611 0.0010332902893424034 0.00018049497157335281 0.0 0.0 0.0 0.0
1.014 -0.0038602314889431 -0.5620923042297363 0.0009298576042056084 -1.81468203663826e-05 0.0 0.0 0.0 0.0
1.015 -0.014334233477711678 -0.5651819109916687 0.0010045608505606651 -5.2032992243766785e-05 0.0 0.0 0.0 0.0
1.016 -0.02874191477894783 -0.570083498954773 0.0010360460728406906 0.00010947976261377335 0.0 0.0 0.0 0.0
1.017 -0.04785320907831192 -0.5707809329032898 0.001269536092877388 -0.0002621803432703018 0.0 0.0 0.0 0.0
1.018 -0.0616026408970356 -0.5724347829818726 0.0012748464941978455 -0.00023651868104934692 0.0 0.0 0.0 0.0
1.019 -0.07719405740499496 -0.5719127058982849 0.001185520552098751 -0.0004382515326142311 0.0 0.0 0.0 0.0
1.02 -0.08946957439184189 -0.5718253254890442 0.001223662868142128 -0.0003830520436167717 0.0 0.0 0.0 0.0
1.021 -0.10910331457853317 -0.5697665214538574 0.001171736977994442 -0.0006689941510558128 0.0 0.0 0.0 0.0
1.022 -0.11922328919172287 -0.5680474042892456 0.0011652689427137375 -0.0006746528670191765 0.0 0.0 0.0 0.0
1.023 -0.14008109271526337 -0.5654130578041077 0.0009229546412825584 -0.0008306587114930153 0.0 0.0 0.0 0.0
1.024 -0.15136225521564484 -0.5649076700210571 0.0008755652233958244 -0.0009274836629629135 0.0 0.0 0.0 0.0
1.025 -0.16739970445632935 -0.5596625804901123 0.000720171257853508 -0.0008915886282920837 0.0 0.0 0.0 0.0
1.026 -0.18332941830158234 -0.5570558309555054 0.0006997408345341682 -0.0010122200474143028 0.0 0.0 0.0 0.0
1.027 -0.1965155154466629 -0.5547468066215515 0.0007725618779659271 -0.0010896148160099983 0.0 0.0 0.0 0.0
1.028 -0.2118409425020218 -0.5482207536697388 0.0006179492920637131 -0.0009034471586346626 0.0 0.0 0.0 0.0
1.029 -0.23034849762916565 -0.5475967526435852 0.000784166157245636 -0.0012310836464166641 0.0 0.0 0.0 0.0
1.03 -0.24708589911460876 -0.5381892919540405 0.0007380424067378044 -0.001342562958598137 0.0 0.0 0.0 0.0
1.031 -0.2602183222770691 -0.5318506956100464 0.0003182869404554367 -0.0011506155133247375 0.0 0.0 0.0 0.0
1.032 -0.27674874663352966 -0.522616446018219 0.0004994459450244904 -0.0015515508130192757 0.0 0.0 0.0 0.0
1.033 -0.2911823093891144 -0.5133139491081238 0.0002956865355372429 -0.0015711858868598938 0.0 0.0 0.0 0.0
1.034 -0.3085475564002991 -0.5043326020240784 0.00018957257270812988 -0.0013792477548122406 0.0 0.0 0.0 0.0
1.035 -0.3183729648590088 -0.4933087229728699 5.63180074095726e-05 -0.0015843091532588005 0.0 0.0 0.0 0.0
1.036 -0.3339988887310028 -0.4812512695789337 -0.0002225823700428009 -0.001453375443816185 0.0 0.0 0.0 0.0
1.037 -0.34140393137931824 -0.4718533158302307 -0.00013939570635557175 -0.0014598164707422256 0.0 0.0 0.0 0.0
1.038 -0.35178446769714355 -0.46096178889274597 -0.00042895693331956863 -0.0012642154470086098 0.0 0.0 0.0 0.0
1.039 -0.36457008123397827 -0.4487011432647705 -0.0006087636575102806 -0.001307372935116291 0.0 0.0 0.0 0.0
1.04 -0.37649431824684143 -0.4421469569206238 -0.0004435386508703232 -0.00114507507532835 0.0 0.0 0.0 0.0
1.041 -0.3855465352535248 -0.4314110279083252 -0.000698573887348175 -0.0011154226958751678 0.0 0.0 0.0 0.0
1.042 -0.3967733681201935 -0.41872522234916687 -0.0006666053086519241 -0.0010280013084411621 0.0 0.0 0.0 0.0
1.043 -0.41343575716018677 -0.40417566895484924 -0.0008983472362160683 -0.0010195942595601082 0.0 0.0 0.0 0.0
1.044 -0.4228805601596832 -0.39294373989105225 -0.0009714774787425995 -0.001045222394168377 0.0 0.0 0.0 0.0
1.045 -0.43246397376060486 -0.3789115846157074 -0.0008720085024833679 -0.001017390750348568 0.0 0.0 0.0 0.0
1.046 -0.4399491548538208 -0.3656482696533203 -0.0010113604366779327 -0.0006590681150555611 0.0 0.0 0.0 0.0
1.047 -0.4547273814678192 -0.3472796380519867 -0.0010585514828562737 -0.0008929511532187462 0.0 0.0 0.0 0.0
1.048 -0.4571267366409302 -0.3356613218784332 -0.0009002871811389923 -0.0006865300238132477 0.0 0.0 0.0 0.0
1.049 -0.46952739357948303 -0.3169887661933899 -0.0010960521176457405 -0.0006878562271595001 0.0 0.0 0.0 0.0
1.05 -0.4711609482765198 -0.30109113454818726 -0.0011075781658291817 -0.0005157431587576866 0.0 0.0 0.0 0.0
1.051 -0.482985258102417 -0.28506502509117126 -0.0013285614550113678 -0.0006059501320123672 0.0 0.0 0.0 0.0
1.052 -0.4854830801486969 -0.26970353722572327 -0.0013006478548049927 -0.00040309131145477295 0.0 0.0 0.0 0.0
1.053 -0.493247926235199 -0.25017258524894714 -0.0012802528217434883 -0.0003155563026666641 0.0 0.0 0.0 0.0
1.054 -0.49444282054901123 -0.23878560960292816 -0.0012490609660744667 -0.0002287132665514946 0.0 0.0 0.0 0.0
1.055 -0.4973554015159607 -0.22165587544441223 -0.0013590529561042786 -6.806477904319763e-05 0.0 0.0 0.0 0.0
1.056 -0.5030229091644287 -0.19987833499908447 -0.001521962694823742 2.3084692656993866e-05 0.0 0.0 0.0 0.0
1.057 -0.50562584400177 -0.18571670353412628 -0.0015338575467467308 3.179255872964859e-05 0.0 0.0 0.0 0.0
1.058 -0.5091083645820618 -0.16612420976161957 -0.0012581264600157738 0.00024404563009738922 0.0 0.0 0.0 0.0
1.059 -0.5086590647697449 -0.14984892308712006 -0.001238914206624031 0.0002727089449763298 0.0 0.0 0.0 0.0
1.06 -0.5130555033683777 -0.13053740561008453 -0.0013821329921483994 0.00026076193898916245 0.0 0.0 0.0 0.0
1.061 -0.5087385773658752 -0.11676470935344696 -0.0012268219143152237 0.00031804852187633514 0.0 0.0 0.0 0.0
1.062 -0.5090302228927612 -0.09565595537424088 -0.0013219770044088364 0.000636344775557518 0.0 0.0 0.0 0.0
1.063 -0.5074627995491028 -0.08225081861019135 -0.0012495480477809906 0.0005607372149825096 0.0 0.0 0.0 0.0
1.064 -0.5091062784194946 -0.06349758058786392 -0.0010862108319997787 0.0007834248244762421 0.0 0.0 0.0 0.0
1.065 -0.5046842098236084 -0.045408185571432114 -0.0011093104258179665 0.00067116878926754 0.0 0.0 0.0 0.0
1.066 -0.5004875659942627 -0.027143927291035652 -0.0012219445779919624 0.0010142624378204346 0.0 0.0 0.0 0.0
1.067 -0.5000634789466858 -0.01078291516751051 -0.000927467830479145 0.0009591840207576752 0.0 0.0 0.0 0.0
1.068 -0.49532702565193176 0.0037723053246736526 -0.0008448595181107521 0.0008693793788552284 0.0 0.0 0.0 0.0
1.069 -0.49106284976005554 0.023625412955880165 -0.000909837894141674 0.0009979167953133583 0.0 0.0 0.0 0.0
1.07 -0.4839835464954376 0.03905379772186279 -0.0006694840267300606 0.0010502394288778305 0.0 0.0 0.0 0.0
1.071 -0.4774008095264435 0.05844699963927269 -0.0006798421964049339 0.001096608117222786 0.0 0.0 0.0 0.0
1.072 -0.468127965927124 0.07065016776323318 -0.0006081406027078629 0.0013098446652293205 0.0 0.0 0.0 0.0
1.073 -0.46123531460762024 0.09058751910924911 -0.00044277217239141464 0.0013093892484903336 0.0 0.0 0.0 0.0
1.074 -0.4518854320049286 0.10135636478662491 -0.0003430945798754692 0.0013704868033528328 0.0 0.0 0.0 0.0
1.075 -0.4449535012245178 0.11876805871725082 -0.0002567702904343605 0.0012034904211759567 0.0 0.0 0.0 0.0
1.076 -0.4336387515068054 0.12622913718223572 3.1596049666404724e-05 0.0014961371198296547 0.0 0.0 0.0 0.0
1.077 -0.42418304085731506 0.1402166187763214 -8.144322782754898e-05 0.0014780424535274506 0.0 0.0 0.0 0.0
1.078 -0.4147915244102478 0.15819904208183289 -1.5867874026298523e-05 0.0014179367572069168 0.0 0.0 0.0 0.0
1.079 -0.40395769476890564 0.16948415338993073 0.000263960100710392 0.0012830514460802078 0.0 0.0 0.0 0.0
1.08 -0.3932233452796936 0.18443173170089722 0.0002510296180844307 0.0013306327164173126 0.0 0.0 0.0 0.0
1.081 -0.3796873986721039 0.19612939655780792 0.0003888718783855438 0.0011767363175749779 0.0 0.0 0.0 0.0
1.082 -0.37086352705955505 0.20841975510120392 0.0005677985027432442 0.0009358664974570274 0.0 0.0 0.0 0.0
1.083 -0.35581010580062866 0.22109106183052063 0.0006698649376630783 0.0010325144976377487 0.0 0.0 0.0 0.0
1.084 -0.3442544937133789 0.23070749640464783 0.00047594867646694183 0.0010009873658418655 0.0 0.0 0.0 0.0
1.085 -0.3299697935581207 0.24348591268062592 0.0007117921486496925 0.0008711125701665878 0.0 0.0 0.0 0.0
1.086 -0.31719037890434265 0.2526291012763977 0.00048423558473587036 0.0008403537794947624 0.0 0.0 0.0 0.0
1.087 -0.30306804180145264 0.262290894985199 0.0006429748609662056 0.0006978819146752357 0.0 0.0 0.0 0.0
1.088 -0.290418416261673 0.26877376437187195 0.000726478174328804 0.000757765956223011 0.0 0.0 0.0 0.0
1.089 -0.2736039161682129 0.27968543767929077 0.0007868222892284393 0.0007385862991213799 0.0 0.0 0.0 0.0
1.09 -0.2601727247238159 0.2860894501209259 0.0008682515472173691 0.0006837621331214905 0.0 0.0 0.0 0.0
1.091 -0.24415552616119385 0.294266015291214 0.000915813259780407 0.0006412072107195854 0.0 0.0 0.0 0.0
1.092 -0.22950710356235504 0.30039823055267334 0.0007781693711876869 0.0005662068724632263 0.0 0.0 0.0 0.0
1.093 -0.21515733003616333 0.3060327470302582 0.000935092568397522 0.0004498744383454323 0.0 0.0 0.0 0.0
1.094 -0.19998273253440857 0.31156694889068604 0.0008413158357143402 0.0004441048949956894 0.0 0.0 0.0 0.0
1.095 -0.18672659993171692 0.31664448976516724 0.0008721305057406425 0.00014988984912633896 0.0 0.0 0.0 0.0
1.096 -0.16909366846084595 0.32210496068000793 0.0006663110107183456 1.0906718671321869e-05 0.0 0.0 0.0 0.0
1.097 -0.15585769712924957 0.324978232383728 0.0008643381297588348 -1.9213184714317322e-05 0.0 0.0 0.0 0.0
1.098 -0.13741424679756165 0.3299914002418518 0.0008103176951408386 0.00019738171249628067 0.0 0.0 0.0 0.0
1.099 -0.12488251179456711 0.33386605978012085 0.000657232478260994 0.00014545489102602005 0.0 0.0 0.0 0.0
1.1 -0.1075310930609703 0.3360939025878906 0.00073286984115839 9.58610326051712e-06 0.0 0.0 0.0 0.0
1.101 -0.0906263142824173 0.3382701873779297 0.0006707757711410522 -7.307343184947968e-05 0.0 0.0 0.0 0.0
1.102 -0.07632185518741608 0.340139776468277 0.000713045708835125 -9.133946150541306e-05 0.0 0.0 0.0 0.0
1.103 -0.058773476630449295 0.34078249335289 0.0005938597023487091 -4.9163587391376495e-05 0.0 0.0 0.0 0.0
1.104 -0.04207631200551987 0.3414168357849121 0.0006670532748103142 9.168777614831924e-05 0.0 0.0 0.0 0.0
1.105 -0.026786314323544502 0.33989399671554565 0.0006764624267816544 3.572087734937668e-05 0.0 0.0 0.0 0.0
1.106 -0.012578757479786873 0.3392091393470764 0.000640195794403553 -6.306171417236328e-05 0.0 0.0 0.0 0.0
1.107 0.007286800071597099 0.3373754322528839 0.00059466902166605 -1.6284175217151642e-05 0.0 0.0 0.0 0.0
1.108 0.020155102014541626 0.3359389305114746 0.00045374687761068344 -2.086348831653595e-05 0.0 0.0 0.0 0.0
1.109 0.03634011372923851 0.3334123492240906 0.0005989857017993927 -7.375422865152359e-05 0.0 0.0 0.0 0.0
1.11 0.051174815744161606 0.3293949067592621 0.000370049849152565 -0.0001922696828842163 0.0 0.0 0.0 0.0
1.111 0.06594650447368622 0.3264305889606476 0.0004712175577878952 -0.00021828804165124893 0.0 0.0 0.0 0.0
1.112 0.07990753650665283 0.32253724336624146 0.0004366869106888771 -0.00030150730162858963 0.0 0.0 0.0 0.0
1.113 0.09487735480070114 0.31990769505500793 0.00048086047172546387 -0.00019895564764738083 0.0 0.0 0.0 0.0
1.114 0.10855340212583542 0.3142344057559967 0.00041661132127046585 -0.0002353265881538391 0.0 0.0 0.0 0.0
1.115 0.12355431169271469 0.3091978132724762 0.000535065308213234 -0.00030484888702630997 0.0 0.0 0.0 0.0
1.116 0.13796912133693695 0.3030676245689392 0.0002876771613955498 -0.0001625875011086464 0.0 0.0 0.0 0.0
1.117 0.15267641842365265 0.2970510423183441 0.00017445161938667297 -0.00023923814296722412 0.0 0.0 0.0 0.0
1.118 0.16532491147518158 0.29034972190856934 0.0004020519554615021 -0.00047258660197257996 0.0 0.0 0.0 0.0
1.119 0.17814241349697113 0.2846740484237671 0.00022879056632518768 -0.0002843998372554779 0.0 0.0 0.0 0.0
1.12 0.19381271302700043 0.27472183108329773 0.0003076661378145218 -7.844064384698868e-05 0.0 0.0 0.0 0.0
1.121 0.2068222314119339 0.2678421437740326 0.0002862270921468735 -9.071920067071915e-05 0.0 0.0 0.0 0.0
1.122 0.22220154106616974 0.25761690735816956 0.00026001129299402237 -0.0002366742119193077 0.0 0.0 0.0 0.0
1.123 0.23195086419582367 0.24915729463100433 0.0003124792128801346 -0.0003417711704969406 0.0 0.0 0.0 0.0
1.124 0.2452402114868164 0.2380141317844391 0.00037476979196071625 -0.0002856263890862465 0.0 0.0 0.0 0.0
1.125 0.25551852583885193 0.22852644324302673 0.00034153275191783905 -0.00034431181848049164 0.0 0.0 0.0 0.0
1.126 0.26677873730659485 0.21874743700027466 0.00019620079547166824 -0.0002945205196738243 0.0 0.0 0.0 0.0
1.127 0.2758636772632599 0.20756796002388 0.00029318686574697495 -0.0004247063770890236 0.0 0.0 0.0 0.0
1.128 0.2879291772842407 0.19534382224082947 0.0003677560016512871 -0.00032652541995048523 0.0 0.0 0.0 0.0
1.129 0.2975262999534607 0.18376822769641876 0.00035183224827051163 -0.0003090761601924896 0.0 0.0 0.0 0.0
1.13 0.30721384286880493 0.17076894640922546 0.00034463871270418167 -0.00037986040115356445 0.0 0.0 0.0 0.0
1.131 0.31533294916152954 0.15708501636981964 0.00018639210611581802 -0.0004766611382365227 0.0 0.0 0.0 0.0
1.132 0.3240109980106354 0.14673279225826263 0.000345020554959774 -0.0002386048436164856 0.0 0.0 0.0 0.0
1.133 0.331348717212677 0.1322060227394104 0.00026477593928575516 -0.00038162339478731155 0.0 0.0 0.0 0.0
1.134 0.33830195665359497 0.12000074982643127 0.00015278160572052002 -0.00021785125136375427 0.0 0.0 0.0 0.0
1.135 0.34468820691108704 0.10568910092115402 0.0001666620373725891 -0.00041430816054344177 0.0 0.0 0.0 0.0
1.136 0.34945258498191833 0.0945226401090622 2.1469779312610626e-05 -0.0003955597057938576 0.0 0.0 0.0 0.0
1.137 0.35526832938194275 0.07805192470550537 -7.31535255908966e-05 -0.0004984326660633087 0.0 0.0 0.0 0.0
1.138 0.35950547456741333 0.06637288630008698 0.00013741198927164078 -0.000333898700773716 0.0 0.0 0.0 0.0
1.139 0.3630584180355072 0.0525897853076458 0.00010274723172187805 -0.00025873444974422455 0.0 0.0 0.0 0.0
1.14 0.36673665046691895 0.03954784944653511 0.00010573398321866989 -0.0003854278475046158 0.0 0.0 0.0 0.0
1.141 0.3700532019138336 0.025804514065384865 0.00012987665832042694 -0.0002046646550297737 0.0 0.0 0.0 0.0
1.142 0.3707699477672577 0.013772654347121716 7.805041968822479e-05 -0.00013327505439519882 0.0 0.0 0.0 0.0
1.143 0.37422552704811096 -0.0026116492226719856 0.00015878677368164062 -0.0004019858315587044 0.0 0.0 0.0 0.0
1.144 0.375576376914978 -0.01413126103579998 7.41034746170044e-05 -0.00011095963418483734 0.0 0.0 0.0 0.0
1.145 0.3753577768802643 -0.03222246468067169 7.60713592171669e-05 -0.0003743348643183708 0.0 0.0 0.0 0.0
1.146 0.3764350116252899 -0.04288922995328903 0.00022173020988702774 -0.00038007088005542755 0.0 0.0 0.0 0.0
1.147 0.37597933411598206 -0.05185053497552872 0.000112202949821949 -0.0005628596991300583 0.0 0.0 0.0 0.0
1.148 0.37478795647621155 -0.06749526411294937 0.00015768781304359436 -0.00030777323991060257 0.0 0.0 0.0 0.0
1.149 0.3749159276485443 -0.0777871236205101 0.0001839473843574524 -0.00025874003767967224 0.0 0.0 0.0 0.0
1.15 0.37064406275749207 -0.09263395518064499 0.0001484425738453865 -0.00042444467544555664 0.0 0.0 0.0 0.0
1.151 0.3723262846469879 -0.10008995234966278 0.00020903628319501877 -0.00039236433804035187 0.0 0.0 0.0 0.0
1.152 0.3699972629547119 -0.11089779436588287 2.027861773967743e-05 -0.00046229735016822815 0.0 0.0 0.0 0.0
1.153 0.36818641424179077 -0.12451567500829697 0.00023752637207508087 -0.0005325758829712868 0.0 0.0 0.0 0.0
1.154 0.36626842617988586 -0.134877011179924 0.00013231858611106873 -0.0004725158214569092 0.0 0.0 0.0 0.0
1.155 0.363204687833786 -0.14780643582344055 0.000163394957780838 -0.0004200749099254608 0.0 0.0 0.0 0.0
1.156 0.36076685786247253 -0.15749412775039673 0.00027269404381513596 -0.0005910759791731834 0.0 0.0 0.0 0.0
1.157 0.3559597432613373 -0.16985221207141876 -4.709884524345398e-05 -0.0004944987595081329 0.0 0.0 0.0 0.0
1.158 0.354775607585907 -0.17816536128520966 0.00013641919940710068 -0.0006204433739185333 0.0 0.0 0.0 0.0
1.159 0.3507593870162964 -0.1912073791027069 0.00013131462037563324 -0.000622953288257122 0.0 0.0 0.0 0.0
1.16 0.34677472710609436 -0.19896095991134644 4.116259515285492e-05 -0.0006259353831410408 0.0 0.0 0.0 0.0
1.161 0.34264254570007324 -0.21168449521064758 7.584691047668457e-06 -0.0007446035742759705 0.0 0.0 0.0 0.0
1.162 0.33895400166511536 -0.21855810284614563 0.00012748036533594131 -0.0006881877779960632 0.0 0.0 0.0 0.0
1.163 0.3340420126914978 -0.22770385444164276 -0.0002419017255306244 -0.0006901519373059273 0.0 0.0 0.0 0.0
1.164 0.32803651690483093 -0.23766805231571198 -6.405357271432877e-05 -0.0006894972175359726 0.0 0.0 0.0 0.0
1.165 0.32548657059669495 -0.24676185846328735 -1.6393139958381653e-05 -0.0006110826507210732 0.0 0.0 0.0 0.0
1.166 0.3198932409286499 -0.25594863295555115 -0.00011384952813386917 -0.0007160985842347145 0.0 0.0 0.0 0.0
1.167 0.31717386841773987 -0.264256089925766 -0.00032312609255313873 -0.0006452798843383789 0.0 0.0 0.0 0.0
1.168 0.31083741784095764 -0.2758882939815521 -0.00015302374958992004 -0.0008069565519690514 0.0 0.0 0.0 0.0
1.169 0.30673345923423767 -0.2839323580265045 -0.0002830084413290024 -0.0008107637986540794 0.0 0.0 0.0 0.0
1.17 0.29764261841773987 -0.29605817794799805 -0.0002047838643193245 -0.0008424054831266403 0.0 0.0 0.0 0.0
1.171 0.29314154386520386 -0.30150553584098816 -0.00028195232152938843 -0.0005624406039714813 0.0 0.0 0.0 0.0
1.172 0.2864881157875061 -0.3117956221103668 -0.00045130588114261627 -0.000821257010102272 0.0 0.0 0.0 0.0
1.173 0.2783154249191284 -0.31760841608047485 -0.0006358027458190918 -0.0006476631388068199 0.0 0.0 0.0 0.0
1.174 0.27059629559516907 -0.3280086815357208 -0.0005475487560033798 -0.0008352808654308319 0.0 0.0 0.0 0.0
1.175 0.26611900329589844 -0.3305699825286865 -0.000613916665315628 -0.0006434852257370949 0.0 0.0 0.0 0.0
1.176 0.25920358300209045 -0.34278756380081177 -0.0006369175389409065 -0.000669633038341999 0.0 0.0 0.0 0.0
1.177 0.25249648094177246 -0.3465602993965149 -0.000584959052503109 -0.0007041618227958679 0.0 0.0 0.0 0.0
1.178 0.24825450778007507 -0.3555339276790619 -0.0006279945373535156 -0.0006413711234927177 0.0 0.0 0.0 0.0
1.179 0.23474834859371185 -0.3640652894973755 -0.0005949251353740692 -0.0006965445354580879 0.0 0.0 0.0 0.0
1.18 0.23089812695980072 -0.3700312376022339 -0.0005199313163757324 -0.0005926582962274551 0.0 0.0 0.0 0.0
1.181 0.2244543582201004 -0.3754379153251648 -0.0006634881719946861 -0.00044586509466171265 0.0 0.0 0.0 0.0
1.182 0.21629321575164795 -0.3828146457672119 -0.0006478670984506607 -0.0005653528496623039 0.0 0.0 0.0 0.0
1.183 0.2052055448293686 -0.38940364122390747 -0.000853382982313633 -0.0006190082058310509 0.0 0.0 0.0 0.0
1.184 0.19989116489887238 -0.3955848515033722 -0.0009228643029928207 -0.000415128655731678 0.0 0.0 0.0 0.0
1.185 0.1891452670097351 -0.40446773171424866 -0.0006669787690043449 -0.0004207110032439232 0.0 0.0 0.0 0.0
1.186 0.1836545169353485 -0.40930742025375366 -0.0008439561352133751 -0.0004342030733823776 0.0 0.0 0.0 0.0
1.187 0.16998781263828278 -0.4160456955432892 -0.0009696511551737785 -0.0004194406792521477 0.0 0.0 0.0 0.0
1.188 0.16267484426498413 -0.4210268259048462 -0.0008984552696347237 -0.0003878353163599968 0.0 0.0 0.0 0.0
1.189 0.1482456475496292 -0.42644694447517395 -0.0009790398180484772 -0.00039688777178525925 0.0 0.0 0.0 0.0
1.19 0.1408601552248001 -0.4286053478717804 -0.0010218331590294838 -0.00022757798433303833 0.0 0.0 0.0 0.0
1.191 0.12399745732545853 -0.43504151701927185 -0.0010096849873661995 -0.0003057364374399185 0.0 0.0 0.0 0.0
1.192 0.11917716264724731 -0.4380197823047638 -0.0009536929428577423 -0.0002479059621691704 0.0 0.0 0.0 0.0
1.193 0.11027415841817856 -0.4419533908367157 -0.0010364111512899399 -0.0001747114583849907 0.0 0.0 0.0 0.0
1.194 0.09775501489639282 -0.4456404447555542 -0.0011142706498503685 -0.00011452939361333847 0.0 0.0 0.0 0.0
1.195 0.09068479388952255 -0.4473510980606079 -0.001297404058277607 -5.13000413775444e-05 0.0 0.0 0.0 0.0
1.196 0.0777873620390892 -0.45038753747940063 -0.001190335489809513 -2.5229528546333313e-06 0.0 0.0 0.0 0.0
1.197 0.06711925566196442 -0.4530237019062042 -0.0011922484263777733 0.0001312755048274994 0.0 0.0 0.0 0.0
1.198 0.054726798087358475 -0.45414477586746216 -0.0014096098020672798 2.4670735001564026e-05 0.0 0.0 0.0 0.0
1.199 0.043349817395210266 -0.45490410923957825 -0.0015056869015097618 0.00013167504221200943 0.0 0.0 0.0 0.0
1.2 0.030213138088583946 -0.45627692341804504 -0.0015443842858076096 8.847750723361969e-05 0.0 0.0 0.0 0.0
1.201 0.021978503093123436 -0.45744723081588745 -0.001393594779074192 0.00036720186471939087 0.0 0.0 0.0 0.0
1.202 0.006335682235658169 -0.45730915665626526 -0.0015446720644831657 0.00034563150256872177 0.0 0.0 0.0 0.0
1.203 -0.0032859304919838905 -0.4557063579559326 -0.0014538541436195374 0.0006519826129078865 0.0 0.0 0.0 0.0
1.204 -0.014007496647536755 -0.45496511459350586 -0.001345258206129074 0.0005152197554707527 0.0 0.0 0.0 0.0
1.205 -0.023083988577127457 -0.4509787857532501 -0.0016074003651738167 0.0007254974916577339 0.0 0.0 0.0 0.0
1.206 -0.037707891315221786 -0.448821485042572 -0.0015526842325925827 0.0009259628131985664 0.0 0.0 0.0 0.0
1.207 -0.04823194444179535 -0.4455735683441162 -0.0014803064987063408 0.0008861031383275986 0.0 0.0 0.0 0.0
1.208 -0.05316558852791786 -0.4443301260471344 -0.0012893741950392723 0.001214698888361454 0.0 0.0 0.0 0.0
1.209 -0.0670187771320343 -0.4402833878993988 -0.001362113282084465 0.0011949483305215836 0.0 0.0 0.0 0.0
1.21 -0.07328111678361893 -0.439269095659256 -0.0011427681893110275 0.0012858612462878227 0.0 0.0 0.0 0.0
1.211 -0.08751528710126877 -0.43687334656715393 -0.0012756315991282463 0.0013512056320905685 0.0 0.0 0.0 0.0
1.212 -0.09453772008419037 -0.43104639649391174 -0.0009702406823635101 0.001463945023715496 0.0 0.0 0.0 0.0
1.213 -0.10511677712202072 -0.4295828342437744 -0.0007949154824018478 0.0015250593423843384 0.0 0.0 0.0 0.0
1.214 -0.11635607481002808 -0.42395952343940735 -0.0008605411276221275 0.0016488973051309586 0.0 0.0 0.0 0.0
1.215 -0.12474298477172852 -0.41952985525131226 -0.0006755944341421127 0.0015961267054080963 0.0 0.0 0.0 0.0
1.216 -0.13444733619689941 -0.41202014684677124 -0.000680072233080864 0.0015925178304314613 0.0 0.0 0.0 0.0
1.217 -0.14243106544017792 -0.40579092502593994 -0.0005640769377350807 0.0017168819904327393 0.0 0.0 0.0 0.0
1.218 -0.15106700360774994 -0.4016765356063843 -0.0004353215917944908 0.0016971677541732788 0.0 0.0 0.0 0.0
1.219 -0.15581315755844116 -0.3951903283596039 -0.00035153981298208237 0.0017689736559987068 0.0 0.0 0.0 0.0
1.22 -0.16550137102603912 -0.38967186212539673 -0.0002294722944498062 0.0016983747482299805 0.0 0.0 0.0 0.0
1.221 -0.17128603160381317 -0.3845444917678833 -0.00025387294590473175 0.00159497931599617 0.0 0.0 0.0 0.0
1.222 -0.18369442224502563 -0.37736958265304565 -0.00016237329691648483 0.0017882296815514565 0.0 0.0 0.0 0.0
1.223 -0.18567155301570892 -0.3724521994590759 -0.000211312435567379 0.0018880339339375496 0.0 0.0 0.0 0.0
1.224 -0.1978815644979477 -0.36425772309303284 -4.882644861936569e-05 0.0017297184094786644 0.0 0.0 0.0 0.0
1.225 -0.19885484874248505 -0.35840097069740295 0.00022225920110940933 0.0016231732442975044 0.0 0.0 0.0 0.0
1.226 -0.20621345937252045 -0.3521724343299866 0.0002591712400317192 0.0018742531538009644 0.0 0.0 0.0 0.0
1.227 -0.2125137448310852 -0.3445139527320862 0.0004513431340456009 0.001884331926703453 0.0 0.0 0.0 0.0
1.228 -0.21839797496795654 -0.33891719579696655 0.0004939977079629898 0.0017405739054083824 0.0 0.0 0.0 0.0
1.229 -0.22450971603393555 -0.3305599093437195 0.0005794120952486992 0.001751881092786789 0.0 0.0 0.0 0.0
1.23 -0.2287580519914627 -0.32613059878349304 0.0007066447287797928 0.0017266171053051949 0.0 0.0 0.0 0.0
1.231 -0.23572739958763123 -0.31669384241104126 0.0007676687091588974 0.0016257287934422493 0.0 0.0 0.0 0.0
1.232 -0.23990480601787567 -0.31113389134407043 0.0008223783224821091 0.001625150442123413 0.0 0.0 0.0 0.0
1.233 -0.24406027793884277 -0.3020237386226654 0.0009552668780088425 0.0015833331272006035 0.0 0.0 0.0 0.0
1.234 -0.24697312712669373 -0.29710373282432556 0.0010553104802966118 0.0016228128224611282 0.0 0.0 0.0 0.0
1.235 -0.2558667063713074 -0.2890930473804474 0.0010277889668941498 0.0014383979141712189 0.0 0.0 0.0 0.0
1.236 -0.25702163577079773 -0.2835238575935364 0.0012591620907187462 0.0016830237582325935 0.0 0.0 0.0 0.0
1.237 -0.2645683288574219 -0.2755403518676758 0.0012970846146345139 0.0013499092310667038 0.0 0.0 0.0 0.0
1.238 -0.26776692271232605 -0.2692302167415619 0.0013952488079667091 0.0013508973643183708 0.0 0.0 0.0 0.0
1.239 -0.27273663878440857 -0.26093241572380066 0.0015475014224648476 0.0012475047260522842 0.0 0.0 0.0 0.0
1.24 -0.2758236527442932 -0.2506713271141052 0.001501886174082756 0.0012217182666063309 0.0 0.0 0.0 0.0
1.241 -0.28039446473121643 -0.24462322890758514 0.0015293527394533157 0.0009884284809231758 0.0 0.0 0.0 0.0
1.242 -0.2842748463153839 -0.23570868372917175 0.0015971073880791664 0.0009562605991959572 0.0 0.0 0.0 0.0
1.243 -0.2859915494918823 -0.22874779999256134 0.0015998687595129013 0.0008806958794593811 0.0 0.0 0.0 0.0
1.244 -0.2906283438205719 -0.22025495767593384 0.0016230428591370583 0.0007282979786396027 0.0 0.0 0.0 0.0
1.245 -0.29051703214645386 -0.2131211757659912 0.0020275795832276344 0.0006862105801701546 0.0 0.0 0.0 0.0
1.246 -0.2949589788913727 -0.20317208766937256 0.0018144026398658752 0.0005741128697991371 0.0 0.0 0.0 0.0
1.247 -0.29609230160713196 -0.19782686233520508 0.0018917620182037354 0.0002327561378479004 0.0 0.0 0.0 0.0
1.248 -0.30099716782569885 -0.18911710381507874 0.0018792860209941864 0.00027999747544527054 0.0 0.0 0.0 0.0
1.249 -0.3023841679096222 -0.18122559785842896 0.0018103709444403648 0.00012856349349021912 0.0 0.0 0.0 0.0
1.25 -0.303567111492157 -0.17198367416858673 0.001718343235552311 0.0001305602490901947 0.0 0.0 0.0 0.0
1.251 -0.3065134584903717 -0.16371126472949982 0.0017654486000537872 -1.1264346539974213e-05 0.0 0.0 0.0 0.0
1.252 -0.3080422580242157 -0.1553480476140976 0.0019132979214191437 -0.00012780632823705673 0.0 0.0 0.0 0.0
1.253 -0.3092818856239319 -0.14661037921905518 0.0018920199945569038 -0.00031454768031835556 0.0 0.0 0.0 0.0
1.254 -0.3126651644706726 -0.13892073929309845 0.0019200658425688744 -0.0003207186236977577 0.0 0.0 0.0 0.0
1.255 -0.31504958868026733 -0.12784603238105774 0.001661110669374466 -0.000602121464908123 0.0 0.0 0.0 0.0
1.256 -0.3160454034805298 -0.11879099160432816 0.0014665015041828156 -0.0005046892911195755 0.0 0.0 0.0 0.0
1.257 -0.3146520256996155 -0.10834448784589767 0.0018948744982481003 -0.0005014296621084213 0.0 0.0 0.0 0.0
1.258 -0.3153623938560486 -0.10005459189414978 0.001516668125987053 -0.0006130319088697433 0.0 0.0 0.0 0.0
1.259 -0.315844863653183 -0.09011206030845642 0.0016127238050103188 -0.0009776707738637924 0.0 0.0 0.0 0.0
1.26 -0.31475040316581726 -0.08212191611528397 0.001767176203429699 -0.0007215831428766251 0.0 0.0 0.0 0.0
1.261 -0.31609290838241577 -0.06994155794382095 0.0012971330434083939 -0.0009086029604077339 0.0 0.0 0.0 0.0
1.262 -0.3140101432800293 -0.062215618789196014 0.001325441524386406 -0.001097479835152626 0.0 0.0 0.0 0.0
1.263 -0.3138880133628845 -0.05183593928813934 0.00137331523001194 -0.0010110000148415565 0.0 0.0 0.0 0.0
1.264 -0.3127937316894531 -0.04337756708264351 0.0012094993144273758 -0.000990498811006546 0.0 0.0 0.0 0.0
1.265 -0.3101908564567566 -0.03354595974087715 0.0011562136933207512 -0.0010533668100833893 0.0 0.0 0.0 0.0
1.266 -0.3078784644603729 -0.022810451686382294 0.0011495426297187805 -0.001111624762415886 0.0 0.0 0.0 0.0
1.267 -0.30543214082717896 -0.015090159140527248 0.0009287269786000252 -0.0010290322825312614 0.0 0.0 0.0 0.0
1.268 -0.3032371699810028 -0.0052454788237810135 0.0010767336934804916 -0.0012020636349916458 0.0 0.0 0.0 0.0
1.269 -0.30070167779922485 0.0036534154787659645 0.0009169699624180794 -0.00102281104773283 0.0 0.0 0.0 0.0
1.27 -0.29815080761909485 0.012305338867008686 0.0007004840299487114 -0.001429080031812191 0.0 0.0 0.0 0.0
1.271 -0.29580825567245483 0.02108485996723175 0.0005793683230876923 -0.0013168957084417343 0.0 0.0 0.0 0.0
1.272 -0.29268786311149597 0.032240770757198334 0.000601375475525856 -0.0014090519398450851 0.0 0.0 0.0 0.0
1.273 -0.2885083258152008 0.04026205092668533 0.0005089752376079559 -0.0014916090294718742 0.0 0.0 0.0 0.0
1.274 -0.2829168140888214 0.052435100078582764 0.000609089620411396 -0.0012767426669597626 0.0 0.0 0.0 0.0
1.275 -0.27819910645484924 0.059706345200538635 0.0004650149494409561 -0.001419156789779663 0.0 0.0 0.0 0.0
1.276 -0.2744101285934448 0.07021331042051315 0.00042665936052799225 -0.001349024474620819 0.0 0.0 0.0 0.0
1.277 -0.26935240626335144 0.07818347215652466 0.00042035244405269623 -0.0010682018473744392 0.0 0.0 0.0 0.0
1.278 -0.26301297545433044 0.08642391115427017 0.00039430800825357437 -0.001298714429140091 0.0 0.0 0.0 0.0
1.279 -0.25567975640296936 0.09617020934820175 0.00021892227232456207 -0.0014209076762199402 0.0 0.0 0.0 0.0
1.28 -0.25163763761520386 0.1020527109503746 0.00020841415971517563 -0.0015059560537338257 0.0 0.0 0.0 0.0
1.281 -0.24432234466075897 0.111138254404068 0.00018086563795804977 -0.0014619268476963043 0.0 0.0 0.0 0.0
1.282 -0.2376897782087326 0.11764038354158401 0.0001361621543765068 -0.0014315824955701828 0.0 0.0 0.0 0.0
1.283 -0.23188264667987823 0.12484442442655563 3.9754435420036316e-05 -0.0015197061002254486 0.0 0.0 0.0 0.0
1.284 -0.22584551572799683 0.13227339088916779 0.00015522167086601257 -0.0014507779851555824 0.0 0.0 0.0 0.0
1.285 -0.21723495423793793 0.14142180979251862 5.296338349580765e-05 -0.0014258800074458122 0.0 0.0 0.0 0.0
1.286 -0.21059352159500122 0.1472097933292389 -0.00023777876049280167 -0.0013877861201763153 0.0 0.0 0.0 0.0
1.287 -0.20281726121902466 0.15579800307750702 -0.00022526364773511887 -0.0013668648898601532 0.0 0.0 0.0 0.0
1.288 -0.195332333445549 0.15973013639450073 -0.0003603128716349602 -0.0015328172594308853 0.0 0.0 0.0 0.0
1.289 -0.1857140064239502 0.16737781465053558 -0.00026183202862739563 -0.0012557273730635643 0.0 0.0 0.0 0.0
1.29 -0.1790442019701004 0.17456617951393127 -0.0005001602694392204 -0.0013949647545814514 0.0 0.0 0.0 0.0
1.291 -0.17011988162994385 0.179438978433609 -0.0003673657774925232 -0.0012422697618603706 0.0 0.0 0.0 0.0
1.292 -0.16120463609695435 0.18533183634281158 -0.00037899892777204514 -0.0012133345007896423 0.0 0.0 0.0 0.0
1.293 -0.15397581458091736 0.19030314683914185 -0.0006969813257455826 -0.00094651710242033 0.0 0.0 0.0 0.0
1.294 -0.14409910142421722 0.19692660868167877 -0.0005416059866547585 -0.0012352047488093376 0.0 0.0 0.0 0.0
1.295 -0.1365528404712677 0.200684055685997 -0.0007075909525156021 -0.0011050235480070114 0.0 0.0 0.0 0.0
1.296 -0.12739445269107819 0.2055860459804535 -0.0007210187613964081 -0.0012499913573265076 0.0 0.0 0.0 0.0
1.297 -0.11726851761341095 0.20912347733974457 -0.0009024245664477348 -0.0011021504178643227 0.0 0.0 0.0 0.0
1.298 -0.10917039960622787 0.2139441967010498 -0.000812949612736702 -0.0012092161923646927 0.0 0.0 0.0 0.0
1.299 -0.09926647692918777 0.21867528557777405 -0.0010444112122058868 -0.0010703187435865402 0.0 0.0 0.0 0.0
1.3 -0.08933264017105103 0.22299887239933014 -0.0009742556139826775 -0.0009724525734782219 0.0 0.0 0.0 0.0
1.301 -0.07896313816308975 0.22737103700637817 -0.0009364895522594452 -0.0010854071006178856 0.0 0.0 0.0 0.0
1.302 -0.0696701630949974 0.23031380772590637 -0.00112057663500309 -0.0010679112747311592 0.0 0.0 0.0 0.0
1.303 -0.058317385613918304 0.23551160097122192 -0.0012483233585953712 -0.000800018198788166 0.0 0.0 0.0 0.0
1.304 -0.04728153720498085 0.23883399367332458 -0.0012872423976659775 -0.0008184229955077171 0.0 0.0 0.0 0.0
1.305 -0.03629717975854874 0.24173633754253387 -0.0012769708409905434 -0.0007089255377650261 0.0 0.0 0.0 0.0
1.306 -0.024313457310199738 0.24328577518463135 -0.0011539384722709656 -0.0007205512374639511 0.0 0.0 0.0 0.0
1.307 -0.013260512612760067 0.2453412264585495 -0.0012365998700261116 -0.000673108734190464 0.0 0.0 0.0 0.0
1.308 -0.0014474708586931229 0.24676744639873505 -0.0011897878721356392 -0.0006416616961359978 0.0 0.0 0.0 0.0
1.309 0.011790137737989426 0.24795041978359222 -0.001394752413034439 -0.0005778484046459198 0.0 0.0 0.0 0.0
1.31 0.024183830246329308 0.2477349042892456 -0.001297694630920887 -0.0004294775426387787 0.0 0.0 0.0 0.0
1.311 0.03764696046710014 0.24682220816612244 -0.0013235118240118027 -0.00020888913422822952 0.0 0.0 0.0 0.0
1.312 0.04831121116876602 0.24613057076931 -0.0013731904327869415 -0.000134211964905262 0.0 0.0 0.0 0.0
1.313 0.059461213648319244 0.24386368691921234 -0.0013646306470036507 -0.00018066074699163437 0.0 0.0 0.0 0.0
1.314 0.07251780480146408 0.24248208105564117 -0.0013594049960374832 -0.00020841509103775024 0.0 0.0 0.0 0.0
1.315 0.08334203064441681 0.24135522544384003 -0.0013850703835487366 -0.0002077259123325348 0.0 0.0 0.0 0.0
1.316 0.09701599180698395 0.23812860250473022 -0.0014388719573616982 -0.0001343265175819397 0.0 0.0 0.0 0.0
1.317 0.10796155035495758 0.2351568341255188 -0.001490095630288124 9.950157254934311e-05 0.0 0.0 0.0 0.0
1.318 0.12029171735048294 0.23092646896839142 -0.0014569833874702454 2.476479858160019e-05 0.0 0.0 0.0 0.0
1.319 0.13004566729068756 0.22645880281925201 -0.0014102291315793991 -6.067845970392227e-05 0.0 0.0 0.0 0.0
1.32 0.143335223197937 0.22125311195850372 -0.001332913525402546 0.00028189457952976227 0.0 0.0 0.0 0.0
1.321 0.15233168005943298 0.2164701372385025 -0.0014843065291643143 0.00023524556308984756 0.0 0.0 0.0 0.0
1.322 0.1641985923051834 0.21014343202114105 -0.0014498857781291008 0.0003154464066028595 0.0 0.0 0.0 0.0
1.323 0.17367210984230042 0.20450901985168457 -0.001240437850356102 0.00047588814049959183 0.0 0.0 0.0 0.0
1.324 0.1851104348897934 0.19714894890785217 -0.0014050407335162163 0.0005247490480542183 0.0 0.0 0.0 0.0
1.325 0.1931326985359192 0.19105009734630585 -0.0012347213923931122 0.0006841942667961121 0.0 0.0 0.0 0.0
1.326 0.20205160975456238 0.18247266113758087 -0.001247168518602848 0.0007309336215257645 0.0 0.0 0.0 0.0
1.327 0.21185269951820374 0.1748199611902237 -0.0012187911197543144 0.0008243266493082047 0.0 0.0 0.0 0.0
1.328 0.2195952981710434 0.1673973649740219 -0.001208653673529625 0.0007503386586904526 0.0 0.0 0.0 0.0
1.329 0.22511951625347137 0.16211703419685364 -0.0011120671406388283 0.000744970515370369 0.0 0.0 0.0 0.0
1.33 0.2340889871120453 0.15314234793186188 -0.001004423014819622 0.0008584707975387573 0.0 0.0 0.0 0.0
1.331 0.24277104437351227 0.14393360912799835 -0.001078982837498188 0.000890820287168026 0.0 0.0 0.0 0.0
1.332 0.24852660298347473 0.13851915299892426 -0.0011777309700846672 0.0009253388270735741 0.0 0.0 0.0 0.0
1.333 0.25634700059890747 0.1281760334968567 -0.0010059401392936707 0.0010462738573551178 0.0 0.0 0.0 0.0
1.334 0.26289159059524536 0.12034745514392853 -0.0009405305609107018 0.0008397949859499931 0.0 0.0 0.0 0.0
1.335 0.2702981233596802 0.11141853779554367 -0.0008433768525719643 0.0010884907096624374 0.0 0.0 0.0 0.0
1.336 0.27427971363067627 0.10202830284833908 -0.0009559709578752518 0.001114729791879654 0.0 0.0 0.0 0.0
1.337 0.28111714124679565 0.09309952706098557 -0.0008330149576067924 0.0010325098410248756 0.0 0.0 0.0 0.0
1.338 0.2854677140712738 0.08373117446899414 -0.0007585026323795319 0.0011419989168643951 0.0 0.0 0.0 0.0
1.339 0.28996050357818604 0.07474391907453537 -0.0006531327962875366 0.0011154655367136002 0.0 0.0 0.0 0.0
1.34 0.295156329870224 0.06305636465549469 -0.0007436033338308334 0.0012162458151578903 0.0 0.0 0.0 0.0
1.341 0.2990551292896271 0.0569763258099556 -0.0007867114618420601 0.001127287745475769 0.0 0.0 0.0 0.0
1.342 0.30369052290916443 0.04644829407334328 -0.0005501778796315193 0.0014114631339907646 0.0 0.0 0.0 0.0
1.343 0.30689340829849243 0.03889172896742821 -0.0006327424198389053 0.0013702567666769028 0.0 0.0 0.0 0.0
1.344 0.3109665513038635 0.02690412849187851 -0.0005667190998792648 0.0012357290834188461 0.0 0.0 0.0 0.0
1.345 0.31335872411727905 0.019060702994465828 -0.0005545876920223236 0.0014710500836372375 0.0 0.0 0.0 0.0
1.346 0.31544074416160583 0.008039826527237892 -0.0004741428419947624 0.001481865532696247 0.0 0.0 0.0 0.0
1.347 0.3172880709171295 -0.0011200271546840668 -0.00021771062165498734 0.0016034329310059547 0.0 0.0 0.0 0.0
1.348 0.32066866755485535 -0.012378246523439884 -0.00010529812425374985 0.0015598274767398834 0.0 0.0 0.0 0.0
1.349 0.3200906813144684 -0.02014133706688881 -0.0001446520909667015 0.0016177073121070862 0.0 0.0 0.0 0.0
1.35 0.32239747047424316 -0.028707778081297874 -0.00011631939560174942 0.0017568888142704964 0.0 0.0 0.0 0.0
1.351 0.3237364888191223 -0.039655040949583054 6.42240047454834e-06 0.001739460974931717 0.0 0.0 0.0 0.0
1.352 0.3228704035282135 -0.048930343240499496 0.0001646270975470543 0.0017358353361487389 0.0 0.0 0.0 0.0
1.353 0.3235296308994293 -0.05883181467652321 8.992571383714676e-05 0.0017576003447175026 0.0 0.0 0.0 0.0
1.354 0.3244422376155853 -0.06565865129232407 0.0004587676376104355 0.0018321508541703224 0.0 0.0 0.0 0.0
1.355 0.3243013322353363 -0.0755094438791275 0.00044252723455429077 0.0019352184608578682 0.0 0.0 0.0 0.0
1.356 0.3243836462497711 -0.0822419673204422 0.0005425270646810532 0.0017342902719974518 0.0 0.0 0.0 0.0
1.357 0.323486864566803 -0.09438841789960861 0.0005935775116086006 0.0018164906650781631 0.0 0.0 0.0 0.0
1.358 0.32450026273727417 -0.0981479212641716 0.0007639378309249878 0.0018188152462244034 0.0 0.0 0.0 0.0
1.359 0.32455241680145264 -0.11010932922363281 0.001023777760565281 0.001704561524093151 0.0 0.0 0.0 0.0
1.36 0.32358402013778687 -0.1154371127486229 0.0010537542402744293 0.0016025416553020477 0.0 0.0 0.0 0.0
1.361 0.3240700662136078 -0.12463052570819855 0.0011678040027618408 0.001741289161145687 0.0 0.0 0.0 0.0
1.362 0.3217332065105438 -0.1318807601928711 0.001261555589735508 0.0016658073291182518 0.0 0.0 0.0 0.0
1.363 0.3233865201473236 -0.13873139023780823 0.001334882341325283 0.0014301268383860588 0.0 0.0 0.0 0.0
1.364 0.32410043478012085 -0.15053686499595642 0.0015132836997509003 0.0013998150825500488 0.0 0.0 0.0 0.0
1.365 0.3259713649749756 -0.1575174480676651 0.0016573164612054825 0.0012958981096744537 0.0 0.0 0.0 0.0
1.366 0.32622215151786804 -0.1680038571357727 0.0018022321164608002 0.0013584159314632416 0.0 0.0 0.0 0.0
1.367 0.3248550295829773 -0.17967034876346588 0.0019844723865389824 0.0011796904727816582 0.0 0.0 0.0 0.0
1.368 0.3227313756942749 -0.19097000360488892 0.0020011253654956818 0.0012928526848554611 0.0 0.0 0.0 0.0
1.369 0.32235509157180786 -0.20016790926456451 0.001919599249958992 0.0009810086339712143 0.0 0.0 0.0 0.0
1.37 0.316301167011261 -0.21701881289482117 0.002250433899462223 0.0005689365789294243 0.0 0.0 0.0 0.0
1.371 0.31534576416015625 -0.22200453281402588 0.002249831333756447 0.0005467366427183151 0.0 0.0 0.0 0.0
1.372 0.31093260645866394 -0.23346853256225586 0.0022814981639385223 0.0005493005737662315 0.0 0.0 0.0 0.0
1.373 0.30592286586761475 -0.2442440688610077 0.0023085959255695343 0.0005469778552651405 0.0 0.0 0.0 0.0
1.374 0.30044251680374146 -0.2564985156059265 0.0023751389235258102 0.0002199886366724968 0.0 0.0 0.0 0.0
1.375 0.2977266013622284 -0.2630457282066345 0.002476573921740055 8.056964725255966e-05 0.0 0.0 0.0 0.0
1.376 0.2905295193195343 -0.2736539840698242 0.0024586720392107964 -0.0001285020262002945 0.0 0.0 0.0 0.0
1.377 0.28154823184013367 -0.28419047594070435 0.0024345042183995247 -9.440816938877106e-05 0.0 0.0 0.0 0.0
1.378 0.2784329354763031 -0.2911777198314667 0.002528334967792034 -0.00039881840348243713 0.0 0.0 0.0 0.0
1.379 0.26774945855140686 -0.30224981904029846 0.002333269454538822 -0.0005989773198962212 0.0 0.0 0.0 0.0
1.38 0.2657144069671631 -0.3067581057548523 0.0024331416934728622 -0.0007213354110717773 0.0 0.0 0.0 0.0
1.381 0.2559135854244232 -0.31881532073020935 0.0023030126467347145 -0.0009092632681131363 0.0 0.0 0.0 0.0
1.382 0.24753452837467194 -0.3252989947795868 0.0020621875301003456 -0.001030770130455494 0.0 0.0 0.0 0.0
1.383 0.24072177708148956 -0.33594968914985657 0.0021860869601368904 -0.0011312710121273994 0.0 0.0 0.0 0.0
1.384 0.23445329070091248 -0.33839672803878784 0.0019963327795267105 -0.0014281263574957848 0.0 0.0 0.0 0.0
1.385 0.22321805357933044 -0.34927302598953247 0.0019161822274327278 -0.0013497062027454376 0.0 0.0 0.0 0.0
1.386 0.21402014791965485 -0.35462406277656555 0.0017851777374744415 -0.0014409525319933891 0.0 0.0 0.0 0.0
1.387 0.20742394030094147 -0.36100322008132935 0.0017084041610360146 -0.0017546741291880608 0.0 0.0 0.0 0.0
1.388 0.19412101805210114 -0.36861637234687805 0.0014914870262145996 -0.0018854690715670586 0.0 0.0 0.0 0.0
1.389 0.18785570561885834 -0.37236079573631287 0.001690826378762722 -0.0019244970753788948 0.0 0.0 0.0 0.0
1.39 0.17535686492919922 -0.37778785824775696 0.0013004317879676819 -0.0018732324242591858 0.0 0.0 0.0 0.0
1.391 0.1698143035173416 -0.38180825114250183 0.0012574298307299614 -0.002122347243130207 0.0 0.0 0.0 0.0
1.392 0.15772806107997894 -0.38644686341285706 0.0011199451982975006 -0.002081243321299553 0.0 0.0 0.0 0.0
1.393 0.14916831254959106 -0.3915753662586212 0.001176559366285801 -0.0021969024091959 0.0 0.0 0.0 0.0
1.394 0.13996633887290955 -0.3948887884616852 0.0007036644965410233 -0.002147170715034008 0.0 0.0 0.0 0.0
1.395 0.1307719200849533 -0.3986249268054962 0.000827413983643055 -0.0023817922919988632 0.0 0.0 0.0 0.0
1.396 0.11745819449424744 -0.40578874945640564 0.0007634861394762993 -0.0024264296516776085 0.0 0.0 0.0 0.0
1.397 0.10824881494045258 -0.4075632095336914 0.0004679933190345764 -0.0026078782975673676 0.0 0.0 0.0 0.0
1.398 0.09608430415391922 -0.4092685878276825 0.00028346478939056396 -0.0023909052833914757 0.0 0.0 0.0 0.0
1.399 0.0849834606051445 -0.4117770195007324 0.0003110179677605629 -0.0024849064648151398 0.0 0.0 0.0 0.0
1.4 0.07727272063493729 -0.41269439458847046 4.587695002555847e-05 -0.0026149116456508636 0.0 0.0 0.0 0.0
1.401 0.06330949068069458 -0.41392016410827637 -0.00019968394190073013 -0.0025485381484031677 0.0 0.0 0.0 0.0
1.402 0.05778784677386284 -0.4139632284641266 -0.00011129118502140045 -0.00250362791121006 0.0 0.0 0.0 0.0
1.403 0.044962964951992035 -0.41629019379615784 -0.00029082130640745163 -0.002453160472214222 0.0 0.0 0.0 0.0
1.404 0.03781468793749809 -0.4166613817214966 -0.0005147214978933334 -0.002614668570458889 0.0 0.0 0.0 0.0
1.405 0.023078180849552155 -0.41828662157058716 -0.0005116937682032585 -0.0024034688249230385 0.0 0.0 0.0 0.0
1.406 0.016275424510240555 -0.4157954156398773 -0.0007338421419262886 -0.002390035428106785 0.0 0.0 0.0 0.0
1.407 0.001230396330356598 -0.41724884510040283 -0.001013011671602726 -0.002367578446865082 0.0 0.0 0.0 0.0
1.408 -0.0060668932273983955 -0.4167170226573944 -0.0011389488354325294 -0.0024239281192421913 0.0 0.0 0.0 0.0
1.409 -0.018331166356801987 -0.4155917763710022 -0.0013368362560868263 -0.0022209426388144493 0.0 0.0 0.0 0.0
1.41 -0.02707798033952713 -0.41517511010169983 -0.0015292828902602196 -0.0020662499591708183 0.0 0.0 0.0 0.0
1.411 -0.035458825528621674 -0.414712131023407 -0.0014717979356646538 -0.0019330037757754326 0.0 0.0 0.0 0.0
1.412 -0.05104285478591919 -0.41234248876571655 -0.0016234749928116798 -0.0018138447776436806 0.0 0.0 0.0 0.0
1.413 -0.0557921826839447 -0.41277968883514404 -0.0016382550820708275 -0.001792251132428646 0.0 0.0 0.0 0.0
1.414 -0.07122248411178589 -0.409630686044693 -0.0018606744706630707 -0.0015925439074635506 0.0 0.0 0.0 0.0
1.415 -0.0800335481762886 -0.40644803643226624 -0.001925949938595295 -0.0014695525169372559 0.0 0.0 0.0 0.0
1.416 -0.09415905177593231 -0.40297210216522217 -0.002206524834036827 -0.0014680353924632072 0.0 0.0 0.0 0.0
1.417 -0.10035661607980728 -0.40037786960601807 -0.0020249206572771072 -0.0013827476650476456 0.0 0.0 0.0 0.0
1.418 -0.11475479602813721 -0.3958432972431183 -0.0022649215534329414 -0.001246352680027485 0.0 0.0 0.0 0.0
1.419 -0.12357854098081589 -0.39106452465057373 -0.0020949263125658035 -0.0009776009246706963 0.0 0.0 0.0 0.0
1.42 -0.13475282490253448 -0.3862711191177368 -0.0022252388298511505 -0.0008851746097207069 0.0 0.0 0.0 0.0
1.421 -0.14558060467243195 -0.37977510690689087 -0.0022125523537397385 -0.0008426429703831673 0.0 0.0 0.0 0.0
1.422 -0.15397131443023682 -0.3770405948162079 -0.0021723369136452675 -0.0007420368492603302 0.0 0.0 0.0 0.0
1.423 -0.16422131657600403 -0.368909627199173 -0.0021502990275621414 -0.0005426695570349693 0.0 0.0 0.0 0.0
1.424 -0.17307080328464508 -0.3639964759349823 -0.002370063215494156 -0.0004374636337161064 0.0 0.0 0.0 0.0
1.425 -0.18512772023677826 -0.354879766702652 -0.0024727769196033478 -0.00032358523458242416 0.0 0.0 0.0 0.0
1.426 -0.1909060776233673 -0.3502791225910187 -0.002352842129766941 -0.00019602850079536438 0.0 0.0 0.0 0.0
1.427 -0.1988140344619751 -0.34331411123275757 -0.0022203968837857246 -3.944896161556244e-05 0.0 0.0 0.0 0.0
1.428 -0.20608174800872803 -0.33538395166397095 -0.0022563617676496506 -5.179271101951599e-05 0.0 0.0 0.0 0.0
1.429 -0.2169986069202423 -0.3270163834095001 -0.0022170934826135635 0.00013363361358642578 0.0 0.0 0.0 0.0
1.43 -0.22437942028045654 -0.3179616332054138 -0.0021772049367427826 0.0002627018839120865 0.0 0.0 0.0 0.0
1.431 -0.2323724329471588 -0.31086888909339905 -0.0021749138832092285 0.00024168100208044052 0.0 0.0 0.0 0.0
1.432 -0.23673540353775024 -0.30147457122802734 -0.0021539246663451195 0.0004633888602256775 0.0 0.0 0.0 0.0
1.433 -0.2445341795682907 -0.2943984568119049 -0.002211533486843109 0.0005404716357588768 0.0 0.0 0.0 0.0
1.434 -0.25271639227867126 -0.28298717737197876 -0.0022583166137337685 0.0006556995213031769 0.0 0.0 0.0 0.0
1.435 -0.25688332319259644 -0.27687227725982666 -0.0021475525572896004 0.0007245792075991631 0.0 0.0 0.0 0.0
1.436 -0.26435428857803345 -0.2658856511116028 -0.0021605929359793663 0.0009141378104686737 0.0 0.0 0.0 0.0
1.437 -0.2678802013397217 -0.25860413908958435 -0.0019965078681707382 0.001016092486679554 0.0 0.0 0.0 0.0
1.438 -0.27621906995773315 -0.2496039867401123 -0.0019371937960386276 0.000819905661046505 0.0 0.0 0.0 0.0
1.439 -0.28012171387672424 -0.2392473667860031 -0.0019350070506334305 0.0012413542717695236 0.0 0.0 0.0 0.0
1.44 -0.28487256169319153 -0.22889980673789978 -0.001944148913025856 0.0013018883764743805 0.0 0.0 0.0 0.0
1.441 -0.2891315519809723 -0.2195667326450348 -0.0017873086035251617 0.0012136874720454216 0.0 0.0 0.0 0.0
1.442 -0.29380857944488525 -0.21042944490909576 -0.0017448291182518005 0.0014961101114749908 0.0 0.0 0.0 0.0
1.443 -0.30014941096305847 -0.19737760722637177 -0.0016525071114301682 0.0014514923095703125 0.0 0.0 0.0 0.0
1.444 -0.3006790280342102 -0.18990008533000946 -0.0014117881655693054 0.0015299571678042412 0.0 0.0 0.0 0.0
1.445 -0.3042607009410858 -0.17731919884681702 -0.0014460897073149681 0.0016388706862926483 0.0 0.0 0.0 0.0
1.446 -0.3071017265319824 -0.16837818920612335 -0.0015351828187704086 0.0017434880137443542 0.0 0.0 0.0 0.0
1.447 -0.31039780378341675 -0.15708187222480774 -0.0013906043022871017 0.001690831035375595 0.0 0.0 0.0 0.0
1.448 -0.31158819794654846 -0.14968378841876984 -0.0010924777016043663 0.0018691327422857285 0.0 0.0 0.0 0.0
1.449 -0.3169568181037903 -0.1342010647058487 -0.0011630430817604065 0.0018309950828552246 0.0 0.0 0.0 0.0
1.45 -0.3155843913555145 -0.12767921388149261 -0.0009863059967756271 0.0018472112715244293 0.0 0.0 0.0 0.0
1.451 -0.3186724781990051 -0.11428944021463394 -0.0009831087663769722 0.0020709121599793434 0.0 0.0 0.0 0.0
1.452 -0.3192516267299652 -0.1065579205751419 -0.0009710323065519333 0.002074332907795906 0.0 0.0 0.0 0.0
1.453 -0.32028844952583313 -0.0926097184419632 -0.0007798885926604271 0.0020834002643823624 0.0 0.0 0.0 0.0
1.454 -0.32025617361068726 -0.08421264588832855 -0.0007004616782069206 0.0020622899755835533 0.0 0.0 0.0 0.0
1.455 -0.3219470977783203 -0.07118239998817444 -0.0006024166941642761 0.002127833664417267 0.0 0.0 0.0 0.0
1.456 -0.32163354754447937 -0.06290405243635178 -0.0005184393376111984 0.002282056026160717 0.0 0.0 0.0 0.0
1.457 -0.321668416261673 -0.049991972744464874 -0.0004727346822619438 0.002288239076733589 0.0 0.0 0.0 0.0
1.458 -0.3211114704608917 -0.0400100015103817 -0.0003919331356883049 0.0022026533260941505 0.0 0.0 0.0 0.0
1.459 -0.3213963806629181 -0.026557069271802902 -0.00018683448433876038 0.002110123634338379 0.0 0.0 0.0 0.0
1.46 -0.31869426369667053 -0.01579640991985798 -0.00011681951582431793 0.002367098815739155 0.0 0.0 0.0 0.0
1.461 -0.31689122319221497 -0.005785029381513596 5.9164129197597504e-05 0.0024187592789530754 0.0 0.0 0.0 0.0
1.462 -0.31602317094802856 0.007011668756604195 0.00011221226304769516 0.002274591475725174 0.0 0.0 0.0 0.0
1.463 -0.3118143677711487 0.01747288927435875 0.0002702409401535988 0.0022784555330872536 0.0 0.0 0.0 0.0
1.464 -0.310241162776947 0.029178019613027573 0.0003781067207455635 0.002060522325336933 0.0 0.0 0.0 0.0
1.465 -0.30605727434158325 0.03877527639269829 0.00033972878009080887 0.002002800814807415 0.0 0.0 0.0 0.0
1.466 -0.3026833236217499 0.051393620669841766 0.0005720630288124084 0.0022916700690984726 0.0 0.0 0.0 0.0
1.467 -0.29817596077919006 0.059710223227739334 0.0007408540695905685 0.0020316969603300095 0.0 0.0 0.0 0.0
1.468 -0.2946089804172516 0.07119113951921463 0.0006515169516205788 0.001963987946510315 0.0 0.0 0.0 0.0
1.469 -0.28946593403816223 0.08146757632493973 0.0009368415921926498 0.002068568952381611 0.0 0.0 0.0 0.0
1.47 -0.2851754128932953 0.09253720939159393 0.0009263008832931519 0.0019498588517308235 0.0 0.0 0.0 0.0
1.471 -0.27968189120292664 0.10311487317085266 0.0010491898283362389 0.001822025515139103 0.0 0.0 0.0 0.0
1.472 -0.2748076617717743 0.1117362305521965 0.0011006584390997887 0.0018505183979868889 0.0 0.0 0.0 0.0
1.473 -0.2660925090312958 0.12346626818180084 0.0013310369104146957 0.0019064191728830338 0.0 0.0 0.0 0.0
1.474 -0.2623637318611145 0.1295684427022934 0.0014427630230784416 0.0017051724717020988 0.0 0.0 0.0 0.0
1.475 -0.2549251616001129 0.1413966417312622 0.0015392564237117767 0.0018068915233016014 0.0 0.0 0.0 0.0
1.476 -0.2494494467973709 0.14783544838428497 0.0015715202316641808 0.0014348691329360008 0.0 0.0 0.0 0.0
1.477 -0.2403596043586731 0.1605590283870697 0.0017261281609535217 0.0014457963407039642 0.0 0.0 0.0 0.0
1.478 -0.23367567360401154 0.16781096160411835 0.0016897562891244888 0.0013536177575588226 0.0 0.0 0.0 0.0
1.479 -0.22739019989967346 0.17750726640224457 0.001781742088496685 0.001206040382385254 0.0 0.0 0.0 0.0
1.48 -0.21773290634155273 0.18508818745613098 0.001707000657916069 0.0012632077559828758 0.0 0.0 0.0 0.0
1.481 -0.2093466967344284 0.19466331601142883 0.0017847707495093346 0.0011173207312822342 0.0 0.0 0.0 0.0
1.482 -0.20004983246326447 0.20239734649658203 0.0019918540492653847 0.0010049259290099144 0.0 0.0 0.0 0.0
1.483 -0.19273459911346436 0.2078016847372055 0.002029525116086006 0.0011232104152441025 0.0 0.0 0.0 0.0
1.484 -0.1822248250246048 0.21698248386383057 0.0020506195724010468 0.0008595166727900505 0.0 0.0 0.0 0.0
1.485 -0.17406898736953735 0.22326421737670898 0.0021361680701375008 0.0008971951901912689 0.0 0.0 0.0 0.0
1.486 -0.16279789805412292 0.2307959645986557 0.002086382359266281 0.0005710748955607414 0.0 0.0 0.0 0.0
1.487 -0.15450498461723328 0.236098513007164 0.002053000032901764 0.0007117511704564095 0.0 0.0 0.0 0.0
1.488 -0.14238202571868896 0.2430858165025711 0.00218413770198822 0.00035862997174263 0.0 0.0 0.0 0.0
1.489 -0.13237755000591278 0.24702872335910797 0.002103998325765133 0.00021182559430599213 0.0 0.0 0.0 0.0
1.49 -0.11986787617206573 0.25379812717437744 0.002206651493906975 0.00027695391327142715 0.0 0.0 0.0 0.0
1.491 -0.11267133802175522 0.2559679448604584 0.0021291468292474747 0.00021425075829029083 0.0 0.0 0.0 0.0
1.492 -0.10168781131505966 0.2620527446269989 0.002072175033390522 -6.608199328184128e-05 0.0 0.0 0.0 0.0
1.493 -0.0915997251868248 0.2653251588344574 0.0022760406136512756 -7.842294871807098e-05 0.0 0.0 0.0 0.0
1.494 -0.07995303720235825 0.27013006806373596 0.0023337258026003838 -0.00019651465117931366 0.0 0.0 0.0 0.0
1.495 -0.0687500610947609 0.273300439119339 0.002246066927909851 -0.0004694797098636627 0.0 0.0 0.0 0.0
1.496 -0.059650763869285583 0.27683770656585693 0.0021678106859326363 -0.000605480745434761 0.0 0.0 0.0 0.0
1.497 -0.045976605266332626 0.2803689241409302 0.002182088792324066 -0.0004948610439896584 0.0 0.0 0.0 0.0
1.498 -0.03933815658092499 0.284257173538208 0.00213629100471735 -0.0007794443517923355 0.0 0.0 0.0 0.0
1.499 -0.023750625550746918 0.2867443263530731 0.0021835528314113617 -0.0008026398718357086 0.0 0.0 0.0 0.0
1.5 -0.013680818490684032 0.28897184133529663 0.0019398415461182594 -0.0008478183299303055 0.0 0.0 0.0 0.0
1.501 -3.4341588616371155e-05 0.2915158271789551 0.001726267859339714 -0.0009332327172160149 0.0 0.0 0.0 0.0
1.502 0.010190951637923717 0.2928815484046936 0.002046714536845684 -0.001051977276802063 0.0 0.0 0.0 0.0
1.503 0.023974943906068802 0.2943345308303833 0.00183771550655365 -0.0011602696031332016 0.0 0.0 0.0 0.0
1.504 0.03694207966327667 0.2943902015686035 0.0018283547833561897 -0.0011808797717094421 0.0 0.0 0.0 0.0
1.505 0.04925158619880676 0.2942243814468384 0.0019858377054333687 -0.001540927216410637 0.0 0.0 0.0 0.0
1.506 0.06230587884783745 0.2928662896156311 0.001608608290553093 -0.001523713581264019 0.0 0.0 0.0 0.0
1.507 0.07151529937982559 0.2941305637359619 0.0015389807522296906 -0.0015500588342547417 0.0 0.0 0.0 0.0
1.508 0.08693554252386093 0.29085874557495117 0.0015179887413978577 -0.0015032626688480377 0.0 0.0 0.0 0.0
1.509 0.09599987417459488 0.29187560081481934 0.0013455357402563095 -0.001663370057940483 0.0 0.0 0.0 0.0
1.51 0.11161216348409653 0.2888246178627014 0.0013169953599572182 -0.0018627038225531578 0.0 0.0 0.0 0.0
1.511 0.11985255777835846 0.28771257400512695 0.001102222129702568 -0.001810489222407341 0.0 0.0 0.0 0.0
1.512 0.1400856077671051 0.2804264724254608 0.0010666903108358383 -0.001942228525876999 0.0 0.0 0.0 0.0
1.513 0.14682571589946747 0.2798751890659332 0.0008618561550974846 -0.002068125642836094 0.0 0.0 0.0 0.0
1.514 0.15894007682800293 0.27666351199150085 0.0008406313136219978 -0.0020937323570251465 0.0 0.0 0.0 0.0
1.515 0.17251676321029663 0.27188071608543396 0.0007462399080395699 -0.002174828201532364 0.0 0.0 0.0 0.0
1.516 0.18539758026599884 0.2674274742603302 0.0005428474396467209 -0.0019970815628767014 0.0 0.0 0.0 0.0
1.517 0.19674652814865112 0.2608252167701721 0.00046737585216760635 -0.0022595999762415886 0.0 0.0 0.0 0.0
1.518 0.2065057009458542 0.2567903995513916 0.00013582129031419754 -0.00219699926674366 0.0 0.0 0.0 0.0
1.519 0.21986964344978333 0.24807369709014893 0.0003652544692158699 -0.0020740069448947906 0.0 0.0 0.0 0.0
1.52 0.22793962061405182 0.2437647134065628 8.886028081178665e-05 -0.0022946689277887344 0.0 0.0 0.0 0.0
1.521 0.241635262966156 0.23385821282863617 -0.0001331903040409088 -0.0020304303616285324 0.0 0.0 0.0 0.0
1.522 0.24969373643398285 0.22784605622291565 -4.785507917404175e-05 -0.0021017910912632942 0.0 0.0 0.0 0.0
1.523 0.26081743836402893 0.21922245621681213 -0.00011457502841949463 -0.002103028818964958 0.0 0.0 0.0 0.0
1.524 0.26721087098121643 0.21185602247714996 -0.00033867545425891876 -0.002030644565820694 0.0 0.0 0.0 0.0
1.525 0.27819016575813293 0.20499257743358612 -0.0005774898454546928 -0.0019847508519887924 0.0 0.0 0.0 0.0
1.526 0.2876483201980591 0.1951175481081009 -0.0007193665951490402 -0.001981949433684349 0.0 0.0 0.0 0.0
1.527 0.29910513758659363 0.18571488559246063 -0.0006536822766065598 -0.0018310286104679108 0.0 0.0 0.0 0.0
1.528 0.30656591057777405 0.174967423081398 -0.0007050679996609688 -0.001883932389318943 0.0 0.0 0.0 0.0
1.529 0.3133853077888489 0.16680759191513062 -0.000779367983341217 -0.0018072780221700668 0.0 0.0 0.0 0.0
1.53 0.3229730427265167 0.15443538129329681 -0.0008461223915219307 -0.0015217624604701996 0.0 0.0 0.0 0.0
1.531 0.32800397276878357 0.14668846130371094 -0.0009013153612613678 -0.0014705928042531013 0.0 0.0 0.0 0.0
1.532 0.3380580246448517 0.13404059410095215 -0.001019289717078209 -0.001552598550915718 0.0 0.0 0.0 0.0
1.533 0.34258586168289185 0.12423906475305557 -0.0011219121515750885 -0.0015560109168291092 0.0 0.0 0.0 0.0
1.534 0.34868305921554565 0.11338527500629425 -0.0011675236746668816 -0.0014234073460102081 0.0 0.0 0.0 0.0
1.535 0.35370948910713196 0.10237520188093185 -0.0012896433472633362 -0.0013985037803649902 0.0 0.0 0.0 0.0
1.536 0.36168140172958374 0.08526799827814102 -0.0012069419026374817 -0.0014030495658516884 0.0 0.0 0.0 0.0
1.537 0.3634754419326782 0.0782940611243248 -0.0012081572785973549 -0.0013265972957015038 0.0 0.0 0.0 0.0
1.538 0.368959903717041 0.06923165172338486 -0.001478077843785286 -0.001165684312582016 0.0 0.0 0.0 0.0
1.539 0.372237890958786 0.05276226997375488 -0.0012448979541659355 -0.0010076351463794708 0.0 0.0 0.0 0.0
1.54 0.375855952501297 0.04422491416335106 -0.0012384606525301933 -0.0009876377880573273 0.0 0.0 0.0 0.0
1.541 0.3802729845046997 0.028805550187826157 -0.0015447959303855896 -0.0009948993101716042 0.0 0.0 0.0 0.0
1.542 0.38071417808532715 0.023383310064673424 -0.0014764964580535889 -0.0008478220552206039 0.0 0.0 0.0 0.0
1.543 0.3851502239704132 0.0041296835988759995 -0.0014875829219818115 -0.0007137153297662735 0.0 0.0 0.0 0.0
1.544 0.3854936361312866 -0.0038269422948360443 -0.0016014743596315384 -0.0007178783416748047 0.0 0.0 0.0 0.0
1.545 0.3873021602630615 -0.01623706892132759 -0.0015181219205260277 -0.0005027083680033684 0.0 0.0 0.0 0.0
1.546 0.3869633376598358 -0.028704490512609482 -0.0015485603362321854 -0.00040172599256038666 0.0 0.0 0.0 0.0
1.547 0.388682097196579 -0.04131808504462242 -0.00155593641102314 -0.00043474696576595306 0.0 0.0 0.0 0.0
1.548 0.38919591903686523 -0.049477484077215195 -0.0014630863443017006 -0.00020520202815532684 0.0 0.0 0.0 0.0
1.549 0.387722909450531 -0.06413820385932922 -0.0015536388382315636 -0.0003056377172470093 0.0 0.0 0.0 0.0
1.55 0.3884158730506897 -0.07659342885017395 -0.0013849390670657158 -7.834285497665405e-05 0.0 0.0 0.0 0.0
1.551 0.38930490612983704 -0.0864056870341301 -0.0014770189300179482 -8.019711822271347e-05 0.0 0.0 0.0 0.0
1.552 0.38509178161621094 -0.10214605927467346 -0.0016498938202857971 -5.3816474974155426e-05 0.0 0.0 0.0 0.0
1.553 0.38433387875556946 -0.11233378201723099 -0.0014934996142983437 0.00010931771248579025 0.0 0.0 0.0 0.0
1.554 0.37980324029922485 -0.12817049026489258 -0.0015736790373921394 0.0001477617770433426 0.0 0.0 0.0 0.0
1.555 0.3775390386581421 -0.13370263576507568 -0.001796226017177105 0.0001264512538909912 0.0 0.0 0.0 0.0
1.556 0.37406256794929504 -0.14778445661067963 -0.001628529280424118 0.0002653244882822037 0.0 0.0 0.0 0.0
1.557 0.3705121874809265 -0.15706457197666168 -0.0016692373901605606 0.00046133995056152344 0.0 0.0 0.0 0.0
1.558 0.36817666888237 -0.16808632016181946 -0.0015618549659848213 0.0003689909353852272 0.0 0.0 0.0 0.0
1.559 0.3617648184299469 -0.18104104697704315 -0.0012855082750320435 0.0003216629847884178 0.0 0.0 0.0 0.0
1.56 0.3552679419517517 -0.19466860592365265 -0.0013648485764861107 0.00041119102388620377 0.0 0.0 0.0 0.0
1.561 0.3520282506942749 -0.20347674190998077 -0.0012249844148755074 0.00041425134986639023 0.0 0.0 0.0 0.0
1.562 0.34904083609580994 -0.21193252503871918 -0.0013422369956970215 0.0004980610683560371 0.0 0.0 0.0 0.0
1.563 0.34004825353622437 -0.22664426267147064 -0.001359628513455391 0.0006018402054905891 0.0 0.0 0.0 0.0
1.564 0.33760979771614075 -0.23204873502254486 -0.001322505995631218 0.0006242739036679268 0.0 0.0 0.0 0.0
1.565 0.3294839859008789 -0.24455022811889648 -0.0012417035177350044 0.0007052728906273842 0.0 0.0 0.0 0.0
1.566 0.3272208571434021 -0.24925515055656433 -0.001074066385626793 0.0007254630327224731 0.0 0.0 0.0 0.0
1.567 0.31506845355033875 -0.263033926486969 -0.0009843017905950546 0.0008432967588305473 0.0 0.0 0.0 0.0
1.568 0.3094906806945801 -0.2699345648288727 -0.0011149803176522255 0.0011248430237174034 0.0 0.0 0.0 0.0
1.569 0.300795316696167 -0.2813711166381836 -0.0010139858350157738 0.0010571954771876335 0.0 0.0 0.0 0.0
1.57 0.2937502861022949 -0.29016396403312683 -0.0007779831066727638 0.0009311502799391747 0.0 0.0 0.0 0.0
1.571 0.285115122795105 -0.29733628034591675 -0.0010164463892579079 0.0010309219360351562 0.0 0.0 0.0 0.0
1.572 0.27224934101104736 -0.30674418807029724 -0.0008755987510085106 0.0010592089965939522 0.0 0.0 0.0 0.0
1.573 0.2674614489078522 -0.31422749161720276 -0.0006976453587412834 0.0011248551309108734 0.0 0.0 0.0 0.0
1.574 0.2575497329235077 -0.32154369354248047 -0.0008028680458664894 0.0014164615422487259 0.0 0.0 0.0 0.0
1.575 0.2497839331626892 -0.326238751411438 -0.0008608680218458176 0.0014081131666898727 0.0 0.0 0.0 0.0
1.576 0.2365187108516693 -0.334972620010376 -0.0006989780813455582 0.0010327370837330818 0.0 0.0 0.0 0.0
1.577 0.22871586680412292 -0.34074899554252625 -0.0008801445364952087 0.0012035435065627098 0.0 0.0 0.0 0.0
1.578 0.21557866036891937 -0.34962403774261475 -0.0005019484087824821 0.0013202410191297531 0.0 0.0 0.0 0.0
1.579 0.21174445748329163 -0.3504270315170288 -0.00045835599303245544 0.0014581028372049332 0.0 0.0 0.0 0.0
1.58 0.197426438331604 -0.35763275623321533 -0.00042345374822616577 0.0013318192213773727 0.0 0.0 0.0 0.0
1.581 0.18620412051677704 -0.36384478211402893 -0.0002519069239497185 0.0012446129694581032 0.0 0.0 0.0 0.0
1.582 0.17525656521320343 -0.3687214255332947 -0.00010539032518863678 0.001413893885910511 0.0 0.0 0.0 0.0
1.583 0.1673119217157364 -0.37024226784706116 -0.00019914377480745316 0.0013416139408946037 0.0 0.0 0.0 0.0
1.584 0.16039590537548065 -0.37828585505485535 -3.885943442583084e-05 0.0013434048742055893 0.0 0.0 0.0 0.0
1.585 0.1395823210477829 -0.3782402276992798 0.00015656091272830963 0.0011791074648499489 0.0 0.0 0.0 0.0
1.586 0.13273286819458008 -0.38020068407058716 0.00014303531497716904 0.0012012636289000511 0.0 0.0 0.0 0.0
1.587 0.11691557615995407 -0.38300421833992004 0.00012825708836317062 0.0013965442776679993 0.0 0.0 0.0 0.0
1.588 0.11048685759305954 -0.38280123472213745 2.6503577828407288e-05 0.0011361120268702507 0.0 0.0 0.0 0.0
1.589 0.09543476998806 -0.38574492931365967 0.0002484479919075966 0.0013243891298770905 0.0 0.0 0.0 0.0
1.59 0.08479128777980804 -0.38580137491226196 0.0005295015871524811 0.0013071522116661072 0.0 0.0 0.0 0.0
1.591 0.07601861655712128 -0.38581177592277527 0.0003999099135398865 0.0012037651613354683 0.0 0.0 0.0 0.0
1.592 0.06626764684915543 -0.38490399718284607 0.00028413254767656326 0.0011900197714567184 0.0 0.0 0.0 0.0
1.593 0.053404800593853 -0.3851834535598755 0.0004809210076928139 0.0012662392109632492 0.0 0.0 0.0 0.0
1.594 0.04440604895353317 -0.3846099078655243 0.0006257332861423492 0.0009557269513607025 0.0 0.0 0.0 0.0
1.595 0.03412593528628349 -0.38446924090385437 0.0006084386259317398 0.0012616952881217003 0.0 0.0 0.0 0.0
1.596 0.019158784300088882 -0.38211604952812195 0.0009168470278382301 0.0010344916954636574 0.0 0.0 0.0 0.0
1.597 0.013682114891707897 -0.3820805549621582 0.0007838550955057144 0.0009400565177202225 0.0 0.0 0.0 0.0
1.598 0.0037203077226877213 -0.37887096405029297 0.0006654039025306702 0.0009913761168718338 0.0 0.0 0.0 0.0
1.599 -0.0033950675278902054 -0.3788563907146454 0.0008404608815908432 0.0008475789800286293 0.0 0.0 0.0 0.0
1.6 -0.016495205461978912 -0.37516558170318604 0.0007642367854714394 0.0007278816774487495 0.0 0.0 0.0 0.0
1.601 -0.024465078487992287 -0.37449631094932556 0.0010144803673028946 0.0007680254057049751 0.0 0.0 0.0 0.0
1.602 -0.03763749450445175 -0.37241479754447937 0.0010795723646879196 0.000901893712580204 0.0 0.0 0.0 0.0
1.603 -0.04282139614224434 -0.3692612946033478 0.000955464318394661 0.0008345600217580795 0.0 0.0 0.0 0.0
1.604 -0.05722930282354355 -0.36561405658721924 0.0010098973289132118 0.000599999912083149 0.0 0.0 0.0 0.0
1.605 -0.06448294222354889 -0.3616112172603607 0.0009946571663022041 0.0007948083803057671 0.0 0.0 0.0 0.0
1.606 -0.07462818175554276 -0.35858312249183655 0.0009450800716876984 0.00035401899367570877 0.0 0.0 0.0 0.0
1.607 -0.08651601523160934 -0.3536970615386963 0.0011036526411771774 0.0006430130451917648 0.0 0.0 0.0 0.0
1.608 -0.09299605339765549 -0.35238829255104065 0.0009034816175699234 0.00032886769622564316 0.0 0.0 0.0 0.0
1.609 -0.10288736969232559 -0.3453901410102844 0.0011371728032827377 0.0004267152398824692 0.0 0.0 0.0 0.0
1.61 -0.11062884330749512 -0.3409998118877411 0.0013173064216971397 0.0004212167114019394 0.0 0.0 0.0 0.0
1.611 -0.12344259768724442 -0.3337606191635132 0.0010041017085313797 0.0003189258277416229 0.0 0.0 0.0 0.0
1.612 -0.1269346922636032 -0.330791175365448 0.0009514158591628075 0.0001888275146484375 0.0 0.0 0.0 0.0
1.613 -0.1389731466770172 -0.3266580402851105 0.0012014387175440788 -3.1115487217903137e-06 0.0 0.0 0.0 0.0
1.614 -0.14725027978420258 -0.31899890303611755 0.0010353457182645798 6.604380905628204e-05 0.0 0.0 0.0 0.0
1.615 -0.15351013839244843 -0.3135093152523041 0.0012245560064911842 -6.378442049026489e-05 0.0 0.0 0.0 0.0
1.616 -0.16082684695720673 -0.308743953704834 0.0011410359293222427 -6.31408765912056e-05 0.0 0.0 0.0 0.0
1.617 -0.17008019983768463 -0.30016225576400757 0.0010948320850729942 -0.00020095426589250565 0.0 0.0 0.0 0.0
1.618 -0.17389130592346191 -0.2951127588748932 0.0010212836787104607 -0.00010895635932683945 0.0 0.0 0.0 0.0
1.619 -0.1834985911846161 -0.2883017063140869 0.0011765696108341217 -0.00020594708621501923 0.0 0.0 0.0 0.0
1.62 -0.19157277047634125 -0.28093793988227844 0.0008854605257511139 -0.00038078799843788147 0.0 0.0 0.0 0.0
1.621 -0.19849678874015808 -0.2726147472858429 0.0008698264136910439 -0.0004036063328385353 0.0 0.0 0.0 0.0
1.622 -0.2069023847579956 -0.2634333372116089 0.0009185243397951126 -0.0004340624436736107 0.0 0.0 0.0 0.0
1.623 -0.2127314656972885 -0.25605592131614685 0.0007352437824010849 -0.00044227298349142075 0.0 0.0 0.0 0.0
1.624 -0.21827347576618195 -0.24904166162014008 0.0010485099628567696 -0.00048122741281986237 0.0 0.0 0.0 0.0
1.625 -0.22190210223197937 -0.24243173003196716 0.0009114183485507965 -0.0005118222907185555 0.0 0.0 0.0 0.0
1.626 -0.2298067808151245 -0.23032379150390625 0.0008939141407608986 -0.00038658641278743744 0.0 0.0 0.0 0.0
1.627 -0.232044979929924 -0.22576090693473816 0.0009135697036981583 -0.000529017299413681 0.0 0.0 0.0 0.0
1.628 -0.23995433747768402 -0.21514341235160828 0.0008897427469491959 -0.0004969770088791847 0.0 0.0 0.0 0.0
1.629 -0.24299271404743195 -0.20840206742286682 0.000787658616900444 -0.0006045661866664886 0.0 0.0 0.0 0.0
1.63 -0.24887219071388245 -0.2000478208065033 0.0008277697488665581 -0.0006491122767329216 0.0 0.0 0.0 0.0
1.631 -0.25289401412010193 -0.1888546645641327 0.0006982730701565742 -0.0006002960726618767 0.0 0.0 0.0 0.0
1.632 -0.25296270847320557 -0.18469908833503723 0.0008189650252461433 -0.0006205011159181595 0.0 0.0 0.0 0.0
1.633 -0.26090407371520996 -0.17165498435497284 0.0008812453597784042 -0.00079342070966959 0.0 0.0 0.0 0.0
1.634 -0.2622159719467163 -0.16495195031166077 0.0008476674556732178 -0.0007540285587310791 0.0 0.0 0.0 0.0
1.635 -0.26776665449142456 -0.1538161039352417 0.0008950838819146156 -0.0007964987307786942 0.0 0.0 0.0 0.0
1.636 -0.2678987383842468 -0.14642895758152008 0.0008214181289076805 -0.0007919874042272568 0.0 0.0 0.0 0.0
1.637 -0.2739333510398865 -0.13400951027870178 0.0007459484040737152 -0.000919991172850132 0.0 0.0 0.0 0.0
1.638 -0.2753855884075165 -0.12404481321573257 0.0008439375087618828 -0.0008834851905703545 0.0 0.0 0.0 0.0
1.639 -0.27661004662513733 -0.11630645394325256 0.0006050122901797295 -0.000994417816400528 0.0 0.0 0.0 0.0
1.64 -0.2777504324913025 -0.1080172210931778 0.0006817393004894257 -0.0010286970064043999 0.0 0.0 0.0 0.0
1.641 -0.2809910774230957 -0.09846746176481247 0.0006203604862093925 -0.0010870425030589104 0.0 0.0 0.0 0.0
1.642 -0.2809571623802185 -0.08867824077606201 0.00044002197682857513 -0.0010968949645757675 0.0 0.0 0.0 0.0
1.643 -0.283076673746109 -0.07844381779432297 0.0003906628116965294 -0.0011875005438923836 0.0 0.0 0.0 0.0
1.644 -0.28152504563331604 -0.07479865849018097 0.0003421502187848091 -0.0010284306481480598 0.0 0.0 0.0 0.0
1.645 -0.2839912176132202 -0.059405941516160965 0.0001520765945315361 -0.001207791268825531 0.0 0.0 0.0 0.0
1.646 -0.28438425064086914 -0.049408528953790665 7.119402289390564e-05 -0.0010610045865178108 0.0 0.0 0.0 0.0
1.647 -0.28465068340301514 -0.04541449993848801 3.8110651075839996e-05 -0.0011724578216671944 0.0 0.0 0.0 0.0
1.648 -0.2851434648036957 -0.031069057062268257 0.00017646420747041702 -0.001177484169602394 0.0 0.0 0.0 0.0
1.649 -0.28427985310554504 -0.022756822407245636 7.51148909330368e-05 -0.0010786950588226318 0.0 0.0 0.0 0.0
1.65 -0.2840237617492676 -0.008203377947211266 2.8969720005989075e-05 -0.0011555049568414688 0.0 0.0 0.0 0.0
1.651 -0.2838837802410126 -0.002390395849943161 -0.0001414930447936058 -0.001403997652232647 0.0 0.0 0.0 0.0
1.652 -0.28318965435028076 0.007374468259513378 -0.0001555783674120903 -0.0012807995080947876 0.0 0.0 0.0 0.0
1.653 -0.27905625104904175 0.017538122832775116 -0.00030162371695041656 -0.001288711093366146 0.0 0.0 0.0 0.0
1.654 -0.2792098820209503 0.02583610638976097 -0.0003292784094810486 -0.0013092225417494774 0.0 0.0 0.0 0.0
1.655 -0.27646657824516296 0.03518527001142502 -0.00023697968572378159 -0.0012323390692472458 0.0 0.0 0.0 0.0
1.656 -0.2751806974411011 0.042787808924913406 -0.0003156140446662903 -0.0014269407838582993 0.0 0.0 0.0 0.0
1.657 -0.27221614122390747 0.05470946058630943 -0.0004996098577976227 -0.001227973960340023 0.0 0.0 0.0 0.0
1.658 -0.2694110572338104 0.0602787546813488 -0.0004659639671444893 -0.0012957807630300522 0.0 0.0 0.0 0.0
1.659 -0.2649322748184204 0.0734032616019249 -0.000524488277733326 -0.0010932143777608871 0.0 0.0 0.0 0.0
1.66 -0.2636229991912842 0.07859089970588684 -0.0006170859560370445 -0.0010732635855674744 0.0 0.0 0.0 0.0
1.661 -0.2599168121814728 0.08795415610074997 -0.0006629396229982376 -0.0010895580053329468 0.0 0.0 0.0 0.0
1.662 -0.2564336955547333 0.0976596400141716 -0.0006623249500989914 -0.0011580456048250198 0.0 0.0 0.0 0.0
1.663 -0.25175872445106506 0.10731855779886246 -0.0009423578158020973 -0.000985671766102314 0.0 0.0 0.0 0.0
1.664 -0.24764631688594818 0.11516232043504715 -0.0009927134960889816 -0.0008240314200520515 0.0 0.0 0.0 0.0
1.665 -0.24473324418067932 0.12154680490493774 -0.0009932918474078178 -0.0008434150367975235 0.0 0.0 0.0 0.0
1.666 -0.23996050655841827 0.13247816264629364 -0.0010134456679224968 -0.0009852135553956032 0.0 0.0 0.0 0.0
1.667 -0.23541343212127686 0.13968336582183838 -0.0011591315269470215 -0.0008332422003149986 0.0 0.0 0.0 0.0
1.668 -0.2306569516658783 0.14874877035617828 -0.0011698147282004356 -0.0008207978680729866 0.0 0.0 0.0 0.0
1.669 -0.22500623762607574 0.15682187676429749 -0.0014111511409282684 -0.0008129766210913658 0.0 0.0 0.0 0.0
1.67 -0.21835987269878387 0.1654672473669052 -0.0013049459084868431 -0.0007247216999530792 0.0 0.0 0.0 0.0
1.671 -0.21513745188713074 0.16892609000205994 -0.001389089971780777 -0.000685589388012886 0.0 0.0 0.0 0.0
1.672 -0.20549507439136505 0.179747074842453 -0.0014718510210514069 -0.0005750032141804695 0.0 0.0 0.0 0.0
1.673 -0.20043909549713135 0.1848524659872055 -0.001291121356189251 -0.0005476903170347214 0.0 0.0 0.0 0.0
1.674 -0.19194059073925018 0.19469495117664337 -0.0014356281608343124 -0.00033207330852746964 0.0 0.0 0.0 0.0
1.675 -0.18631047010421753 0.1993183046579361 -0.0014101183041930199 -0.0003824438899755478 0.0 0.0 0.0 0.0
1.676 -0.1799108386039734 0.2061106562614441 -0.0013005416840314865 -0.0002917833626270294 0.0 0.0 0.0 0.0
1.677 -0.1735972762107849 0.21243762969970703 -0.0012617353349924088 -0.00017470680177211761 0.0 0.0 0.0 0.0
1.678 -0.16745083034038544 0.21728605031967163 -0.0014487523585557938 -4.749558866024017e-05 0.0 0.0 0.0 0.0
1.679 -0.1569727212190628 0.226143017411232 -0.0015340019017457962 5.751848220825195e-05 0.0 0.0 0.0 0.0
1.68 -0.14933665096759796 0.2304057478904724 -0.00138133205473423 -0.0001012822613120079 0.0 0.0 0.0 0.0
1.681 -0.14353083074092865 0.23815537989139557 -0.0016266647726297379 2.4361535906791687e-05 0.0 0.0 0.0 0.0
1.682 -0.1375025510787964 0.24242395162582397 -0.0015607569366693497 0.00011548865586519241 0.0 0.0 0.0 0.0
1.683 -0.1302877515554428 0.2489597499370575 -0.00142684206366539 0.0002672625705599785 0.0 0.0 0.0 0.0
1.684 -0.12214392423629761 0.2530032992362976 -0.0013416614383459091 0.00038972310721874237 0.0 0.0 0.0 0.0
1.685 -0.11048605293035507 0.26122450828552246 -0.0013267528265714645 0.0003559347242116928 0.0 0.0 0.0 0.0
1.686 -0.1067020371556282 0.26295551657676697 -0.0012573963031172752 0.00036883167922496796 0.0 0.0 0.0 0.0
1.687 -0.09435230493545532 0.2699945867061615 -0.0013536596670746803 0.00044255703687667847 0.0 0.0 0.0 0.0
1.688 -0.08519114553928375 0.27388086915016174 -0.0013210084289312363 0.0006041601300239563 0.0 0.0 0.0 0.0
1.689 -0.07630597800016403 0.27683132886886597 -0.0011285478249192238 0.0007433118298649788 0.0 0.0 0.0 0.0
1.69 -0.06629058718681335 0.28067201375961304 -0.001310541294515133 0.0008092941716313362 0.0 0.0 0.0 0.0
1.691 -0.059275850653648376 0.2859439253807068 -0.0012345407158136368 0.0006502373144030571 0.0 0.0 0.0 0.0
1.692 -0.04525819420814514 0.2875821590423584 -0.0010477621108293533 0.0008709058165550232 0.0 0.0 0.0 0.0
1.693 -0.039724983274936676 0.29097360372543335 -0.0008841333910822868 0.0008964361622929573 0.0 0.0 0.0 0.0
1.694 -0.028034757822752 0.2938087284564972 -0.0010735271498560905 0.0007435614243149757 0.0 0.0 0.0 0.0
1.695 -0.02339659444987774 0.2962363660335541 -0.001002325676381588 0.000970977358520031 0.0 0.0 0.0 0.0
1.696 -0.004584587179124355 0.29838845133781433 -0.0009164037182927132 0.0008964454755187035 0.0 0.0 0.0 0.0
1.697 -0.0006197961047291756 0.30071765184402466 -0.0009303763508796692 0.0010834718123078346 0.0 0.0 0.0 0.0
1.698 0.009651043452322483 0.3020050525665283 -0.0008012987673282623 0.0010576965287327766 0.0 0.0 0.0 0.0
1.699 0.019686484709382057 0.3030603528022766 -0.0007249303162097931 0.001152711920440197 0.0 0.0 0.0 0.0
1.7 0.031339455395936966 0.30577918887138367 -0.0007324395701289177 0.0011894302442669868 0.0 0.0 0.0 0.0
1.701 0.04202617332339287 0.30704015493392944 -0.0009140884503722191 0.0011922931298613548 0.0 0.0 0.0 0.0
1.702 0.05122753977775574 0.30825451016426086 -0.0007233032956719398 0.0011545829474925995 0.0 0.0 0.0 0.0
1.703 0.06436614692211151 0.3064466416835785 -0.0006827972829341888 0.0013469448313117027 0.0 0.0 0.0 0.0
1.704 0.07463555783033371 0.3050473928451538 -0.00055695790797472 0.0010368190705776215 0.0 0.0 0.0 0.0
1.705 0.08762743324041367 0.305675745010376 -0.0005976734682917595 0.0013044094666838646 0.0 0.0 0.0 0.0
1.706 0.09426283091306686 0.30456018447875977 -0.0006093988195061684 0.0012607378885149956 0.0 0.0 0.0 0.0
1.707 0.11013378947973251 0.3021426796913147 -0.0003684358671307564 0.0012270249426364899 0.0 0.0 0.0 0.0
1.708 0.11793024837970734 0.30179455876350403 -0.00030389800667762756 0.0011803572997450829 0.0 0.0 0.0 0.0
1.709 0.13098721206188202 0.29972827434539795 -0.000290662981569767 0.0014183586463332176 0.0 0.0 0.0 0.0
1.71 0.14199770987033844 0.29477766156196594 -0.0001867813989520073 0.0011027706786990166 0.0 0.0 0.0 0.0
1.711 0.15167279541492462 0.29358911514282227 -0.0001850668340921402 0.0012927409261465073 0.0 0.0 0.0 0.0
1.712 0.16282857954502106 0.28961560130119324 -0.00014171842485666275 0.0011817198246717453 0.0 0.0 0.0 0.0
1.713 0.17259414494037628 0.2874835431575775 -0.0002236897125840187 0.0013972977176308632 0.0 0.0 0.0 0.0
1.714 0.1858314722776413 0.280451238155365 2.1161511540412903e-05 0.001449444331228733 0.0 0.0 0.0 0.0
1.715 0.19423434138298035 0.2764880061149597 2.3805536329746246e-05 0.0011795349419116974 0.0 0.0 0.0 0.0
1.716 0.20643441379070282 0.26723599433898926 0.00014949683099985123 0.0014667809009552002 0.0 0.0 0.0 0.0
1.717 0.21520134806632996 0.2640148997306824 2.417527139186859e-05 0.0013632113113999367 0.0 0.0 0.0 0.0
1.718 0.2274523228406906 0.2561133801937103 0.00017854012548923492 0.0014890702441334724 0.0 0.0 0.0 0.0
1.719 0.23531225323677063 0.24958652257919312 0.00025922898203134537 0.0014149341732263565 0.0 0.0 0.0 0.0
1.72 0.24372413754463196 0.24310500919818878 0.00032778456807136536 0.0015443824231624603 0.0 0.0 0.0 0.0
1.721 0.2509365677833557 0.23574213683605194 0.0002718660980463028 0.0014067543670535088 0.0 0.0 0.0 0.0
1.722 0.2608301639556885 0.22637559473514557 0.0004686350002884865 0.0014218874275684357 0.0 0.0 0.0 0.0
1.723 0.2668299674987793 0.21977005898952484 0.0004918985068798065 0.0012306831777095795 0.0 0.0 0.0 0.0
1.724 0.27544105052948 0.21166056394577026 0.0005685565993189812 0.0011687139049172401 0.0 0.0 0.0 0.0
1.725 0.28272563219070435 0.20260246098041534 0.000555417500436306 0.0015101898461580276 0.0 0.0 0.0 0.0
1.726 0.28890156745910645 0.1957000195980072 0.0008695563301444054 0.0013249525800347328 0.0 0.0 0.0 0.0
1.727 0.29698243737220764 0.18368437886238098 0.0006872881203889847 0.001094173640012741 0.0 0.0 0.0 0.0
1.728 0.30166923999786377 0.17941223084926605 0.000800006091594696 0.0010611247271299362 0.0 0.0 0.0 0.0
1.729 0.3103863000869751 0.16447003185749054 0.0008542248979210854 0.0011487267911434174 0.0 0.0 0.0 0.0
1.73 0.313905268907547 0.15811271965503693 0.0006501581519842148 0.0010586632415652275 0.0 0.0 0.0 0.0
1.731 0.3197466731071472 0.14880256354808807 0.0009304899722337723 0.001039012335240841 0.0 0.0 0.0 0.0
1.732 0.3241907060146332 0.13865970075130463 0.0008697537705302238 0.0011606691405177116 0.0 0.0 0.0 0.0
1.733 0.3306538760662079 0.12515883147716522 0.0011212052777409554 0.0011153565719723701 0.0 0.0 0.0 0.0
1.734 0.33355438709259033 0.11391814798116684 0.0009782146662473679 0.00118984654545784 0.0 0.0 0.0 0.0
1.735 0.33681240677833557 0.10664337873458862 0.0010600602254271507 0.0009428896009922028 0.0 0.0 0.0 0.0
1.736 0.33929523825645447 0.09694274514913559 0.0012208102270960808 0.0007580826058983803 0.0 0.0 0.0 0.0
1.737 0.3430745303630829 0.08733198046684265 0.0012652948498725891 0.000662386417388916 0.0 0.0 0.0 0.0
1.738 0.34599584341049194 0.07418272644281387 0.0013387557119131088 0.0006194822490215302 0.0 0.0 0.0 0.0
1.739 0.3479419946670532 0.06734932959079742 0.001258636824786663 0.0005717165768146515 0.0 0.0 0.0 0.0
1.74 0.35128647089004517 0.04861731454730034 0.0012334557250142097 0.0006910199299454689 0.0 0.0 0.0 0.0
1.741 0.35183897614479065 0.04545607045292854 0.0012529296800494194 0.0007029296830296516 0.0 0.0 0.0 0.0
1.742 0.35351282358169556 0.03381282836198807 0.0014731651172041893 0.0003574378788471222 0.0 0.0 0.0 0.0
1.743 0.353190541267395 0.024961674585938454 0.0014307750388979912 0.00036614108830690384 0.0 0.0 0.0 0.0
1.744 0.35609111189842224 0.012629206292331219 0.0013201730325818062 0.0003959396854043007 0.0 0.0 0.0 0.0
1.745 0.3552020788192749 0.00033893994987010956 0.0015704724937677383 0.00036567822098731995 0.0 0.0 0.0 0.0
1.746 0.3564497232437134 -0.011735083535313606 0.0016275690868496895 0.00017151981592178345 0.0 0.0 0.0 0.0
1.747 0.3551104962825775 -0.0214814692735672 0.001436583697795868 0.00011269282549619675 0.0 0.0 0.0 0.0
1.748 0.3542307913303375 -0.03081345185637474 0.0013614315539598465 -2.2691674530506134e-05 0.0 0.0 0.0 0.0
1.749 0.35251402854919434 -0.045953791588544846 0.0016534514725208282 0.00024875253438949585 0.0 0.0 0.0 0.0
1.75 0.3504161834716797 -0.05186982452869415 0.0014021992683410645 1.949165016412735e-05 0.0 0.0 0.0 0.0
1.751 0.34921029210090637 -0.06547365337610245 0.0016162935644388199 -0.00011870171874761581 0.0 0.0 0.0 0.0
1.752 0.3431600332260132 -0.07454686611890793 0.0014072591438889503 -9.17334109544754e-05 0.0 0.0 0.0 0.0
1.753 0.34421637654304504 -0.0856005847454071 0.0015680575743317604 -0.00011060107499361038 0.0 0.0 0.0 0.0
1.754 0.3401118814945221 -0.0954708606004715 0.0014952821657061577 -0.00025707948952913284 0.0 0.0 0.0 0.0
1.755 0.33706769347190857 -0.10540775209665298 0.0016063805669546127 -0.0003172801807522774 0.0 0.0 0.0 0.0
1.756 0.3303981423377991 -0.11650970578193665 0.001544754020869732 -0.0004798881709575653 0.0 0.0 0.0 0.0
1.757 0.32689523696899414 -0.12530186772346497 0.001525544561445713 -0.00029397476464509964 0.0 0.0 0.0 0.0
1.758 0.3189053535461426 -0.13898949325084686 0.0013769594952464104 -0.0005704378709197044 0.0 0.0 0.0 0.0
1.759 0.31599193811416626 -0.14462842047214508 0.0015465617179870605 -0.000750943087041378 0.0 0.0 0.0 0.0
1.76 0.3083856403827667 -0.15726184844970703 0.0014536632224917412 -0.0008309921249747276 0.0 0.0 0.0 0.0
1.761 0.30501577258110046 -0.16251324117183685 0.0014665601775050163 -0.0007383972406387329 0.0 0.0 0.0 0.0
1.762 0.2964673936367035 -0.17440876364707947 0.0015588654205203056 -0.0009983237832784653 0.0 0.0 0.0 0.0
1.763 0.2906596064567566 -0.179734006524086 0.0013727890327572823 -0.0008771698921918869 0.0 0.0 0.0 0.0
1.764 0.28329938650131226 -0.19059745967388153 0.001353657804429531 -0.0011303173378109932 0.0 0.0 0.0 0.0
1.765 0.27769461274147034 -0.19482110440731049 0.0012994976714253426 -0.0010174158960580826 0.0 0.0 0.0 0.0
1.766 0.2697644829750061 -0.20401960611343384 0.00113692507147789 -0.0013206377625465393 0.0 0.0 0.0 0.0
1.767 0.2625371515750885 -0.21222886443138123 0.0012539522722363472 -0.0014103781431913376 0.0 0.0 0.0 0.0
1.768 0.2538762390613556 -0.21841312944889069 0.001154220663011074 -0.0014870986342430115 0.0 0.0 0.0 0.0
1.769 0.2448829710483551 -0.22460845112800598 0.000937395729124546 -0.0013633454218506813 0.0 0.0 0.0 0.0
1.77 0.24002768099308014 -0.23206521570682526 0.000952480360865593 -0.0012514488771557808 0.0 0.0 0.0 0.0
1.771 0.22899183630943298 -0.23635435104370117 0.0008413800969719887 -0.0014855191111564636 0.0 0.0 0.0 0.0
1.772 0.2215706706047058 -0.24321173131465912 0.000905393622815609 -0.0016881627961993217 0.0 0.0 0.0 0.0
1.773 0.2095414102077484 -0.2502138316631317 0.0006572753190994263 -0.001495848409831524 0.0 0.0 0.0 0.0
1.774 0.20361405611038208 -0.2523096799850464 0.0007097255438566208 -0.0015492988750338554 0.0 0.0 0.0 0.0
1.775 0.19314414262771606 -0.2619665265083313 0.000563434325158596 -0.001601753756403923 0.0 0.0 0.0 0.0
1.776 0.18839478492736816 -0.26046618819236755 0.0003806017339229584 -0.0017323382198810577 0.0 0.0 0.0 0.0
1.777 0.17438066005706787 -0.26782485842704773 0.0004086419939994812 -0.0016934173181653023 0.0 0.0 0.0 0.0
1.778 0.16554532945156097 -0.27126792073249817 0.0002446994185447693 -0.0016630105674266815 0.0 0.0 0.0 0.0
1.779 0.15831884741783142 -0.27645495533943176 0.0002953093498945236 -0.0015175091102719307 0.0 0.0 0.0 0.0
1.78 0.14577898383140564 -0.2781049907207489 -8.28225165605545e-06 -0.0017295926809310913 0.0 0.0 0.0 0.0
1.781 0.13598112761974335 -0.2815312147140503 -4.331022500991821e-05 -0.001757679507136345 0.0 0.0 0.0 0.0
1.782 0.12849161028862 -0.2848144471645355 -7.150229066610336e-05 -0.0019683102145791054 0.0 0.0 0.0 0.0
1.783 0.11382226645946503 -0.28815945982933044 -8.10893252491951e-05 -0.0017522266134619713 0.0 0.0 0.0 0.0
1.784 0.10514731705188751 -0.29075637459754944 -0.0002421075478196144 -0.0018698927015066147 0.0 0.0 0.0 0.0
1.785 0.09666571766138077 -0.29053282737731934 -0.0003294730558991432 -0.001596204936504364 0.0 0.0 0.0 0.0
1.786 0.08395345509052277 -0.29312583804130554 -0.00030333269387483597 -0.0016282396391034126 0.0 0.0 0.0 0.0
1.787 0.0732511430978775 -0.2930588126182556 -0.0005037784576416016 -0.0015676412731409073 0.0 0.0 0.0 0.0
1.788 0.06757384538650513 -0.29300975799560547 -0.0007588062435388565 -0.001536959782242775 0.0 0.0 0.0 0.0
1.789 0.052457913756370544 -0.29186439514160156 -0.0006328737363219261 -0.001438327133655548 0.0 0.0 0.0 0.0
1.79 0.04082122817635536 -0.2919275164604187 -0.0008031865581870079 -0.0014640158042311668 0.0 0.0 0.0 0.0
1.791 0.030213581398129463 -0.2899062931537628 -0.0007832515984773636 -0.001466953195631504 0.0 0.0 0.0 0.0
1.792 0.021569224074482918 -0.2895098924636841 -0.0007162746042013168 -0.0014734361320734024 0.0 0.0 0.0 0.0
1.793 0.008309023454785347 -0.2871592044830322 -0.0009289802983403206 -0.0013161106035113335 0.0 0.0 0.0 0.0
1.794 0.0014723977074027061 -0.2857952415943146 -0.00086955726146698 -0.0013659978285431862 0.0 0.0 0.0 0.0
1.795 -0.01070831436663866 -0.28376662731170654 -0.0010218536481261253 -0.0013328874483704567 0.0 0.0 0.0 0.0
1.796 -0.016431819647550583 -0.28086957335472107 -0.0010581975802779198 -0.0011581610888242722 0.0 0.0 0.0 0.0
1.797 -0.030718481168150902 -0.2774007022380829 -0.0011644614860415459 -0.0012939730659127235 0.0 0.0 0.0 0.0
1.798 -0.03764018788933754 -0.2734143137931824 -0.001143803820014 -0.0012232018634676933 0.0 0.0 0.0 0.0
1.799 -0.04761890321969986 -0.2692897915840149 -0.0013033533468842506 -0.0011530881747603416 0.0 0.0 0.0 0.0
1.8 -0.05384086072444916 -0.2632834315299988 -0.0012601464986801147 -0.0011301198974251747 0.0 0.0 0.0 0.0
1.801 -0.06564513593912125 -0.2620432674884796 -0.001193491742014885 -0.0010416451841592789 0.0 0.0 0.0 0.0
1.802 -0.07469561696052551 -0.2563774585723877 -0.0013508200645446777 -0.0007796986028552055 0.0 0.0 0.0 0.0
1.803 -0.0810043141245842 -0.25396743416786194 -0.0013928450644016266 -0.000989527441561222 0.0 0.0 0.0 0.0
1.804 -0.0914142057299614 -0.24738426506519318 -0.0014773895964026451 -0.0009046932682394981 0.0 0.0 0.0 0.0
1.805 -0.09688426554203033 -0.24454838037490845 -0.0014151660725474358 -0.0009135277941823006 0.0 0.0 0.0 0.0
1.806 -0.10811343789100647 -0.23575453460216522 -0.0014834990724921227 -0.00042822305113077164 0.0 0.0 0.0 0.0
1.807 -0.11410322785377502 -0.23299540579319 -0.0014283955097198486 -0.0006974134594202042 0.0 0.0 0.0 0.0
1.808 -0.12052477896213531 -0.22612719237804413 -0.00133415125310421 -0.00048193614929914474 0.0 0.0 0.0 0.0
1.809 -0.12960177659988403 -0.22141192853450775 -0.0014663906767964363 -0.00043200794607400894 0.0 0.0 0.0 0.0
1.81 -0.13628923892974854 -0.21491201221942902 -0.0014428244903683662 -0.000380554236471653 0.0 0.0 0.0 0.0
1.811 -0.14274351298809052 -0.2092687487602234 -0.0015252744778990746 -0.00039874017238616943 0.0 0.0 0.0 0.0
1.812 -0.15091072022914886 -0.20324261486530304 -0.0013939524069428444 -0.0003001922741532326 0.0 0.0 0.0 0.0
1.813 -0.15689893066883087 -0.1935368925333023 -0.0016859257593750954 -0.0003036009147763252 0.0 0.0 0.0 0.0
1.814 -0.16431081295013428 -0.18839970231056213 -0.0014657163992524147 -0.0002461029216647148 0.0 0.0 0.0 0.0
1.815 -0.1696721911430359 -0.1815853863954544 -0.0016028359532356262 -0.00021136924624443054 0.0 0.0 0.0 0.0
1.816 -0.17576055228710175 -0.1739785224199295 -0.0016016922891139984 -0.0002882573753595352 0.0 0.0 0.0 0.0
1.817 -0.18123164772987366 -0.16570323705673218 -0.0016778269782662392 -5.6412070989608765e-05 0.0 0.0 0.0 0.0
1.818 -0.1842406988143921 -0.1596446931362152 -0.0014369776472449303 0.0001296941190958023 0.0 0.0 0.0 0.0
1.819 -0.19203540682792664 -0.1489051878452301 -0.0016760965809226036 0.0001378580927848816 0.0 0.0 0.0 0.0
1.82 -0.19396327435970306 -0.14424850046634674 -0.0015260148793458939 0.00033732783049345016 0.0 0.0 0.0 0.0
1.821 -0.20024767518043518 -0.13250021636486053 -0.0017391201108694077 0.0006042234599590302 0.0 0.0 0.0 0.0
1.822 -0.2030268907546997 -0.12983426451683044 -0.0015146294608712196 0.000562022440135479 0.0 0.0 0.0 0.0
1.823 -0.20992667973041534 -0.11645598709583282 -0.0016377223655581474 0.0006552878767251968 0.0 0.0 0.0 0.0
1.824 -0.21302521228790283 -0.11217834800481796 -0.0015464527532458305 0.0007540592923760414 0.0 0.0 0.0 0.0
1.825 -0.2187647968530655 -0.10003973543643951 -0.001479574479162693 0.0004675108939409256 0.0 0.0 0.0 0.0
1.826 -0.21975792944431305 -0.09422209113836288 -0.001430080272257328 0.0007574940100312233 0.0 0.0 0.0 0.0
1.827 -0.22170820832252502 -0.08387044817209244 -0.0015592249110341072 0.0009957542642951012 0.0 0.0 0.0 0.0
1.828 -0.22553184628486633 -0.07630543410778046 -0.0014799060299992561 0.000781751237809658 0.0 0.0 0.0 0.0
1.829 -0.2281905561685562 -0.06580168008804321 -0.0014327093958854675 0.0011804429814219475 0.0 0.0 0.0 0.0
1.83 -0.23110748827457428 -0.056582458317279816 -0.001105576753616333 0.001011342741549015 0.0 0.0 0.0 0.0
1.831 -0.23140914738178253 -0.050222065299749374 -0.0013457713648676872 0.000996897928416729 0.0 0.0 0.0 0.0
1.832 -0.23432497680187225 -0.03953759744763374 -0.0011003362014889717 0.0010059904307126999 0.0 0.0 0.0 0.0
1.833 -0.23577716946601868 -0.03258997201919556 -0.0009679757058620453 0.0011803675442934036 0.0 0.0 0.0 0.0
1.834 -0.23712924122810364 -0.024939581751823425 -0.0012522973120212555 0.0013295616954565048 0.0 0.0 0.0 0.0
1.835 -0.2365388423204422 -0.013618307188153267 -0.0010750442743301392 0.0013041840866208076 0.0 0.0 0.0 0.0
1.836 -0.23824380338191986 -0.003927947953343391 -0.0007035927847027779 0.0012488467618823051 0.0 0.0 0.0 0.0
1.837 -0.2380712628364563 0.00502112228423357 -0.0009746570140123367 0.0012867972254753113 0.0 0.0 0.0 0.0
1.838 -0.2391270399093628 0.012308751232922077 -0.0007046926766633987 0.001103757880628109 0.0 0.0 0.0 0.0
1.839 -0.2380061000585556 0.021379295736551285 -0.0007290346547961235 0.0013017868623137474 0.0 0.0 0.0 0.0
1.84 -0.23818838596343994 0.029847601428627968 -0.0006248047575354576 0.0013706954196095467 0.0 0.0 0.0 0.0
1.841 -0.23662245273590088 0.038710929453372955 -0.00054912269115448 0.0016166670247912407 0.0 0.0 0.0 0.0
1.842 -0.23643094301223755 0.04397689178586006 -0.0005757743492722511 0.001470828428864479 0.0 0.0 0.0 0.0
1.843 -0.2330654263496399 0.055976949632167816 -0.00039416830986738205 0.0017575258389115334 0.0 0.0 0.0 0.0
1.844 -0.2340971976518631 0.06278089433908463 -0.00038119684904813766 0.0015882914885878563 0.0 0.0 0.0 0.0
1.845 -0.23009797930717468 0.07214941829442978 -0.00012846197932958603 0.0018553007394075394 0.0 0.0 0.0 0.0
1.846 -0.23027807474136353 0.07905428856611252 -4.7258101403713226e-05 0.0016230512410402298 0.0 0.0 0.0 0.0
1.847 -0.22638049721717834 0.08870185911655426 -1.5245750546455383e-06 0.0019448241218924522 0.0 0.0 0.0 0.0
1.848 -0.22459425032138824 0.0957159548997879 0.000156451016664505 0.0016636401414871216 0.0 0.0 0.0 0.0
1.849 -0.2222774177789688 0.10370587557554245 0.00027481187134981155 0.0018489742651581764 0.0 0.0 0.0 0.0
1.85 -0.2196880280971527 0.11259511113166809 0.00038934871554374695 0.0016618454828858376 0.0 0.0 0.0 0.0
1.851 -0.21668168902397156 0.12042881548404694 0.0004708319902420044 0.0017180712893605232 0.0 0.0 0.0 0.0
1.852 -0.21446381509304047 0.12788069248199463 0.0005230046808719635 0.0017155036330223083 0.0 0.0 0.0 0.0
1.853 -0.2119487076997757 0.1354379653930664 0.0003433693200349808 0.0014805514365434647 0.0 0.0 0.0 0.0
1.854 -0.20823636651039124 0.14380823075771332 0.0006955778226256371 0.0014021079987287521 0.0 0.0 0.0 0.0
1.855 -0.20376195013523102 0.14980638027191162 0.0006715431809425354 0.001706487499177456 0.0 0.0 0.0 0.0
1.856 -0.19930534064769745 0.1571856439113617 0.001010226085782051 0.0016107633709907532 0.0 0.0 0.0 0.0
1.857 -0.19638724625110626 0.16501379013061523 0.0008243778720498085 0.001517551951110363 0.0 0.0 0.0 0.0
1.858 -0.1901145875453949 0.17100732028484344 0.001044655218720436 0.0014706403017044067 0.0 0.0 0.0 0.0
1.859 -0.18776671588420868 0.17610754072666168 0.0011338582262396812 0.001352190040051937 0.0 0.0 0.0 0.0
1.86 -0.18147976696491241 0.18411201238632202 0.0012178728356957436 0.001537717878818512 0.0 0.0 0.0 0.0
1.861 -0.17695282399654388 0.18989570438861847 0.0012806719169020653 0.0014354949817061424 0.0 0.0 0.0 0.0
1.862 -0.170997753739357 0.1977642923593521 0.0013992032036185265 0.0014372430741786957 0.0 0.0 0.0 0.0
1.863 -0.1678968369960785 0.20196306705474854 0.0013767872005701065 0.001225735992193222 0.0 0.0 0.0 0.0
1.864 -0.16370688378810883 0.2078443020582199 0.0015039816498756409 0.0009540962055325508 0.0 0.0 0.0 0.0
1.865 -0.15550045669078827 0.21575401723384857 0.0015714336186647415 0.0010606469586491585 0.0 0.0 0.0 0.0
1.866 -0.1523999571800232 0.22017152607440948 0.0015074042603373528 0.0007692147046327591 0.0 0.0 0.0 0.0
1.867 -0.14573325216770172 0.22617879509925842 0.0015264945104718208 0.0005720211192965508 0.0 0.0 0.0 0.0
1.868 -0.14361228048801422 0.229776993393898 0.001613333821296692 0.000721566379070282 0.0 0.0 0.0 0.0
1.869 -0.1350100040435791 0.2381553202867508 0.0017393222078680992 0.0004161866381764412 0.0 0.0 0.0 0.0
1.87 -0.12779539823532104 0.2412985861301422 0.0015619629994034767 0.00047868769615888596 0.0 0.0 0.0 0.0
1.871 -0.12514112889766693 0.2470908761024475 0.00180060975253582 0.0005820654332637787 0.0 0.0 0.0 0.0
1.872 -0.11618249118328094 0.2530001103878021 0.001652614213526249 0.00039358343929052353 0.0 0.0 0.0 0.0
1.873 -0.11024199426174164 0.25923553109169006 0.0016603218391537666 0.00030958186835050583 0.0 0.0 0.0 0.0
1.874 -0.10681702941656113 0.2620176374912262 0.0018572360277175903 5.202926695346832e-05 0.0 0.0 0.0 0.0
1.875 -0.10297447443008423 0.26809337735176086 0.0015937918797135353 -0.00015375670045614243 0.0 0.0 0.0 0.0
1.876 -0.09501206129789352 0.27060025930404663 0.001812339760363102 -0.00025503896176815033 0.0 0.0 0.0 0.0
1.877 -0.08680248260498047 0.2780238687992096 0.001549270935356617 -0.0003827502951025963 0.0 0.0 0.0 0.0
1.878 -0.07738182693719864 0.2817574143409729 0.0017961421981453896 -0.00013412535190582275 0.0 0.0 0.0 0.0
1.879 -0.07413478195667267 0.2866736352443695 0.0017444156110286713 -9.621772915124893e-05 0.0 0.0 0.0 0.0
1.88 -0.06948128342628479 0.2899307906627655 0.0015807785093784332 -0.0005829585716128349 0.0 0.0 0.0 0.0
1.881 -0.059761323034763336 0.29240989685058594 0.0016520824283361435 -0.0005763750523328781 0.0 0.0 0.0 0.0
1.882 -0.05139052867889404 0.2979355454444885 0.00165613554418087 -0.0005613956600427628 0.0 0.0 0.0 0.0
1.883 -0.04540938511490822 0.2995419204235077 0.001597471535205841 -0.000940113328397274 0.0 0.0 0.0 0.0
1.884 -0.03402690216898918 0.303193062543869 0.0014204569160938263 -0.0010682642459869385 0.0 0.0 0.0 0.0
1.885 -0.028986327350139618 0.3076234757900238 0.0011146645992994308 -0.0009667742997407913 0.0 0.0 0.0 0.0
1.886 -0.020606160163879395 0.3105663061141968 0.0012411372736096382 -0.0009190794080495834 0.0 0.0 0.0 0.0
1.887 -0.011545552872121334 0.3117462992668152 0.0015776865184307098 -0.0010447623208165169 0.0 0.0 0.0 0.0
1.888 -0.003524264320731163 0.3161318898200989 0.0012764036655426025 -0.0012640804052352905 0.0 0.0 0.0 0.0
1.889 0.006897119805216789 0.3171937167644501 0.0010072775185108185 -0.0012256661430001259 0.0 0.0 0.0 0.0
1.89 0.012380354106426239 0.31941860914230347 0.0010042916983366013 -0.001208803616464138 0.0 0.0 0.0 0.0
1.891 0.024199778214097023 0.31987929344177246 0.0009413538500666618 -0.0015089157968759537 0.0 0.0 0.0 0.0
1.892 0.030065886676311493 0.32187145948410034 0.0006883842870593071 -0.0014531873166561127 0.0 0.0 0.0 0.0
1.893 0.03886581212282181 0.32214540243148804 0.0010511064901947975 -0.0014141835272312164 0.0 0.0 0.0 0.0
1.894 0.04736415669322014 0.3246612250804901 0.0007072994485497475 -0.0009988024830818176 0.0 0.0 0.0 0.0
1.895 0.05665949359536171 0.3247045576572418 0.00033584702759981155 -0.00144149549305439 0.0 0.0 0.0 0.0
1.896 0.06989193707704544 0.32578083872795105 0.0003853878006339073 -0.001643364317715168 0.0 0.0 0.0 0.0
1.897 0.07809439301490784 0.3250950276851654 0.0002374807372689247 -0.0014777453616261482 0.0 0.0 0.0 0.0
1.898 0.08495379239320755 0.3232547342777252 0.0004641124978661537 -0.001827724277973175 0.0 0.0 0.0 0.0
1.899 0.09153041988611221 0.3221092224121094 4.565529525279999e-05 -0.001499607227742672 0.0 0.0 0.0 0.0
1.9 0.1042155772447586 0.3191194236278534 0.0002255542203783989 -0.0014101006090641022 0.0 0.0 0.0 0.0
1.901 0.10983885079622269 0.3209100663661957 3.0664727091789246e-05 -0.0013165837153792381 0.0 0.0 0.0 0.0
1.902 0.11923430860042572 0.3184613287448883 0.00013202056288719177 -0.0015045134350657463 0.0 0.0 0.0 0.0
1.903 0.12421038001775742 0.31570881605148315 -0.00011203903704881668 -0.0015817675739526749 0.0 0.0 0.0 0.0
1.904 0.1372378021478653 0.3133357763290405 -0.00018691830337047577 -0.0016852477565407753 0.0 0.0 0.0 0.0
1.905 0.14260879158973694 0.3116464614868164 -0.0002939961850643158 -0.0015875352546572685 0.0 0.0 0.0 0.0
1.906 0.15207968652248383 0.30955272912979126 -0.0007216902449727058 -0.001444963738322258 0.0 0.0 0.0 0.0
1.907 0.161599799990654 0.30560988187789917 -0.0006695110350847244 -0.0013898154720664024 0.0 0.0 0.0 0.0
1.908 0.1738472580909729 0.29984408617019653 -0.0004723900929093361 -0.001089087687432766 0.0 0.0 0.0 0.0
1.909 0.1770639419555664 0.29892873764038086 -0.0007075872272253036 -0.0013752104714512825 0.0 0.0 0.0 0.0
1.91 0.18849986791610718 0.2957104742527008 -0.0005876999348402023 -0.0009440509602427483 0.0 0.0 0.0 0.0
1.911 0.19594919681549072 0.29313650727272034 -0.0006492631509900093 -0.0010846080258488655 0.0 0.0 0.0 0.0
1.912 0.20169831812381744 0.2890208065509796 -0.000964517705142498 -0.0006966404616832733 0.0 0.0 0.0 0.0
1.913 0.21225307881832123 0.281756192445755 -0.0006626173853874207 -0.0010724598541855812 0.0 0.0 0.0 0.0
1.914 0.21876251697540283 0.27914729714393616 -0.0010242797434329987 -0.0009599160403013229 0.0 0.0 0.0 0.0
1.915 0.22806046903133392 0.27024438977241516 -0.0007577994838356972 -0.0007769633084535599 0.0 0.0 0.0 0.0
1.916 0.23165452480316162 0.26828908920288086 -0.0008840663358569145 -0.000649736262857914 0.0 0.0 0.0 0.0
1.917 0.24361121654510498 0.2587506175041199 -0.0009929090738296509 -0.00051126629114151 0.0 0.0 0.0 0.0
1.918 0.24846607446670532 0.25130265951156616 -0.0011151283979415894 -0.0004614284262061119 0.0 0.0 0.0 0.0
1.919 0.2587463855743408 0.24612873792648315 -0.0007232753559947014 -0.00040343403816223145 0.0 0.0 0.0 0.0
1.92 0.2625194489955902 0.24201051890850067 -0.001072474755346775 -0.0007680263370275497 0.0 0.0 0.0 0.0
1.921 0.2716793417930603 0.23460520803928375 -0.001003297045826912 -0.00031936634331941605 0.0 0.0 0.0 0.0
1.922 0.275558203458786 0.2267836630344391 -0.00134239811450243 -0.0003933459520339966 0.0 0.0 0.0 0.0
1.923 0.2806444466114044 0.22130227088928223 -0.0006135236471891403 -0.00037276744842529297 0.0 0.0 0.0 0.0
1.924 0.2880779802799225 0.2128300964832306 -0.0008032247424125671 -6.773509085178375e-06 0.0 0.0 0.0 0.0
1.925 0.29179975390434265 0.2059258073568344 -0.0008286433294415474 -0.0004809889942407608 0.0 0.0 0.0 0.0
1.926 0.29973703622817993 0.1961120069026947 -0.0010605547577142715 -3.559235483407974e-05 0.0 0.0 0.0 0.0
1.927 0.30315402150154114 0.1877204179763794 -0.0009292103350162506 1.3717450201511383e-05 0.0 0.0 0.0 0.0
1.928 0.308854877948761 0.17806726694107056 -0.0011485842987895012 6.937328726053238e-05 0.0 0.0 0.0 0.0
1.929 0.31014353036880493 0.1711958944797516 -0.0008673937991261482 -0.0002075647935271263 0.0 0.0 0.0 0.0
1.93 0.31809431314468384 0.16249369084835052 -0.0009069126099348068 0.00024750828742980957 0.0 0.0 0.0 0.0
1.931 0.3195733428001404 0.15265075862407684 -0.0008815592154860497 7.101520895957947e-05 0.0 0.0 0.0 0.0
1.932 0.3233815133571625 0.1442423313856125 -0.0012396518141031265 2.0165927708148956e-05 0.0 0.0 0.0 0.0
1.933 0.3279954493045807 0.13259996473789215 -0.0011059511452913284 0.0003521926701068878 0.0 0.0 0.0 0.0
1.934 0.32932665944099426 0.12615340948104858 -0.0010679513216018677 0.0003834553062915802 0.0 0.0 0.0 0.0
1.935 0.33160093426704407 0.11212117224931717 -0.0009823543950915337 0.00025185011327266693 0.0 0.0 0.0 0.0
1.936 0.3336903154850006 0.10670286417007446 -0.0007542343810200691 0.00031309574842453003 0.0 0.0 0.0 0.0
1.937 0.33623379468917847 0.09372291713953018 -0.0005460390821099281 0.0003232080489397049 0.0 0.0 0.0 0.0
1.938 0.3355008661746979 0.08589643985033035 -0.0009207949042320251 0.0001781117171049118 0.0 0.0 0.0 0.0
1.939 0.3382438123226166 0.07212716341018677 -0.0006345836445689201 0.0003714403137564659 0.0 0.0 0.0 0.0
1.94 0.33723148703575134 0.06733153015375137 -0.0010311631485819817 0.0003415895625948906 0.0 0.0 0.0 0.0
1.941 0.3405205011367798 0.05395347997546196 -0.0008754739537835121 0.0006758244708180428 0.0 0.0 0.0 0.0
1.942 0.3372810184955597 0.04507346823811531 -0.0008585285395383835 0.00039153825491666794 0.0 0.0 0.0 0.0
1.943 0.33919066190719604 0.03558913245797157 -0.0005435673519968987 0.0005188705399632454 0.0 0.0 0.0 0.0
1.944 0.3369717001914978 0.02440786175429821 -0.0008910922333598137 0.0005548205226659775 0.0 0.0 0.0 0.0
1.945 0.3353080153465271 0.015138586983084679 -0.0008648112416267395 0.0004879813641309738 0.0 0.0 0.0 0.0
1.946 0.33458274602890015 0.00391140952706337 -0.0003663785755634308 0.0007685432210564613 0.0 0.0 0.0 0.0
1.947 0.3320603370666504 -0.0030134515836834908 -0.0006041759625077248 0.0002832682803273201 0.0 0.0 0.0 0.0
1.948 0.3286963105201721 -0.016654590144753456 -0.0006135515868663788 0.0007992330938577652 0.0 0.0 0.0 0.0
1.949 0.3259752690792084 -0.02444920502603054 -0.00029422715306282043 0.0008591357618570328 0.0 0.0 0.0 0.0
1.95 0.3216961920261383 -0.039295218884944916 -0.00039688218384981155 0.0005723163485527039 0.0 0.0 0.0 0.0
1.951 0.3200659155845642 -0.04299457371234894 -0.00028485897928476334 0.0008690971881151199 0.0 0.0 0.0 0.0
1.952 0.31582775712013245 -0.05811675637960434 -0.000269867479801178 0.0007668239995837212 0.0 0.0 0.0 0.0
1.953 0.3095020353794098 -0.06169981136918068 -0.0002632914111018181 0.0006990404799580574 0.0 0.0 0.0 0.0
1.954 0.3045665919780731 -0.07302246987819672 -0.0005860431119799614 0.0007219798862934113 0.0 0.0 0.0 0.0
1.955 0.3012838661670685 -0.07946059107780457 -0.00011286884546279907 0.0008866759017109871 0.0 0.0 0.0 0.0
1.956 0.295997679233551 -0.09095320105552673 -0.0003865351900458336 0.0010873302817344666 0.0 0.0 0.0 0.0
1.957 0.28992241621017456 -0.09887556731700897 1.5337951481342316e-05 0.0010755239054560661 0.0 0.0 0.0 0.0
1.958 0.2835465669631958 -0.10492051392793655 -0.0002810610458254814 0.0006507216021418571 0.0 0.0 0.0 0.0
1.959 0.27697110176086426 -0.1132437065243721 -0.00015322118997573853 0.0011061904951930046 0.0 0.0 0.0 0.0
1.96 0.27009451389312744 -0.12241923809051514 -0.00012055225670337677 0.0006283270195126534 0.0 0.0 0.0 0.0
1.961 0.2619783580303192 -0.1295543909072876 -0.00024469662457704544 0.0007203919813036919 0.0 0.0 0.0 0.0
1.962 0.25716662406921387 -0.13389861583709717 -1.6658566892147064e-05 0.0008550761267542839 0.0 0.0 0.0 0.0
1.963 0.2476932555437088 -0.14637351036071777 0.00010844878852367401 0.0005952306091785431 0.0 0.0 0.0 0.0
1.964 0.24136102199554443 -0.14837908744812012 -5.1625072956085205e-05 0.0007341578602790833 0.0 0.0 0.0 0.0
1.965 0.23129063844680786 -0.15759991109371185 -5.0080008804798126e-05 0.000711323693394661 0.0 0.0 0.0 0.0
1.966 0.22432801127433777 -0.16259551048278809 0.0002830708399415016 0.0006222240626811981 0.0 0.0 0.0 0.0
1.967 0.21492180228233337 -0.16970176994800568 3.848224878311157e-06 0.0006777597591280937 0.0 0.0 0.0 0.0
1.968 0.2100125253200531 -0.17412547767162323 0.0003321804106235504 0.0006941789761185646 0.0 0.0 0.0 0.0
1.969 0.1988915205001831 -0.17869918048381805 0.00010441429913043976 0.0008270852267742157 0.0 0.0 0.0 0.0
1.97 0.19080303609371185 -0.18485170602798462 0.0005046678707003593 0.0008448557928204536 0.0 0.0 0.0 0.0
1.971 0.18153530359268188 -0.18869051337242126 0.0002805488184094429 0.0008437493816018105 0.0 0.0 0.0 0.0
1.972 0.1712622195482254 -0.19461102783679962 0.0003920700401067734 0.000813191756606102 0.0 0.0 0.0 0.0
1.973 0.16180071234703064 -0.196211040019989 0.00038458220660686493 0.0007100151851773262 0.0 0.0 0.0 0.0
1.974 0.15029065310955048 -0.2020542323589325 0.0006031226366758347 0.00046202633529901505 0.0 0.0 0.0 0.0
1.975 0.14319215714931488 -0.20274624228477478 0.00041924137622117996 0.0007373467087745667 0.0 0.0 0.0 0.0
1.976 0.13401804864406586 -0.207347109913826 0.0007030237466096878 0.0007217070087790489 0.0 0.0 0.0 0.0
1.977 0.12465409934520721 -0.2057521790266037 0.0005397507920861244 0.0007525188848376274 0.0 0.0 0.0 0.0
1.978 0.11114928126335144 -0.21161605417728424 0.0008747652173042297 0.0003818962723016739 0.0 0.0 0.0 0.0
1.979 0.10153089463710785 -0.21218793094158173 0.0007860492914915085 0.0003652852028608322 0.0 0.0 0.0 0.0
1.98 0.08991346508264542 -0.21247519552707672 0.0006289510056376457 0.00022176094353199005 0.0 0.0 0.0 0.0
1.981 0.08283478021621704 -0.21458306908607483 0.0011646654456853867 0.00038618315011262894 0.0 0.0 0.0 0.0
1.982 0.07393577694892883 -0.21404702961444855 0.0003906572237610817 0.0002838708460330963 0.0 0.0 0.0 0.0
1.983 0.06286328285932541 -0.2157747894525528 0.0009897304698824883 0.00048639625310897827 0.0 0.0 0.0 0.0
1.984 0.053017713129520416 -0.21451906859874725 0.0009576724842190742 0.00023597106337547302 0.0 0.0 0.0 0.0
1.985 0.040726438164711 -0.21574990451335907 0.0010276511311531067 2.0246952772140503e-06 0.0 0.0 0.0 0.0
1.986 0.03299763426184654 -0.21339130401611328 0.0008350899443030357 0.000330471433699131 0.0 0.0 0.0 0.0
1.987 0.020952383056282997 -0.21447402238845825 0.0010173115879297256 -0.00010194722563028336 0.0 0.0 0.0 0.0
1.988 0.01360645703971386 -0.21025033295154572 0.0008278451859951019 0.00016300473362207413 0.0 0.0 0.0 0.0
1.989 0.00023956596851348877 -0.21075467765331268 0.0010170135647058487 -8.15708190202713e-05 0.0 0.0 0.0 0.0
1.99 -0.004967237822711468 -0.20626160502433777 0.0009131124243140221 0.00019598659127950668 0.0 0.0 0.0 0.0
1.991 -0.016496442258358 -0.2048131823539734 0.0008273441344499588 -0.00030976440757513046 0.0 0.0 0.0 0.0
1.992 -0.026515334844589233 -0.20187035202980042 0.0010247649624943733 -0.00018592551350593567 0.0 0.0 0.0 0.0
1.993 -0.03573029860854149 -0.19996674358844757 0.0010927971452474594 -1.838989555835724e-05 0.0 0.0 0.0 0.0
1.994 -0.04609840363264084 -0.195721834897995 0.0009952941909432411 -0.00036886706948280334 0.0 0.0 0.0 0.0
1.995 -0.055799949914216995 -0.19237133860588074 0.0012508910149335861 -0.00029991939663887024 0.0 0.0 0.0 0.0
1.996 -0.06465514749288559 -0.1873115599155426 0.000887654721736908 -0.0002455785870552063 0.0 0.0 0.0 0.0
1.997 -0.07040348649024963 -0.18323364853858948 0.0008295830339193344 -0.00014575012028217316 0.0 0.0 0.0 0.0
1.998 -0.08261600881814957 -0.17817729711532593 0.000972231850028038 -0.000341854989528656 0.0 0.0 0.0 0.0
1.999 -0.09014474600553513 -0.17336194217205048 0.0008310927078127861 -0.00029075052589178085 0.0 0.0 0.0 0.0
2.0 -0.10177580267190933 -0.16830021142959595 0.0010109925642609596 -0.0006838608533143997 0.0 0.0 0.0 0.0
2.001 -0.10744338482618332 -0.1632172167301178 0.0007150610908865929 -0.000562865287065506 0.0 0.0 0.0 0.0
2.002 -0.11615975201129913 -0.15539714694023132 0.0006938120350241661 -0.000775456428527832 0.0 0.0 0.0 0.0
2.003 -0.12225614488124847 -0.15021252632141113 0.0008270395919680595 -0.0007442599162459373 0.0 0.0 0.0 0.0
2.004 -0.13343645632266998 -0.14267075061798096 0.0006716391071677208 -0.0010759225115180016 0.0 0.0 0.0 0.0
2.005 -0.1377183347940445 -0.1377946436405182 0.0007234327495098114 -0.000952460803091526 0.0 0.0 0.0 0.0
2.006 -0.14650854468345642 -0.1292845904827118 0.0005380474030971527 -0.0008549364283680916 0.0 0.0 0.0 0.0
2.007 -0.15377600491046906 -0.12334882467985153 0.0006259530782699585 -0.0010595722123980522 0.0 0.0 0.0 0.0
2.008 -0.1602424532175064 -0.1148340255022049 0.0003759106621146202 -0.0010026749223470688 0.0 0.0 0.0 0.0
2.009 -0.16580291092395782 -0.10740156471729279 0.00017661135643720627 -0.0009968047961592674 0.0 0.0 0.0 0.0
2.01 -0.1736544966697693 -0.10104772448539734 0.00021275319159030914 -0.001208001747727394 0.0 0.0 0.0 0.0
2.011 -0.17828181385993958 -0.09220540523529053 6.47176057100296e-06 -0.0010631773620843887 0.0 0.0 0.0 0.0
2.012 -0.1851867288351059 -0.08420184999704361 -1.1851079761981964e-05 -0.0012489436194300652 0.0 0.0 0.0 0.0
2.013 -0.19148394465446472 -0.07488993555307388 -9.043049067258835e-05 -0.001390133984386921 0.0 0.0 0.0 0.0
2.014 -0.19456341862678528 -0.06826312094926834 -0.00017181038856506348 -0.0010518357157707214 0.0 0.0 0.0 0.0
2.015 -0.20130953192710876 -0.057695552706718445 -0.0002549886703491211 -0.0011322833597660065 0.0 0.0 0.0 0.0
2.016 -0.20436342060565948 -0.051006998866796494 -6.314180791378021e-05 -0.0010061031207442284 0.0 0.0 0.0 0.0
2.017 -0.20903058350086212 -0.03833404928445816 -0.00045414920896291733 -0.001032908447086811 0.0 0.0 0.0 0.0
2.018 -0.21347741782665253 -0.03130526468157768 -0.0004676124081015587 -0.0010370472446084023 0.0 0.0 0.0 0.0
2.019 -0.21850205957889557 -0.02155354619026184 -0.00043451134115457535 -0.0012381821870803833 0.0 0.0 0.0 0.0
2.02 -0.21973370015621185 -0.01537391822785139 -0.00029422156512737274 -0.001083909533917904 0.0 0.0 0.0 0.0
2.021 -0.22471800446510315 -0.0034494251012802124 -0.0008774846792221069 -0.0009347693994641304 0.0 0.0 0.0 0.0
2.022 -0.2259320765733719 0.004992272704839706 -0.0006608059629797935 -0.00086236372590065 0.0 0.0 0.0 0.0
2.023 -0.22961358726024628 0.015691911801695824 -0.0009349826723337173 -0.0009872112423181534 0.0 0.0 0.0 0.0
2.024 -0.22963669896125793 0.02464659884572029 -0.000601564534008503 -0.0006260117515921593 0.0 0.0 0.0 0.0
2.025 -0.23282016813755035 0.0354083813726902 -0.0008103102445602417 -0.0004716860130429268 0.0 0.0 0.0 0.0
2.026 -0.23379173874855042 0.0442071333527565 -0.0009024534374475479 -0.0006880117580294609 0.0 0.0 0.0 0.0
2.027 -0.23484361171722412 0.054405905306339264 -0.0008680112659931183 -0.0005828971043229103 0.0 0.0 0.0 0.0
2.028 -0.2364979386329651 0.06507846713066101 -0.0008610673248767853 -0.0005539897829294205 0.0 0.0 0.0 0.0
2.029 -0.2375134825706482 0.07070053368806839 -0.0010270960628986359 -0.000461372546851635 0.0 0.0 0.0 0.0
2.03 -0.2373916208744049 0.08359212428331375 -0.0010146573185920715 -0.0005640964955091476 0.0 0.0 0.0 0.0
2.031 -0.23546859622001648 0.09304835647344589 -0.0009593702852725983 -0.0002499297261238098 0.0 0.0 0.0 0.0
2.032 -0.23550373315811157 0.10231336206197739 -0.0007937867194414139 -0.00035073328763246536 0.0 0.0 0.0 0.0
2.033 -0.23529335856437683 0.11237093806266785 -0.0009473636746406555 -0.00020209793001413345 0.0 0.0 0.0 0.0
2.034 -0.23457317054271698 0.12032561749219894 -0.0008264044299721718 -0.00015087611973285675 0.0 0.0 0.0 0.0
2.035 -0.2318507432937622 0.13274633884429932 -0.0011127358302474022 0.0001144586130976677 0.0 0.0 0.0 0.0
2.036 -0.2318352907896042 0.13962149620056152 -0.0008651269599795341 -0.00016125664114952087 0.0 0.0 0.0 0.0
2.037 -0.22746314108371735 0.1501944661140442 -0.0008810004219412804 -2.627633512020111e-05 0.0 0.0 0.0 0.0
2.038 -0.22787590324878693 0.15691082179546356 -0.0010004201903939247 -0.00010191556066274643 0.0 0.0 0.0 0.0
2.039 -0.2219545543193817 0.17021463811397552 -0.0008936943486332893 0.00024219974875450134 0.0 0.0 0.0 0.0
2.04 -0.22098283469676971 0.1759893000125885 -0.0008973367512226105 0.00021453481167554855 0.0 0.0 0.0 0.0
2.041 -0.2175048589706421 0.1870548576116562 -0.0008346028625965118 -0.0001728590577840805 0.0 0.0 0.0 0.0
2.042 -0.21418072283267975 0.19307027757167816 -0.000735127367079258 0.0002806754782795906 0.0 0.0 0.0 0.0
2.043 -0.2107081264257431 0.20339304208755493 -0.0008981740102171898 0.00023662298917770386 0.0 0.0 0.0 0.0
2.044 -0.20596900582313538 0.20974497497081757 -0.0009083868935704231 0.000389966182410717 0.0 0.0 0.0 0.0
2.045 -0.20071732997894287 0.22045892477035522 -0.0009463466703891754 0.00046838074922561646 0.0 0.0 0.0 0.0
2.046 -0.1984560191631317 0.22804062068462372 -0.0008810767903923988 0.00034441612660884857 0.0 0.0 0.0 0.0
2.047 -0.1941826492547989 0.23488673567771912 -0.0007256222888827324 0.0005738278850913048 0.0 0.0 0.0 0.0
2.048 -0.18804779648780823 0.24307715892791748 -0.0007172692567110062 0.0003090202808380127 0.0 0.0 0.0 0.0
2.049 -0.1888626515865326 0.24797531962394714 -0.0004142308607697487 0.0002744551748037338 0.0 0.0 0.0 0.0
2.05 -0.1772110015153885 0.2597021460533142 -0.0007519349455833435 0.0005581099539995193 0.0 0.0 0.0 0.0
2.051 -0.17556437849998474 0.26471588015556335 -0.00046957097947597504 0.00039518438279628754 0.0 0.0 0.0 0.0
2.052 -0.16908103227615356 0.2716194987297058 -0.0005083512514829636 0.00037331972271203995 0.0 0.0 0.0 0.0
2.053 -0.16405615210533142 0.2767375111579895 -0.0005088197067379951 0.00036151427775621414 0.0 0.0 0.0 0.0
2.054 -0.15533661842346191 0.2862388789653778 -0.00045078154653310776 0.0005689207464456558 0.0 0.0 0.0 0.0
2.055 -0.15297618508338928 0.29107895493507385 -0.0005637230351567268 0.0005289940163493156 0.0 0.0 0.0 0.0
2.056 -0.14239932596683502 0.30047014355659485 -0.0005775466561317444 0.0007348265498876572 0.0 0.0 0.0 0.0
2.057 -0.13921545445919037 0.30294477939605713 -0.0004844050854444504 0.00043831299990415573 0.0 0.0 0.0 0.0
2.058 -0.1296674758195877 0.31091374158859253 -0.0003480641171336174 0.0007325382903218269 0.0 0.0 0.0 0.0
2.059 -0.12609651684761047 0.31483587622642517 -0.0003566443920135498 0.0006609158590435982 0.0 0.0 0.0 0.0
2.06 -0.11735093593597412 0.32320713996887207 -0.0004992512986063957 0.0004996452480554581 0.0 0.0 0.0 0.0
2.061 -0.11011212319135666 0.32593220472335815 -0.0003040814772248268 0.0006471248343586922 0.0 0.0 0.0 0.0
2.062 -0.10412725806236267 0.33314651250839233 -2.1597370505332947e-05 0.000565163791179657 0.0 0.0 0.0 0.0
2.063 -0.09459181874990463 0.33659929037094116 -0.00023686885833740234 0.0006373114883899689 0.0 0.0 0.0 0.0
2.064 -0.08757229149341583 0.3381589651107788 -3.278069198131561e-05 0.0008158227428793907 0.0 0.0 0.0 0.0
2.065 -0.07975317537784576 0.3432796597480774 -0.0001603551208972931 0.000588592141866684 0.0 0.0 0.0 0.0
2.066 -0.07404734194278717 0.3463667333126068 -2.52528116106987e-05 0.0007076440379023552 0.0 0.0 0.0 0.0
2.067 -0.06214658170938492 0.35208263993263245 -0.00016235094517469406 0.0005014967173337936 0.0 0.0 0.0 0.0
2.068 -0.059317778795957565 0.3533739149570465 -0.00022174883633852005 0.0007567880675196648 0.0 0.0 0.0 0.0
2.069 -0.049081265926361084 0.35905179381370544 -4.1248276829719543e-05 0.0007916204631328583 0.0 0.0 0.0 0.0
2.07 -0.04107153043150902 0.3619636595249176 -5.207769572734833e-05 0.0007575433701276779 0.0 0.0 0.0 0.0
2.071 -0.0308687686920166 0.363390177488327 -7.096678018569946e-05 0.000798461027443409 0.0 0.0 0.0 0.0
2.072 -0.026535838842391968 0.3656500577926636 8.320435881614685e-05 0.0007601277902722359 0.0 0.0 0.0 0.0
2.073 -0.018469184637069702 0.36712130904197693 0.0001337919384241104 0.0009854137897491455 0.0 0.0 0.0 0.0
2.074 -0.009207501076161861 0.36922529339790344 0.0001667449250817299 0.0005388315767049789 0.0 0.0 0.0 0.0
2.075 -0.003545115701854229 0.3713966906070709 0.00016732793301343918 0.0007325094193220139 0.0 0.0 0.0 0.0
2.076 0.010900065302848816 0.37355130910873413 0.0004168488085269928 0.0006340937688946724 0.0 0.0 0.0 0.0
2.077 0.0147428372874856 0.37390074133872986 0.0002996586263179779 0.0007046964019536972 0.0 0.0 0.0 0.0
2.078 0.026410477235913277 0.37592777609825134 0.00043909717351198196 0.0004932209849357605 0.0 0.0 0.0 0.0
2.079 0.03111947327852249 0.37559834122657776 0.00034677237272262573 0.0006927158683538437 0.0 0.0 0.0 0.0
2.08 0.04357575625181198 0.37501513957977295 0.00046008918434381485 0.0006081722676753998 0.0 0.0 0.0 0.0
2.081 0.04801112040877342 0.3761918842792511 0.0003841882571578026 0.0007543368265032768 0.0 0.0 0.0 0.0
2.082 0.05857821926474571 0.3755466639995575 0.0005476968362927437 0.0006571272388100624 0.0 0.0 0.0 0.0
2.083 0.06406716257333755 0.3752937912940979 0.00046634767204523087 0.0004942053928971291 0.0 0.0 0.0 0.0
2.084 0.07119288295507431 0.375598281621933 0.00033715181052684784 0.000837317667901516 0.0 0.0 0.0 0.0
2.085 0.08146528154611588 0.3740093410015106 0.000627618283033371 0.00044303666800260544 0.0 0.0 0.0 0.0
2.086 0.08756337314844131 0.3734968602657318 0.0005826558917760849 0.0006045503541827202 0.0 0.0 0.0 0.0
2.087 0.0973188579082489 0.3714698255062103 0.0007072249427437782 0.00029511284083127975 0.0 0.0 0.0 0.0
2.088 0.0985272154211998 0.37356245517730713 0.0005927961319684982 0.0004198998212814331 0.0 0.0 0.0 0.0
2.089 0.11308492720127106 0.3673001229763031 0.0008326051756739616 0.00047429464757442474 0.0 0.0 0.0 0.0
2.09 0.11525905132293701 0.3674159049987793 0.0006689680740237236 0.0002768896520137787 0.0 0.0 0.0 0.0
2.091 0.12743988633155823 0.36350125074386597 0.0007137851789593697 0.00018956046551465988 0.0 0.0 0.0 0.0
2.092 0.1350366324186325 0.3609021008014679 0.0007576756179332733 0.00021887104958295822 0.0 0.0 0.0 0.0
2.093 0.1424410343170166 0.3595448136329651 0.0007893452420830727 0.00031454209238290787 0.0 0.0 0.0 0.0
2.094 0.14639930427074432 0.3579798936843872 0.0007058586925268173 0.0003608567640185356 0.0 0.0 0.0 0.0
2.095 0.15253983438014984 0.356126993894577 0.0005085775628685951 0.0002141818404197693 0.0 0.0 0.0 0.0
2.096 0.1645103543996811 0.34991732239723206 0.0009168647229671478 0.00014141853898763657 0.0 0.0 0.0 0.0
2.097 0.1697026938199997 0.3478113114833832 0.0006958302110433578 0.00022801663726568222 0.0 0.0 0.0 0.0
2.098 0.1776953786611557 0.3454936146736145 0.0004639057442545891 3.3262185752391815e-05 0.0 0.0 0.0 0.0
2.099 0.18202568590641022 0.3401679992675781 0.0006045522168278694 4.724133759737015e-05 0.0 0.0 0.0 0.0
2.1 0.19145728647708893 0.33790120482444763 0.0007059378549456596 5.6020915508270264e-05 0.0 0.0 0.0 0.0
2.101 0.1948787122964859 0.33360791206359863 0.00046999845653772354 -0.00012376997619867325 0.0 0.0 0.0 0.0
2.102 0.20464584231376648 0.3259377181529999 0.0006727259606122971 -0.00034970976412296295 0.0 0.0 0.0 0.0
2.103 0.2087431699037552 0.3245626389980316 0.0005871541798114777 -0.00018257461488246918 0.0 0.0 0.0 0.0
2.104 0.21914470195770264 0.31636521220207214 0.0006269896402955055 -0.0004656892269849777 0.0 0.0 0.0 0.0
2.105 0.21858680248260498 0.31452643871307373 0.0005906997248530388 -0.00017175916582345963 0.0 0.0 0.0 0.0
2.106 0.22807879745960236 0.308364599943161 0.0006778482347726822 -0.00010174233466386795 0.0 0.0 0.0 0.0
2.107 0.23156125843524933 0.30343881249427795 0.0004598628729581833 -0.00016290787607431412 0.0 0.0 0.0 0.0
2.108 0.23917405307292938 0.2984420955181122 0.00044963229447603226 -0.00025520846247673035 0.0 0.0 0.0 0.0
2.109 0.24243098497390747 0.29337695240974426 0.0005665728822350502 -0.00037974026054143906 0.0 0.0 0.0 0.0
2.11 0.2500752806663513 0.28823158144950867 0.0005596866831183434 -0.00048787426203489304 0.0 0.0 0.0 0.0
2.111 0.2548530101776123 0.27944469451904297 0.0004077889025211334 -0.0002980707213282585 0.0 0.0 0.0 0.0
2.112 0.25905558466911316 0.27841660380363464 0.00021529290825128555 -0.0002920469269156456 0.0 0.0 0.0 0.0
2.113 0.2647414207458496 0.2669050991535187 0.0002530151978135109 -0.00048122741281986237 0.0 0.0 0.0 0.0
2.114 0.26883646845817566 0.2620309293270111 0.0004199249669909477 -0.00046438444405794144 0.0 0.0 0.0 0.0
2.115 0.27436578273773193 0.25223520398139954 0.00047702621668577194 -0.0005161678418517113 0.0 0.0 0.0 0.0
2.116 0.2757081687450409 0.2485451102256775 0.00041687022894620895 -0.000296909362077713 0.0 0.0 0.0 0.0
2.117 0.284374475479126 0.23913824558258057 0.0004825117066502571 -0.0002957899123430252 0.0 0.0 0.0 0.0
2.118 0.2858007848262787 0.2318268120288849 0.00024086236953735352 -0.0004929723218083382 0.0 0.0 0.0 0.0
2.119 0.28804755210876465 0.22559359669685364 0.0004598889499902725 -0.0005076006054878235 0.0 0.0 0.0 0.0
2.12 0.2905523478984833 0.21867185831069946 0.00041600316762924194 -0.0003495067358016968 0.0 0.0 0.0 0.0
2.121 0.29325902462005615 0.2125377506017685 0.00020997412502765656 -0.0005230065435171127 0.0 0.0 0.0 0.0
2.122 0.2961989641189575 0.20419904589653015 0.0004242248833179474 -0.0003265310078859329 0.0 0.0 0.0 0.0
2.123 0.29629161953926086 0.20025323331356049 0.0004654470831155777 -0.0004884433001279831 0.0 0.0 0.0 0.0
2.124 0.3007223606109619 0.18685045838356018 0.00040011294186115265 -0.0005902266129851341 0.0 0.0 0.0 0.0
2.125 0.2997170686721802 0.18428604304790497 0.00016098283231258392 -0.00038951635360717773 0.0 0.0 0.0 0.0
2.126 0.30487555265426636 0.17270682752132416 0.0003756340593099594 -0.0005430392920970917 0.0 0.0 0.0 0.0
2.127 0.3036366105079651 0.16729801893234253 0.00020913314074277878 -0.0004527941346168518 0.0 0.0 0.0 0.0
2.128 0.30744826793670654 0.15896379947662354 0.0003153672441840172 -0.0004526721313595772 0.0 0.0 0.0 0.0
2.129 0.3074978291988373 0.15107008814811707 0.00034514814615249634 -0.0005228146910667419 0.0 0.0 0.0 0.0
2.13 0.30862390995025635 0.1432594656944275 0.0003232676535844803 -0.00043617747724056244 0.0 0.0 0.0 0.0
2.131 0.3085557520389557 0.13543187081813812 0.0002238750457763672 -0.0007427996024489403 0.0 0.0 0.0 0.0
2.132 0.3079083263874054 0.12820252776145935 0.0002880590036511421 -0.0006436845287680626 0.0 0.0 0.0 0.0
2.133 0.3093949854373932 0.11882932484149933 0.0001378217712044716 -0.0005096094682812691 0.0 0.0 0.0 0.0
2.134 0.3081107437610626 0.11337985098361969 -7.001403719186783e-05 -0.0005952036008238792 0.0 0.0 0.0 0.0
2.135 0.3087972104549408 0.10404794663190842 8.228793740272522e-05 -0.0005232002586126328 0.0 0.0 0.0 0.0
2.136 0.30592334270477295 0.09762740880250931 0.00016444828361272812 -0.0004710489884018898 0.0 0.0 0.0 0.0
2.137 0.30759137868881226 0.08494900912046432 0.000131106935441494 -0.0006621712818741798 0.0 0.0 0.0 0.0
2.138 0.3041575849056244 0.07925543934106827 5.120225250720978e-05 -0.0006186794489622116 0.0 0.0 0.0 0.0
2.139 0.30378425121307373 0.06989669054746628 2.848450094461441e-05 -0.0003998707979917526 0.0 0.0 0.0 0.0
2.14 0.29939746856689453 0.062393851578235626 -6.86226412653923e-05 -0.000567394308745861 0.0 0.0 0.0 0.0
2.141 0.3007802367210388 0.053566671907901764 3.8605183362960815e-05 -0.0006143338978290558 0.0 0.0 0.0 0.0
2.142 0.2956182062625885 0.04641740396618843 -2.5889836251735687e-05 -0.0006724316626787186 0.0 0.0 0.0 0.0
2.143 0.2928008735179901 0.037892598658800125 -0.0002414686605334282 -0.0008376482874155045 0.0 0.0 0.0 0.0
2.144 0.2891407012939453 0.030157003551721573 -2.832803875207901e-05 -0.0006836503744125366 0.0 0.0 0.0 0.0
2.145 0.28773167729377747 0.02250276878476143 -0.0003088926896452904 -0.0006882194429636002 0.0 0.0 0.0 0.0
2.146 0.28214409947395325 0.013311068527400494 -0.0002973536029458046 -0.0006503434851765633 0.0 0.0 0.0 0.0
2.147 0.2783114016056061 0.008188149891793728 -1.813005656003952e-05 -0.0006314022466540337 0.0 0.0 0.0 0.0
2.148 0.27404117584228516 -0.0027820924296975136 -0.0002901079133152962 -0.0005693631246685982 0.0 0.0 0.0 0.0
2.149 0.26898133754730225 -0.007850785739719868 -0.00042211636900901794 -0.0005580121651291847 0.0 0.0 0.0 0.0
2.15 0.26381564140319824 -0.01884782686829567 -0.00026416685432195663 -0.0007729055359959602 0.0 0.0 0.0 0.0
2.151 0.25788208842277527 -0.02323571965098381 -0.0004399847239255905 -0.0006623733788728714 0.0 0.0 0.0 0.0
2.152 0.25197458267211914 -0.0331362821161747 -0.0003823898732662201 -0.0006114235147833824 0.0 0.0 0.0 0.0
2.153 0.24632230401039124 -0.03433068096637726 -0.000472470186650753 -0.0004223715513944626 0.0 0.0 0.0 0.0
2.154 0.2400350123643875 -0.041729461401700974 -0.0005749855190515518 -0.0005171075463294983 0.0 0.0 0.0 0.0
2.155 0.23257438838481903 -0.04862705245614052 -0.0005114125087857246 -0.0004569943994283676 0.0 0.0 0.0 0.0
2.156 0.22699570655822754 -0.054657094180583954 -0.000657995231449604 -0.0005169250071048737 0.0 0.0 0.0 0.0
2.157 0.21940384805202484 -0.0624416247010231 -0.0003835922107100487 -0.00042588356882333755 0.0 0.0 0.0 0.0
2.158 0.21293388307094574 -0.0647994875907898 -0.0007232334464788437 -0.000497874803841114 0.0 0.0 0.0 0.0
2.159 0.20440888404846191 -0.07193108648061752 -0.0005750255659222603 -0.0005320077762007713 0.0 0.0 0.0 0.0
2.16 0.19850224256515503 -0.07525386661291122 -0.0006756046786904335 -0.00019568391144275665 0.0 0.0 0.0 0.0
2.161 0.1887216717004776 -0.08095777779817581 -0.0006960397586226463 -0.0004461389034986496 0.0 0.0 0.0 0.0
2.162 0.1826300323009491 -0.0839909240603447 -0.0005376515910029411 -0.00032552052289247513 0.0 0.0 0.0 0.0
2.163 0.17344526946544647 -0.08933678269386292 -0.0005319835618138313 -0.00023619364947080612 0.0 0.0 0.0 0.0
2.164 0.16444936394691467 -0.09396922588348389 -0.0004977835342288017 -0.0002815956249833107 0.0 0.0 0.0 0.0
2.165 0.1574019491672516 -0.09591995924711227 -0.0008801668882369995 -0.0001217331737279892 0.0 0.0 0.0 0.0
2.166 0.14855392277240753 -0.1000017449259758 -0.0005425931885838509 -0.0002164151519536972 0.0 0.0 0.0 0.0
2.167 0.14048559963703156 -0.10244429111480713 -0.0006733518093824387 5.66188246011734e-05 0.0 0.0 0.0 0.0
2.168 0.1300535500049591 -0.10518893599510193 -0.0006475085392594337 1.8802471458911896e-05 0.0 0.0 0.0 0.0
2.169 0.12157227098941803 -0.10612437129020691 -0.0006036171689629555 7.096212357282639e-05 0.0 0.0 0.0 0.0
2.17 0.11223083734512329 -0.10969376564025879 -0.0005008969455957413 -9.292084723711014e-05 0.0 0.0 0.0 0.0
2.171 0.10270226001739502 -0.10905931890010834 -0.0006695613265037537 1.036468893289566e-05 0.0 0.0 0.0 0.0
2.172 0.09281984716653824 -0.11171586066484451 -0.0007558213546872139 0.00010615121573209763 0.0 0.0 0.0 0.0
2.173 0.08583641052246094 -0.11141235381364822 -0.0005567371845245361 5.281530320644379e-06 0.0 0.0 0.0 0.0
2.174 0.07523997128009796 -0.11177956312894821 -0.0007293829694390297 0.0001323828473687172 0.0 0.0 0.0 0.0
2.175 0.06467787176370621 -0.1119268611073494 -0.0006102640181779861 6.800983101129532e-05 0.0 0.0 0.0 0.0
2.176 0.05610201880335808 -0.111461341381073 -0.0006617922335863113 0.00014782417565584183 0.0 0.0 0.0 0.0
2.177 0.045425038784742355 -0.11192917823791504 -0.00047067366540431976 7.896963506937027e-05 0.0 0.0 0.0 0.0
2.178 0.037582121789455414 -0.11038346588611603 -0.000368606299161911 0.00010240543633699417 0.0 0.0 0.0 0.0
2.179 0.027271488681435585 -0.10825201123952866 -0.0006300574168562889 0.000322781503200531 0.0 0.0 0.0 0.0
2.18 0.018220625817775726 -0.10633666813373566 -0.0006886329501867294 0.00020481552928686142 0.0 0.0 0.0 0.0
2.181 0.00721507053822279 -0.10460439324378967 -0.0005225511267781258 0.00020781345665454865 0.0 0.0 0.0 0.0
2.182 0.0001498013734817505 -0.10121507942676544 -0.0005401391535997391 0.00017670821398496628 0.0 0.0 0.0 0.0
2.183 -0.009741482324898243 -0.09765566140413284 -0.0006345361471176147 0.00031994935125112534 0.0 0.0 0.0 0.0
2.184 -0.0171525776386261 -0.09540092945098877 -0.00045585911720991135 0.0002937633544206619 0.0 0.0 0.0 0.0
2.185 -0.02803696133196354 -0.09264043718576431 -0.0004219943657517433 0.0002505127340555191 0.0 0.0 0.0 0.0
2.186 -0.035106111317873 -0.08722502738237381 -0.0006481148302555084 0.00039607100188732147 0.0 0.0 0.0 0.0
2.187 -0.0451909638941288 -0.08342152088880539 -0.00041603948920965195 0.00023509375751018524 0.0 0.0 0.0 0.0
2.188 -0.05148322880268097 -0.0781688317656517 -0.0005611544474959373 0.00022505410015583038 0.0 0.0 0.0 0.0
2.189 -0.058366432785987854 -0.07362916320562363 -0.0006025405600667 0.000475054606795311 0.0 0.0 0.0 0.0
2.19 -0.06719809025526047 -0.0691075250506401 -0.0004911543801426888 0.0003368305042386055 0.0 0.0 0.0 0.0
2.191 -0.07359065115451813 -0.06433530896902084 -0.0004567783325910568 0.0005665216594934464 0.0 0.0 0.0 0.0
2.192 -0.08223568648099899 -0.05821288377046585 -0.0003789607435464859 0.0004460914060473442 0.0 0.0 0.0 0.0
2.193 -0.08902406692504883 -0.05403974652290344 -0.00023033656179904938 0.0004399782046675682 0.0 0.0 0.0 0.0
2.194 -0.09562639892101288 -0.04553018882870674 -0.00036963075399398804 0.0005219895392656326 0.0 0.0 0.0 0.0
2.195 -0.10189315676689148 -0.04145967960357666 -0.00016543082892894745 0.0004993071779608727 0.0 0.0 0.0 0.0
2.196 -0.10833463817834854 -0.03376654535531998 -9.124912321567535e-05 0.0006087617948651314 0.0 0.0 0.0 0.0
2.197 -0.11397340148687363 -0.028853900730609894 7.567740976810455e-05 0.0004907194525003433 0.0 0.0 0.0 0.0
2.198 -0.12011532485485077 -0.021072112023830414 -0.00013129506260156631 0.0006745131686329842 0.0 0.0 0.0 0.0
2.199 -0.12532702088356018 -0.014317161403596401 -8.81589949131012e-05 0.0004799477756023407 0.0 0.0 0.0 0.0
2.2 -0.13265062868595123 -0.0065859295427799225 -0.00027488451451063156 0.0004113242030143738 0.0 0.0 0.0 0.0
2.201 -0.13637778162956238 -0.0006989426910877228 -0.0001503732055425644 0.0004316680133342743 0.0 0.0 0.0 0.0
2.202 -0.14270898699760437 0.008082493208348751 -3.982614725828171e-05 0.00023657549172639847 0.0 0.0 0.0 0.0
2.203 -0.14532595872879028 0.015807271003723145 8.989125490188599e-06 0.000546574592590332 0.0 0.0 0.0 0.0
2.204 -0.15006786584854126 0.021893365308642387 -0.00015436671674251556 0.0006051305681467056 0.0 0.0 0.0 0.0
2.205 -0.15591900050640106 0.03018432855606079 0.0001358315348625183 0.00034533627331256866 0.0 0.0 0.0 0.0
2.206 -0.15975338220596313 0.038459718227386475 7.337890565395355e-06 0.0003902781754732132 0.0 0.0 0.0 0.0
2.207 -0.16203933954238892 0.047009602189064026 2.5019049644470215e-05 0.0006269346922636032 0.0 0.0 0.0 0.0
2.208 -0.16632381081581116 0.0553092435002327 0.00010879337787628174 0.0005133878439664841 0.0 0.0 0.0 0.0
2.209 -0.16890455782413483 0.06255326420068741 0.0002652183175086975 0.00045526493340730667 0.0 0.0 0.0 0.0
2.21 -0.1727924346923828 0.07055191695690155 0.00022742059081792831 0.0005196128040552139 0.0 0.0 0.0 0.0
2.211 -0.17445623874664307 0.07807184755802155 0.0003116559237241745 0.0005548018962144852 0.0 0.0 0.0 0.0
2.212 -0.1752389371395111 0.08966144174337387 5.309656262397766e-05 0.0004586419090628624 0.0 0.0 0.0 0.0
2.213 -0.17812567949295044 0.09552359580993652 0.0002430388703942299 0.00055744219571352 0.0 0.0 0.0 0.0
2.214 -0.18008622527122498 0.1040864810347557 0.0004047024995088577 0.0003982996568083763 0.0 0.0 0.0 0.0
2.215 -0.18079620599746704 0.11245285719633102 0.0005033034831285477 0.0004424275830388069 0.0 0.0 0.0 0.0
2.216 -0.18232876062393188 0.12166021764278412 0.00017861928790807724 0.00030796974897384644 0.0 0.0 0.0 0.0
2.217 -0.18348556756973267 0.12811066210269928 0.0003326563164591789 0.00021251291036605835 0.0 0.0 0.0 0.0
2.218 -0.1816156953573227 0.13964545726776123 0.00027744565159082413 0.0003598388284444809 0.0 0.0 0.0 0.0
2.219 -0.18501213192939758 0.14613841474056244 0.0003850022330880165 0.00016788300126791 0.0 0.0 0.0 0.0
2.22 -0.18249286711215973 0.15608440339565277 0.00026017241179943085 0.00033267028629779816 0.0 0.0 0.0 0.0
2.221 -0.184438094496727 0.16199472546577454 0.0003550266847014427 0.00012607965618371964 0.0 0.0 0.0 0.0
2.222 -0.1836034655570984 0.17273429036140442 0.00028071459382772446 6.753113120794296e-05 0.0 0.0 0.0 0.0
2.223 -0.18158984184265137 0.18046794831752777 0.00026319921016693115 0.00011265836656093597 0.0 0.0 0.0 0.0
2.224 -0.18503454327583313 0.1850404590368271 0.0005190251395106316 0.0001779971644282341 0.0 0.0 0.0 0.0
2.225 -0.17814816534519196 0.1979263871908188 0.0004117656499147415 0.0001299036666750908 0.0 0.0 0.0 0.0
2.226 -0.1802172064781189 0.20169946551322937 0.0005661593750119209 0.00015814509242773056 0.0 0.0 0.0 0.0
2.227 -0.17800068855285645 0.21284112334251404 0.000280553475022316 -5.329027771949768e-05 0.0 0.0 0.0 0.0
2.228 -0.17452821135520935 0.21988776326179504 0.00046984851360321045 0.00010606739670038223 0.0 0.0 0.0 0.0
2.229 -0.1729249358177185 0.2283637821674347 0.0005065202713012695 -1.4592893421649933e-05 0.0 0.0 0.0 0.0
2.23 -0.17253686487674713 0.23449203372001648 0.00036271754652261734 -6.579514592885971e-05 0.0 0.0 0.0 0.0
2.231 -0.1693965196609497 0.24419738352298737 0.000398341566324234 -0.0001825820654630661 0.0 0.0 0.0 0.0
2.232 -0.1641055792570114 0.25111234188079834 0.0003004176542162895 2.6625581085681915e-05 0.0 0.0 0.0 0.0
2.233 -0.16281624138355255 0.2588365077972412 0.00044166576117277145 -4.1046179831027985e-05 0.0 0.0 0.0 0.0
2.234 -0.15887868404388428 0.2662282884120941 0.0003370605409145355 -9.233877062797546e-05 0.0 0.0 0.0 0.0
2.235 -0.15777696669101715 0.2722220718860626 0.0003392677754163742 -9.423866868019104e-05 0.0 0.0 0.0 0.0
2.236 -0.1515425741672516 0.28161606192588806 0.0002636658027768135 -0.0002605412155389786 0.0 0.0 0.0 0.0
2.237 -0.1496809870004654 0.28682971000671387 0.00017250515520572662 -0.00010098982602357864 0.0 0.0 0.0 0.0
2.238 -0.1444944590330124 0.29355090856552124 0.00033668428659439087 -9.404495358467102e-05 0.0 0.0 0.0 0.0
2.239 -0.1418379545211792 0.30018350481987 0.00020172540098428726 -0.0001809513196349144 0.0 0.0 0.0 0.0
2.24 -0.13384366035461426 0.308837354183197 0.000164923258125782 -0.00031034089624881744 0.0 0.0 0.0 0.0
2.241 -0.13205625116825104 0.3137708604335785 0.0002507306635379791 -0.00024260208010673523 0.0 0.0 0.0 0.0
2.242 -0.12477444112300873 0.3213321566581726 0.00010111741721630096 -9.148474782705307e-05 0.0 0.0 0.0 0.0
2.243 -0.12254419177770615 0.32582709193229675 0.00020063575357198715 -0.00017680134624242783 0.0 0.0 0.0 0.0
2.244 -0.11461160331964493 0.33157673478126526 0.0003029964864253998 -0.00016435515135526657 0.0 0.0 0.0 0.0
2.245 -0.10957677662372589 0.3382332921028137 4.698708653450012e-05 -0.00033351313322782516 0.0 0.0 0.0 0.0
2.246 -0.1084660068154335 0.34454891085624695 0.00018548034131526947 -0.0004448089748620987 0.0 0.0 0.0 0.0
2.247 -0.0976606160402298 0.35047245025634766 2.801511436700821e-05 -0.00023648887872695923 0.0 0.0 0.0 0.0
2.248 -0.0932827964425087 0.35533589124679565 4.483107477426529e-05 -3.723800182342529e-05 0.0 0.0 0.0 0.0
2.249 -0.08873172104358673 0.35895025730133057 0.00015615113079547882 -0.00015484169125556946 0.0 0.0 0.0 0.0
2.25 -0.0854417085647583 0.36552727222442627 2.6782043278217316e-05 -0.0003669820725917816 0.0 0.0 0.0 0.0
2.251 -0.07300305366516113 0.37135937809944153 -7.166247814893723e-05 -0.00023065879940986633 0.0 0.0 0.0 0.0
2.252 -0.07281384617090225 0.37380385398864746 9.916722774505615e-06 -0.00023311283439397812 0.0 0.0 0.0 0.0
2.253 -0.06513065844774246 0.3789084553718567 6.23166561126709e-05 -0.00026880577206611633 0.0 0.0 0.0 0.0
2.254 -0.05692168325185776 0.3822745680809021 -8.876156061887741e-05 -0.00017955340445041656 0.0 0.0 0.0 0.0
2.255 -0.05177377909421921 0.3879518210887909 8.482858538627625e-05 -0.0002425042912364006 0.0 0.0 0.0 0.0
2.256 -0.047924965620040894 0.3924553096294403 -6.84540718793869e-05 -0.00024558138102293015 0.0 0.0 0.0 0.0
2.257 -0.04108363762497902 0.3952793478965759 -4.8673711717128754e-05 -0.00041481107473373413 0.0 0.0 0.0 0.0
2.258 -0.027912763878703117 0.39887580275535583 8.647982031106949e-05 -0.00015622377395629883 0.0 0.0 0.0 0.0
2.259 -0.024735115468502045 0.40149977803230286 -3.602728247642517e-05 -4.889443516731262e-05 0.0 0.0 0.0 0.0
2.26 -0.01145072653889656 0.40420958399772644 -0.00013761874288320541 -9.984057396650314e-05 0.0 0.0 0.0 0.0
2.261 -0.009100785478949547 0.4069322645664215 -0.00010833889245986938 -8.52588564157486e-05 0.0 0.0 0.0 0.0
2.262 -0.00017388071864843369 0.4113847017288208 -0.00015249382704496384 -5.837529897689819e-06 0.0 0.0 0.0 0.0
2.263 0.006781845353543758 0.41115671396255493 -7.154420018196106e-06 1.535378396511078e-05 0.0 0.0 0.0 0.0
2.264 0.014174611307680607 0.4148366451263428 6.489083170890808e-05 -0.00020405370742082596 0.0 0.0 0.0 0.0
2.265 0.021291833370923996 0.41621604561805725 -4.378706216812134e-05 -1.0767020285129547e-05 0.0 0.0 0.0 0.0
2.266 0.026989897713065147 0.41855907440185547 -0.0001389896497130394 -0.0002578943967819214 0.0 0.0 0.0 0.0
2.267 0.03799135982990265 0.41990771889686584 -0.00017082225531339645 -0.00018304865807294846 0.0 0.0 0.0 0.0
2.268 0.04340982064604759 0.41878437995910645 -7.323455065488815e-05 1.2754462659358978e-05 0.0 0.0 0.0 0.0
2.269 0.05349316820502281 0.42155301570892334 -0.00028616003692150116 -7.117073982954025e-05 0.0 0.0 0.0 0.0
2.27 0.05531257390975952 0.4217143654823303 -8.126534521579742e-05 3.3602118492126465e-05 0.0 0.0 0.0 0.0
2.271 0.06602641195058823 0.42302045226097107 -3.543216735124588e-05 5.485489964485168e-07 0.0 0.0 0.0 0.0
2.272 0.07299819588661194 0.422808438539505 -9.213574230670929e-06 0.00010721944272518158 0.0 0.0 0.0 0.0
2.273 0.08506178855895996 0.42270857095718384 -9.32551920413971e-05 4.357285797595978e-05 0.0 0.0 0.0 0.0
2.274 0.0878700241446495 0.4203414022922516 -6.305240094661713e-05 -0.00014647096395492554 0.0 0.0 0.0 0.0
2.275 0.09609528630971909 0.4206090569496155 3.334134817123413e-07 -2.5006942451000214e-05 0.0 0.0 0.0 0.0
2.276 0.10623718798160553 0.41894370317459106 -9.881146252155304e-05 -0.00013846810907125473 0.0 0.0 0.0 0.0
2.277 0.10778981447219849 0.4203750491142273 0.00010436400771141052 -0.00014932360500097275 0.0 0.0 0.0 0.0
2.278 0.12000369280576706 0.4168366491794586 3.277324140071869e-05 -0.00011671707034111023 0.0 0.0 0.0 0.0
2.279 0.12470712512731552 0.41724899411201477 2.0069070160388947e-05 0.00010295677930116653 0.0 0.0 0.0 0.0
2.28 0.1364433765411377 0.41576164960861206 0.00012113526463508606 -1.6810372471809387e-05 0.0 0.0 0.0 0.0
2.281 0.13816747069358826 0.41251328587532043 -0.00011576805263757706 2.3669563233852386e-05 0.0 0.0 0.0 0.0
2.282 0.14899417757987976 0.41014280915260315 0.00016898196190595627 -0.00015186704695224762 0.0 0.0 0.0 0.0
2.283 0.15221695601940155 0.4099040627479553 -0.00022753607481718063 -0.0003271140158176422 0.0 0.0 0.0 0.0
2.284 0.1638115644454956 0.40428805351257324 -6.394460797309875e-05 -0.00015099160373210907 0.0 0.0 0.0 0.0
2.285 0.16571740806102753 0.402716726064682 -5.994923412799835e-05 -6.250198930501938e-05 0.0 0.0 0.0 0.0
2.286 0.17447681725025177 0.4010767638683319 -8.975248783826828e-05 -0.00014846399426460266 0.0 0.0 0.0 0.0
2.287 0.1786268949508667 0.39901188015937805 -4.1292980313301086e-05 -7.575284689664841e-05 0.0 0.0 0.0 0.0
2.288 0.1872798055410385 0.3948138952255249 -5.236081779003143e-05 -0.000315309502184391 0.0 0.0 0.0 0.0
2.289 0.19313375651836395 0.39152437448501587 -0.00015173852443695068 -0.00012723635882139206 0.0 0.0 0.0 0.0
2.29 0.1987639218568802 0.38995450735092163 -0.0003369329497218132 2.725701779127121e-05 0.0 0.0 0.0 0.0
2.291 0.20464003086090088 0.38486507534980774 1.4254823327064514e-05 -2.6318244636058807e-05 0.0 0.0 0.0 0.0
2.292 0.21143586933612823 0.38338443636894226 -0.00024084001779556274 -0.0003074686974287033 0.0 0.0 0.0 0.0
2.293 0.21818919479846954 0.3784215748310089 -0.0004034722223877907 -0.00019887462258338928 0.0 0.0 0.0 0.0
2.294 0.22130967676639557 0.3753949701786041 -0.00021217018365859985 7.276330143213272e-05 0.0 0.0 0.0 0.0
2.295 0.23156405985355377 0.368698388338089 -0.000372287817299366 -2.4692155420780182e-05 0.0 0.0 0.0 0.0
2.296 0.2340945303440094 0.3674071431159973 -0.0004093218594789505 -0.00023230817168951035 0.0 0.0 0.0 0.0
2.297 0.24356766045093536 0.35966265201568604 -0.00030045490711927414 -6.281398236751556e-05 0.0 0.0 0.0 0.0
2.298 0.2447654902935028 0.3579167425632477 -0.00019134674221277237 -6.518140435218811e-05 0.0 0.0 0.0 0.0
2.299 0.2533108592033386 0.35018619894981384 -0.0003427024930715561 6.51804730296135e-05 0.0 0.0 0.0 0.0
2.3 0.25689080357551575 0.34725016355514526 -0.00025331415235996246 0.00016024149954319 0.0 0.0 0.0 0.0
2.301 0.2649151384830475 0.3414079546928406 -0.0003069257363677025 0.00013183243572711945 0.0 0.0 0.0 0.0
2.302 0.26786112785339355 0.3352443277835846 -0.0001227259635925293 0.00010756030678749084 0.0 0.0 0.0 0.0
2.303 0.26831477880477905 0.33417972922325134 -0.000255766324698925 -1.4112330973148346e-05 0.0 0.0 0.0 0.0
2.304 0.28046125173568726 0.3237209618091583 -0.00019330810755491257 -1.2981705367565155e-05 0.0 0.0 0.0 0.0
2.305 0.28163057565689087 0.31835779547691345 -0.00045947637408971786 0.0001056082546710968 0.0 0.0 0.0 0.0
2.306 0.2879151701927185 0.31061697006225586 -0.0002864813432097435 0.00019169598817825317 0.0 0.0 0.0 0.0
2.307 0.28893426060676575 0.30704715847969055 -0.00020960066467523575 0.00022522080689668655 0.0 0.0 0.0 0.0
2.308 0.29670727252960205 0.295373797416687 -0.0001187492161989212 0.0002778703346848488 0.0 0.0 0.0 0.0
2.309 0.29800671339035034 0.29207703471183777 -0.00010012555867433548 0.000128990039229393 0.0 0.0 0.0 0.0
2.31 0.3025643825531006 0.2859351933002472 -0.00016345642507076263 5.822349339723587e-05 0.0 0.0 0.0 0.0
2.311 0.3047463893890381 0.278829425573349 -5.167163908481598e-05 0.00022114254534244537 0.0 0.0 0.0 0.0
2.312 0.30925074219703674 0.2721894085407257 -0.00022356491535902023 0.00033663585782051086 0.0 0.0 0.0 0.0
2.313 0.31236714124679565 0.2637849748134613 3.6694109439849854e-05 0.0002356749027967453 0.0 0.0 0.0 0.0
2.314 0.3140445351600647 0.2575642466545105 0.00014666281640529633 0.0001855660229921341 0.0 0.0 0.0 0.0
2.315 0.3181709945201874 0.24827000498771667 -0.0001469738781452179 0.000199207104742527 0.0 0.0 0.0 0.0
2.316 0.3205525577068329 0.24351529777050018 5.793757736682892e-06 0.00021278951317071915 0.0 0.0 0.0 0.0
2.317 0.32344236969947815 0.23181670904159546 -4.8150308430194855e-05 0.00010839197784662247 0.0 0.0 0.0 0.0
2.318 0.32192546129226685 0.22706612944602966 -4.7449953854084015e-05 3.690086305141449e-05 0.0 0.0 0.0 0.0
2.319 0.326100617647171 0.21642431616783142 7.825903594493866e-06 1.0931864380836487e-05 0.0 0.0 0.0 0.0
2.32 0.32651352882385254 0.20851270854473114 0.00011806748807430267 0.000112924724817276 0.0 0.0 0.0 0.0
2.321 0.3284726142883301 0.19757582247257233 -8.779671043157578e-05 4.4082291424274445e-05 0.0 0.0 0.0 0.0
2.322 0.32680919766426086 0.19502070546150208 -0.00014967471361160278 0.00021648872643709183 0.0 0.0 0.0 0.0
2.323 0.3298768103122711 0.18267904222011566 9.249988943338394e-05 0.00015355274081230164 0.0 0.0 0.0 0.0
2.324 0.32699981331825256 0.1777222454547882 -8.575804531574249e-05 -3.253016620874405e-05 0.0 0.0 0.0 0.0
2.325 0.32793736457824707 0.16933612525463104 -0.00011627562344074249 2.170167863368988e-05 0.0 0.0 0.0 0.0
2.326 0.3262602984905243 0.16081303358078003 0.00015723984688520432 0.00014806073158979416 0.0 0.0 0.0 0.0
2.327 0.3261105716228485 0.1537359058856964 -5.857739597558975e-05 1.7033889889717102e-05 0.0 0.0 0.0 0.0
2.328 0.3252716362476349 0.14509251713752747 -2.2967346012592316e-05 0.0002340618520975113 0.0 0.0 0.0 0.0
2.329 0.32423028349876404 0.13594256341457367 0.00016992539167404175 0.00013545062392950058 0.0 0.0 0.0 0.0
2.33 0.3239060044288635 0.12451653927564621 7.990654557943344e-05 3.647711127996445e-05 0.0 0.0 0.0 0.0
2.331 0.31949809193611145 0.12135092914104462 2.3152679204940796e-05 0.00024863798171281815 0.0 0.0 0.0 0.0
2.332 0.31774744391441345 0.10860486328601837 0.00014389026910066605 -3.352854400873184e-05 0.0 0.0 0.0 0.0
2.333 0.3141379654407501 0.10482992976903915 1.910049468278885e-05 5.1067210733890533e-05 0.0 0.0 0.0 0.0
2.334 0.3136349618434906 0.094441719353199 -1.3742595911026001e-05 0.00011119619011878967 0.0 0.0 0.0 0.0
2.335 0.30853334069252014 0.08814609795808792 0.00017167255282402039 0.00011296570301055908 0.0 0.0 0.0 0.0
2.336 0.30435851216316223 0.08334540575742722 -0.0003711814060807228 -9.518489241600037e-05 0.0 0.0 0.0 0.0
2.337 0.30163416266441345 0.07274515181779861 -0.00024161487817764282 0.00011860858649015427 0.0 0.0 0.0 0.0
2.338 0.29871511459350586 0.06616294384002686 -0.00012799445539712906 0.00015756860375404358 0.0 0.0 0.0 0.0
2.339 0.29293233156204224 0.057719334959983826 -6.0102902352809906e-05 1.8551014363765717e-05 0.0 0.0 0.0 0.0
2.34 0.2886996567249298 0.05323376506567001 -0.00017195940017700195 0.0001602601259946823 0.0 0.0 0.0 0.0
2.341 0.28400158882141113 0.04260909557342529 1.6169622540473938e-05 0.00012774206697940826 0.0 0.0 0.0 0.0
2.342 0.27919259667396545 0.03924030438065529 6.6943466663360596e-06 0.00017935410141944885 0.0 0.0 0.0 0.0
2.343 0.2742881178855896 0.027871103957295418 -6.739981472492218e-06 0.00014919694513082504 0.0 0.0 0.0 0.0
2.344 0.2680758833885193 0.026662420481443405 1.3076700270175934e-05 0.00021355226635932922 0.0 0.0 0.0 0.0
2.345 0.26302796602249146 0.017780456691980362 -4.1522085666656494e-05 0.00026013143360614777 0.0 0.0 0.0 0.0
2.346 0.2569459080696106 0.013632827438414097 -0.00011533312499523163 0.0002560131251811981 0.0 0.0 0.0 0.0
2.347 0.25050440430641174 0.0036682002246379852 5.085766315460205e-05 0.000132768414914608 0.0 0.0 0.0 0.0
2.348 0.2436782866716385 9.360630065202713e-05 -0.0002180822193622589 0.0002560298889875412 0.0 0.0 0.0 0.0
2.349 0.23824314773082733 -0.0048120468854904175 -3.1385570764541626e-06 0.0003219256177544594 0.0 0.0 0.0 0.0
2.35 0.231075257062912 -0.011839526705443859 -9.276159107685089e-05 0.00038478244096040726 0.0 0.0 0.0 0.0
2.351 0.2234455794095993 -0.015534525737166405 3.216695040464401e-05 0.00017561949789524078 0.0 0.0 0.0 0.0
2.352 0.21519193053245544 -0.02426750399172306 7.100030779838562e-05 7.25332647562027e-05 0.0 0.0 0.0 0.0
2.353 0.2085561752319336 -0.02635052427649498 0.0001584244892001152 0.00024262629449367523 0.0 0.0 0.0 0.0
2.354 0.2006642371416092 -0.031052833423018456 9.792204946279526e-05 0.00037807971239089966 0.0 0.0 0.0 0.0
2.355 0.1935873031616211 -0.034617792814970016 0.00014433450996875763 0.0002821600064635277 0.0 0.0 0.0 0.0
2.356 0.18473809957504272 -0.03844977542757988 2.6016496121883392e-05 0.0001598019152879715 0.0 0.0 0.0 0.0
2.357 0.17772343754768372 -0.04113265872001648 0.00016183406114578247 0.000425524078309536 0.0 0.0 0.0 0.0
2.358 0.16891299188137054 -0.04607108235359192 0.00013886485248804092 0.0004224851727485657 0.0 0.0 0.0 0.0
2.359 0.16000047326087952 -0.04777160659432411 0.00012231245636940002 0.0002078777179121971 0.0 0.0 0.0 0.0
2.36 0.1530883014202118 -0.04826146364212036 0.00027708522975444794 0.00010768696665763855 0.0 0.0 0.0 0.0
2.361 0.14311808347702026 -0.05445389822125435 0.00034925341606140137 0.0001306626945734024 0.0 0.0 0.0 0.0
2.362 0.13445241749286652 -0.05397807061672211 0.00011417921632528305 0.0003892136737704277 0.0 0.0 0.0 0.0
2.363 0.12581820785999298 -0.056267544627189636 0.00032029394060373306 0.00037485547363758087 0.0 0.0 0.0 0.0
2.364 0.11795806139707565 -0.0571654736995697 0.0003443686291575432 0.0001484006643295288 0.0 0.0 0.0 0.0
2.365 0.10814721137285233 -0.05968263000249863 0.0003104358911514282 0.00019831769168376923 0.0 0.0 0.0 0.0
2.366 0.09860524535179138 -0.058454763144254684 0.00011091586202383041 0.00021421071141958237 0.0 0.0 0.0 0.0
2.367 0.08906938135623932 -0.05963006988167763 0.00022074393928050995 0.00010810233652591705 0.0 0.0 0.0 0.0
2.368 0.08105872571468353 -0.059235233813524246 0.00042405910789966583 3.2493844628334045e-05 0.0 0.0 0.0 0.0
2.369 0.07186564803123474 -0.058538056910037994 0.0003300299867987633 -3.0506402254104614e-05 0.0 0.0 0.0 0.0
2.37 0.06267436593770981 -0.0593247264623642 0.0004523368552327156 2.8386712074279785e-05 0.0 0.0 0.0 0.0
2.371 0.05485323816537857 -0.05805936083197594 0.000502273440361023 3.3428892493247986e-05 0.0 0.0 0.0 0.0
2.372 0.04558585584163666 -0.05637370049953461 0.0003134310245513916 9.257998317480087e-05 0.0 0.0 0.0 0.0
2.373 0.036780908703804016 -0.05497363209724426 0.0004239846020936966 0.00015075411647558212 0.0 0.0 0.0 0.0
2.374 0.026790514588356018 -0.05298334360122681 0.0003900565207004547 6.146728992462158e-05 0.0 0.0 0.0 0.0
2.375 0.019355518743395805 -0.050370145589113235 0.0004170788452029228 -3.340933471918106e-05 0.0 0.0 0.0 0.0
2.376 0.00952561292797327 -0.04774058610200882 0.0003032609820365906 -7.723364979028702e-05 0.0 0.0 0.0 0.0
2.377 0.002138185314834118 -0.0439961701631546 0.0003944495692849159 8.758343756198883e-05 0.0 0.0 0.0 0.0
2.378 -0.006583698093891144 -0.04033438116312027 0.00032860971987247467 -2.034008502960205e-05 0.0 0.0 0.0 0.0
2.379 -0.014975558035075665 -0.03708123415708542 0.0004410073161125183 -5.645677447319031e-05 0.0 0.0 0.0 0.0
2.38 -0.022245727479457855 -0.0336974561214447 0.00046672672033309937 -5.6010670959949493e-05 0.0 0.0 0.0 0.0
2.381 -0.02966012805700302 -0.029655518010258675 0.00040848273783922195 -3.633182495832443e-05 0.0 0.0 0.0 0.0
2.382 -0.038863129913806915 -0.025126442313194275 0.00035012513399124146 -0.0002406444400548935 0.0 0.0 0.0 0.0
2.383 -0.04601721465587616 -0.01982741430401802 0.00028829649090766907 -0.00039456598460674286 0.0 0.0 0.0 0.0
2.384 -0.05355203524231911 -0.015177853405475616 0.00029232632368803024 -0.0003610001876950264 0.0 0.0 0.0 0.0
2.385 -0.06049944460391998 -0.01065579429268837 0.00047898106276988983 -0.0003563249483704567 0.0 0.0 0.0 0.0
2.386 -0.0664501041173935 -0.005594915710389614 0.000467139296233654 -0.00032335054129362106 0.0 0.0 0.0 0.0
2.387 -0.0727016031742096 0.0014584818854928017 0.0004144972190260887 -0.00020590424537658691 0.0 0.0 0.0 0.0
2.388 -0.07916828989982605 0.005804835818707943 0.00039683468639850616 -0.0002290196716785431 0.0 0.0 0.0 0.0
2.389 -0.08605234324932098 0.011841980740427971 0.0002888217568397522 -0.00039575155824422836 0.0 0.0 0.0 0.0
2.39 -0.09248723834753036 0.0177011601626873 0.00030501652508974075 -0.0004312954843044281 0.0 0.0 0.0 0.0
2.391 -0.09781339764595032 0.025824949145317078 9.804870933294296e-05 -0.00036111846566200256 0.0 0.0 0.0 0.0
2.392 -0.10375992953777313 0.030159831047058105 0.00017643999308347702 -0.0005959095433354378 0.0 0.0 0.0 0.0
2.393 -0.108274444937706 0.03861042484641075 7.717125117778778e-05 -0.0002898629754781723 0.0 0.0 0.0 0.0
2.394 -0.11363402754068375 0.04448598250746727 0.00031143706291913986 -0.0004905741661787033 0.0 0.0 0.0 0.0
2.395 -0.11957103759050369 0.05146827921271324 0.00011416058987379074 -0.00032902974635362625 0.0 0.0 0.0 0.0
2.396 -0.12324649095535278 0.05874675512313843 0.00010154396295547485 -0.00041291117668151855 0.0 0.0 0.0 0.0
2.397 -0.12834444642066956 0.0642634704709053 1.3824552297592163e-05 -0.000524541363120079 0.0 0.0 0.0 0.0
2.398 -0.131830632686615 0.07418270409107208 1.3486482203006744e-05 -0.0005722353234887123 0.0 0.0 0.0 0.0
2.399 -0.13652582466602325 0.07866465300321579 3.960262984037399e-05 -0.00047933682799339294 0.0 0.0 0.0 0.0
2.4 -0.1388588547706604 0.08858036249876022 0.00014816969633102417 -0.00047517474740743637 0.0 0.0 0.0 0.0
2.401 -0.1417480707168579 0.09519977122545242 4.026386886835098e-05 -0.0004936261102557182 0.0 0.0 0.0 0.0
2.402 -0.14603133499622345 0.10338255763053894 9.801983833312988e-05 -0.0004724320024251938 0.0 0.0 0.0 0.0
2.403 -0.14811928570270538 0.11191995441913605 -1.0989606380462646e-05 -0.00040796026587486267 0.0 0.0 0.0 0.0
2.404 -0.15122054517269135 0.11852414160966873 9.696651250123978e-05 -0.00050300732254982 0.0 0.0 0.0 0.0
2.405 -0.1519862413406372 0.127276211977005 -7.952563464641571e-05 -0.00041832122951745987 0.0 0.0 0.0 0.0
2.406 -0.15581312775611877 0.13458243012428284 -0.000201336108148098 -0.0004368200898170471 0.0 0.0 0.0 0.0
2.407 -0.1577073484659195 0.14186154305934906 -5.248468369245529e-05 -0.0004694303497672081 0.0 0.0 0.0 0.0
2.408 -0.1585288941860199 0.1488819569349289 -7.753819227218628e-05 -0.00032248906791210175 0.0 0.0 0.0 0.0
2.409 -0.1586822271347046 0.15946951508522034 -0.0002052057534456253 -0.00046522356569767 0.0 0.0 0.0 0.0
2.41 -0.16014371812343597 0.16461403667926788 -0.0001384960487484932 -0.0003681667149066925 0.0 0.0 0.0 0.0
2.411 -0.16119278967380524 0.17441777884960175 -0.0002430696040391922 -0.0004148203879594803 0.0 0.0 0.0 0.0
2.412 -0.1619442105293274 0.1814262419939041 -0.00017866585403680801 -0.00034870579838752747 0.0 0.0 0.0 0.0
2.413 -0.16033709049224854 0.19259858131408691 -0.00046206265687942505 -0.000287017785012722 0.0 0.0 0.0 0.0
2.414 -0.1633034199476242 0.1966279149055481 -0.0001699766144156456 -0.00046853069216012955 0.0 0.0 0.0 0.0
2.415 -0.16302752494812012 0.20415735244750977 -0.00013702362775802612 -0.0003622081130743027 0.0 0.0 0.0 0.0
2.416 -0.16066807508468628 0.21283257007598877 -0.0002929745241999626 -0.0005514789372682571 0.0 0.0 0.0 0.0
2.417 -0.16157875955104828 0.22082650661468506 -0.00019917357712984085 -0.00037513021379709244 0.0 0.0 0.0 0.0
2.418 -0.15835054218769073 0.22859707474708557 -0.0002040322870016098 -0.0003830399364233017 0.0 0.0 0.0 0.0
2.419 -0.1577250361442566 0.23488247394561768 -0.00020912382751703262 -0.00038827769458293915 0.0 0.0 0.0 0.0
2.42 -0.15458448231220245 0.24384242296218872 -0.0004170788452029228 -0.0003594057634472847 0.0 0.0 0.0 0.0
2.421 -0.1572050154209137 0.24827522039413452 -0.0003590341657400131 -0.0005825292319059372 0.0 0.0 0.0 0.0
2.422 -0.15166273713111877 0.25870615243911743 -0.0005068695172667503 -0.00033583398908376694 0.0 0.0 0.0 0.0
2.423 -0.15267892181873322 0.2631983160972595 -0.00042001623660326004 -0.0003688717260956764 0.0 0.0 0.0 0.0
2.424 -0.1461201310157776 0.2734408378601074 -0.0004731426015496254 -0.00014359597116708755 0.0 0.0 0.0 0.0
2.425 -0.14582625031471252 0.27745521068573 -0.0005053337663412094 -0.00023368839174509048 0.0 0.0 0.0 0.0
2.426 -0.14116664230823517 0.28680136799812317 -0.00047367438673973083 -0.00017644837498664856 0.0 0.0 0.0 0.0
2.427 -0.13919278979301453 0.29087239503860474 -0.000373045913875103 -1.0784715414047241e-05 0.0 0.0 0.0 0.0
2.428 -0.13460512459278107 0.29918956756591797 -0.00046007148921489716 -4.814751446247101e-05 0.0 0.0 0.0 0.0
2.429 -0.13142769038677216 0.3040582239627838 -0.0003690319135785103 -0.00015973951667547226 0.0 0.0 0.0 0.0
2.43 -0.12928754091262817 0.31003257632255554 -0.00037971045821905136 -0.00014036428183317184 0.0 0.0 0.0 0.0
2.431 -0.12409596145153046 0.3165855407714844 -0.0005051083862781525 -0.00013109669089317322 0.0 0.0 0.0 0.0
2.432 -0.12134827673435211 0.3225560188293457 -0.0005348483100533485 4.1034072637557983e-05 0.0 0.0 0.0 0.0
2.433 -0.11541144549846649 0.32845166325569153 -0.00035722367465496063 -5.246233195066452e-05 0.0 0.0 0.0 0.0
2.434 -0.11379068344831467 0.3325957953929901 -0.0004562009125947952 0.0001581842079758644 0.0 0.0 0.0 0.0
2.435 -0.10690571367740631 0.33861666917800903 -0.000417257659137249 6.610807031393051e-05 0.0 0.0 0.0 0.0
2.436 -0.10872264951467514 0.34416109323501587 -0.0006286939606070518 -0.0001740381121635437 0.0 0.0 0.0 0.0
2.437 -0.09573851525783539 0.35013070702552795 -0.0005089035257697105 0.00010957475751638412 0.0 0.0 0.0 0.0
2.438 -0.09714625775814056 0.3527376353740692 -0.0003769025206565857 0.00017734337598085403 0.0 0.0 0.0 0.0
2.439 -0.08754657953977585 0.35996419191360474 -0.000479075126349926 9.391084313392639e-05 0.0 0.0 0.0 0.0
2.44 -0.08323783427476883 0.3631582260131836 -0.0003937138244509697 5.326978862285614e-05 0.0 0.0 0.0 0.0
2.441 -0.08123336732387543 0.3662267029285431 -0.00029729679226875305 0.00016153790056705475 0.0 0.0 0.0 0.0
2.442 -0.07533393055200577 0.3706371486186981 -0.00045253336429595947 0.0002455292269587517 0.0 0.0 0.0 0.0
2.443 -0.07219858467578888 0.3753848075866699 -0.00041309092193841934 -2.8425827622413635e-05 0.0 0.0 0.0 0.0
2.444 -0.06277238577604294 0.3792238235473633 -0.0004667779430747032 0.0002356506884098053 0.0 0.0 0.0 0.0
2.445 -0.06442427635192871 0.3820516765117645 -0.0004803379997611046 0.0004322770982980728 0.0 0.0 0.0 0.0
2.446 -0.050603363662958145 0.38720473647117615 -0.0005373833701014519 0.00024142581969499588 0.0 0.0 0.0 0.0
2.447 -0.0497564822435379 0.3895842134952545 -0.0003919079899787903 0.0004201522096991539 0.0 0.0 0.0 0.0
2.448 -0.04078899696469307 0.3936333656311035 -0.0004066033288836479 0.0002341410145163536 0.0 0.0 0.0 0.0
2.449 -0.042802710086107254 0.3950639069080353 -0.0005837427452206612 0.00024572014808654785 0.0 0.0 0.0 0.0
2.45 -0.03207361698150635 0.39972907304763794 -0.00041935499757528305 0.0004380764439702034 0.0 0.0 0.0 0.0
2.451 -0.025449782609939575 0.401021808385849 -0.0003237314522266388 0.00027804262936115265 0.0 0.0 0.0 0.0
2.452 -0.022655684500932693 0.404524564743042 -0.0005174726247787476 0.0005256412550806999 0.0 0.0 0.0 0.0
2.453 -0.014336513355374336 0.40591147541999817 -0.0004691826179623604 0.0005977870896458626 0.0 0.0 0.0 0.0
2.454 -0.008328111842274666 0.4089880883693695 -0.00038955267518758774 0.0005864184349775314 0.0 0.0 0.0 0.0
2.455 -0.003448762930929661 0.41093969345092773 -0.00031880103051662445 0.0004721861332654953 0.0 0.0 0.0 0.0
2.456 -0.003247932530939579 0.41204968094825745 -0.0002215476706624031 0.0007081711664795876 0.0 0.0 0.0 0.0
2.457 0.01007260475307703 0.41502177715301514 -0.00025816354900598526 0.00042830314487218857 0.0 0.0 0.0 0.0
2.458 0.010798727162182331 0.41580015420913696 -0.00018500816076993942 0.0004682503640651703 0.0 0.0 0.0 0.0
2.459 0.022317485883831978 0.41684553027153015 -0.00021943356841802597 0.000440988689661026 0.0 0.0 0.0 0.0
2.46 0.02510034292936325 0.41648468375205994 -0.00010619126260280609 0.0006458712741732597 0.0 0.0 0.0 0.0
2.461 0.03251131623983383 0.419655978679657 -0.0003055185079574585 0.0006184400990605354 0.0 0.0 0.0 0.0
2.462 0.031197180971503258 0.41961851716041565 -0.00023644883185625076 0.0005314033478498459 0.0 0.0 0.0 0.0
2.463 0.045323312282562256 0.4208259880542755 -0.00011085346341133118 0.0005614999681711197 0.0 0.0 0.0 0.0
2.464 0.046410877257585526 0.4226934611797333 -0.00036132894456386566 0.0006138784810900688 0.0 0.0 0.0 0.0
2.465 0.05558837577700615 0.4223410487174988 -9.547173976898193e-05 0.0005538621917366982 0.0 0.0 0.0 0.0
2.466 0.0599512904882431 0.421976238489151 -0.00018775835633277893 0.0006510568782687187 0.0 0.0 0.0 0.0
2.467 0.06566464900970459 0.4226129949092865 -5.610473453998566e-05 0.000637921504676342 0.0 0.0 0.0 0.0
2.468 0.07490450888872147 0.4210355579853058 -0.0002493588253855705 0.0005934946238994598 0.0 0.0 0.0 0.0
2.469 0.07682953774929047 0.4216182231903076 -0.00011133495718240738 0.0008184332400560379 0.0 0.0 0.0 0.0
2.47 0.0857178196310997 0.41950130462646484 -2.6166439056396484e-05 0.0008317949250340462 0.0 0.0 0.0 0.0
2.471 0.08597616851329803 0.42034071683883667 4.26173210144043e-06 0.0005767596885561943 0.0 0.0 0.0 0.0
2.472 0.0972333624958992 0.4178227186203003 0.0002834172919392586 0.0006802519783377647 0.0 0.0 0.0 0.0
2.473 0.09722381830215454 0.41899994015693665 0.00015802588313817978 0.0006589489057660103 0.0 0.0 0.0 0.0
2.474 0.10941251367330551 0.4161463677883148 0.00020491797477006912 0.0005857981741428375 0.0 0.0 0.0 0.0
2.475 0.10815506428480148 0.415803462266922 0.00012022815644741058 0.0006747273728251457 0.0 0.0 0.0 0.0
2.476 0.1232200637459755 0.41339626908302307 0.0002912832424044609 0.0006768163293600082 0.0 0.0 0.0 0.0
2.477 0.1219366043806076 0.41175490617752075 0.000508149154484272 0.000664914958178997 0.0 0.0 0.0 0.0
2.478 0.12939806282520294 0.41249167919158936 0.00017491821199655533 0.0006648367270827293 0.0 0.0 0.0 0.0
2.479 0.13533294200897217 0.40771082043647766 0.0004925550892949104 0.0005946094170212746 0.0 0.0 0.0 0.0
2.48 0.13900887966156006 0.4090518653392792 0.0002884622663259506 0.0005742739886045456 0.0 0.0 0.0 0.0
2.481 0.14144207537174225 0.40594375133514404 0.000573793426156044 0.0005333647131919861 0.0 0.0 0.0 0.0
2.482 0.14384672045707703 0.4055144190788269 0.0006285589188337326 0.000662761740386486 0.0 0.0 0.0 0.0
2.483 0.15403452515602112 0.40002530813217163 0.0004438282921910286 0.0006107725203037262 0.0 0.0 0.0 0.0
2.484 0.15319909155368805 0.3986780345439911 0.00032822135835886 0.0005016298964619637 0.0 0.0 0.0 0.0
2.485 0.1649286150932312 0.39386582374572754 0.0003534555435180664 0.0004556803032755852 0.0 0.0 0.0 0.0
2.486 0.16726063191890717 0.392339289188385 0.0005366206169128418 0.0005503315478563309 0.0 0.0 0.0 0.0
2.487 0.1710587441921234 0.390534371137619 0.0006195930764079094 0.000613747164607048 0.0 0.0 0.0 0.0
2.488 0.1780969649553299 0.3864435851573944 0.0005032522603869438 0.00037377141416072845 0.0 0.0 0.0 0.0
2.489 0.1817702203989029 0.3844725787639618 0.0005163112655282021 0.00022917147725820541 0.0 0.0 0.0 0.0
2.49 0.1884700059890747 0.3788657486438751 0.0006219856441020966 0.0002570357173681259 0.0 0.0 0.0 0.0
2.491 0.1884108930826187 0.37770524621009827 0.000742386095225811 0.0002521537244319916 0.0 0.0 0.0 0.0
2.492 0.19651415944099426 0.37266793847084045 0.0005769114941358566 0.00030912552028894424 0.0 0.0 0.0 0.0
2.493 0.19692623615264893 0.3712424635887146 0.0005577569827437401 0.00030016805976629257 0.0 0.0 0.0 0.0
2.494 0.20788133144378662 0.36486148834228516 0.0006861472502350807 0.00032316427677869797 0.0 0.0 0.0 0.0
2.495 0.20484758913516998 0.36275285482406616 0.0007260553538799286 0.0002931412309408188 0.0 0.0 0.0 0.0
2.496 0.21291249990463257 0.3571827709674835 0.0006323643028736115 0.00023553520441055298 0.0 0.0 0.0 0.0
2.497 0.2144189178943634 0.3527831435203552 0.0008151866495609283 0.00010995008051395416 0.0 0.0 0.0 0.0
2.498 0.21462717652320862 0.3518844544887543 0.000834326259791851 0.00011739227920770645 0.0 0.0 0.0 0.0
2.499 0.2232133448123932 0.3459259867668152 0.0006125373765826225 0.00011872407048940659 0.0 0.0 0.0 0.0
2.5 0.2236347794532776 0.34093979001045227 0.0006561391055583954 -3.9229169487953186e-05 0.0 0.0 0.0 0.0
2.501 0.23035188019275665 0.3354087769985199 0.0007282542064785957 0.00020153727382421494 0.0 0.0 0.0 0.0
2.502 0.22659151256084442 0.3355064392089844 0.0008137701079249382 2.9053539037704468e-05 0.0 0.0 0.0 0.0
2.503 0.2355893850326538 0.3270685076713562 0.000769738107919693 0.00011944398283958435 0.0 0.0 0.0 0.0
2.504 0.23292358219623566 0.3231315016746521 0.0007079727947711945 4.731956869363785e-05 0.0 0.0 0.0 0.0
2.505 0.24248673021793365 0.31588003039360046 0.0009181443601846695 5.100574344396591e-05 0.0 0.0 0.0 0.0
2.506 0.24083177745342255 0.31282132863998413 0.0006664777174592018 3.4918077290058136e-05 0.0 0.0 0.0 0.0
2.507 0.24675129354000092 0.3068581223487854 0.0008742008358240128 -8.248072117567062e-05 0.0 0.0 0.0 0.0
2.508 0.24255354702472687 0.3043505847454071 0.000890650786459446 -0.00013372115790843964 0.0 0.0 0.0 0.0
2.509 0.24840109050273895 0.29899996519088745 0.00073284562677145 -8.193124085664749e-05 0.0 0.0 0.0 0.0
2.51 0.2510881721973419 0.29048246145248413 0.0008152611553668976 -0.00019019190222024918 0.0 0.0 0.0 0.0
2.511 0.24976405501365662 0.2888357639312744 0.0005723405629396439 -0.0003602970391511917 0.0 0.0 0.0 0.0
2.512 0.2542857229709625 0.2784973084926605 0.000723566859960556 -0.0003363117575645447 0.0 0.0 0.0 0.0
2.513 0.2534179985523224 0.2760177552700043 0.0008139293640851974 -0.0004740571603178978 0.0 0.0 0.0 0.0
2.514 0.2625401020050049 0.2640734910964966 0.0006545977666974068 -0.0003684442490339279 0.0 0.0 0.0 0.0
2.515 0.2553151249885559 0.2673588693141937 0.0006712609902024269 -0.0006118342280387878 0.0 0.0 0.0 0.0
2.516 0.26085227727890015 0.2564612925052643 0.0007366789504885674 -0.00036345701664686203 0.0 0.0 0.0 0.0
2.517 0.2590259909629822 0.2530781924724579 0.0006216093897819519 -0.0004926947876811028 0.0 0.0 0.0 0.0
2.518 0.2624880373477936 0.2454923391342163 0.0005269898101687431 -0.00034729018807411194 0.0 0.0 0.0 0.0
2.519 0.2585752010345459 0.24073147773742676 0.000543324276804924 -0.000470135360956192 0.0 0.0 0.0 0.0
2.52 0.2623221278190613 0.23254667222499847 0.000500011257827282 -0.0005879811942577362 0.0 0.0 0.0 0.0
2.521 0.2615383267402649 0.22782665491104126 0.0005848472937941551 -0.000508665107190609 0.0 0.0 0.0 0.0
2.522 0.26064619421958923 0.22291795909404755 0.00036289356648921967 -0.0006707059219479561 0.0 0.0 0.0 0.0
2.523 0.26101094484329224 0.2124314159154892 0.00039488915354013443 -0.0007750475779175758 0.0 0.0 0.0 0.0
2.524 0.26097336411476135 0.210152730345726 0.00043550319969654083 -0.0006010094657540321 0.0 0.0 0.0 0.0
2.525 0.25893378257751465 0.20197725296020508 0.0005196146667003632 -0.0006652893498539925 0.0 0.0 0.0 0.0
2.526 0.25604066252708435 0.1995091587305069 0.0003466801717877388 -0.0007320130243897438 0.0 0.0 0.0 0.0
2.527 0.2571505904197693 0.1897439956665039 0.0003290437161922455 -0.0007848041132092476 0.0 0.0 0.0 0.0
2.528 0.2534649968147278 0.18602214753627777 0.0003194054588675499 -0.0007630428299307823 0.0 0.0 0.0 0.0
2.529 0.2517172396183014 0.18039633333683014 0.00012919865548610687 -0.0007188953459262848 0.0 0.0 0.0 0.0
2.53 0.2489408701658249 0.1745900958776474 0.00012784264981746674 -0.0006083576008677483 0.0 0.0 0.0 0.0
2.531 0.2498493790626526 0.16388294100761414 0.0002764333039522171 -0.0007762201130390167 0.0 0.0 0.0 0.0
2.532 0.2428189516067505 0.16448312997817993 0.00011557620018720627 -0.0006436007097363472 0.0 0.0 0.0 0.0
2.533 0.24219262599945068 0.15515922009944916 0.00013160426169633865 -0.000748111866414547 0.0 0.0 0.0 0.0
2.534 0.2404397577047348 0.14861738681793213 3.984011709690094e-05 -0.0008133528754115105 0.0 0.0 0.0 0.0
2.535 0.23500649631023407 0.1477764993906021 -3.387313336133957e-05 -0.0008346391841769218 0.0 0.0 0.0 0.0
2.536 0.2340661734342575 0.1370767205953598 0.00014032889157533646 -0.0006971517577767372 0.0 0.0 0.0 0.0
2.537 0.2295226752758026 0.13508820533752441 -0.00011722743511199951 -0.0006918488070368767 0.0 0.0 0.0 0.0
2.538 0.22869309782981873 0.12467096000909805 -4.390347748994827e-05 -0.0007264018058776855 0.0 0.0 0.0 0.0
2.539 0.2206639051437378 0.12518200278282166 3.093760460615158e-05 -0.000630614347755909 0.0 0.0 0.0 0.0
2.54 0.220201313495636 0.11578050255775452 -1.2376345694065094e-05 -0.0007620146498084068 0.0 0.0 0.0 0.0
2.541 0.21464717388153076 0.11285688728094101 -6.869528442621231e-05 -0.000689895823597908 0.0 0.0 0.0 0.0
2.542 0.2107926458120346 0.1089080423116684 -0.00029737409204244614 -0.0005594575777649879 0.0 0.0 0.0 0.0
2.543 0.20260384678840637 0.10616376996040344 -0.0004297317937016487 -0.0006667664274573326 0.0 0.0 0.0 0.0
2.544 0.20079664885997772 0.09799365699291229 -0.00013703759759664536 -0.0006908997893333435 0.0 0.0 0.0 0.0
2.545 0.19366082549095154 0.0952252745628357 -0.00027412455528974533 -0.00076310895383358 0.0 0.0 0.0 0.0
2.546 0.18940268456935883 0.09275096654891968 -0.00042149052023887634 -0.0005062585696578026 0.0 0.0 0.0 0.0
2.547 0.18293814361095428 0.08751046657562256 -0.0002348143607378006 -0.0005422038957476616 0.0 0.0 0.0 0.0
2.548 0.17785008251667023 0.08473438024520874 -0.00034193694591522217 -0.0004838835448026657 0.0 0.0 0.0 0.0
2.549 0.17309966683387756 0.07893791049718857 -0.00041600968688726425 -0.0006458768621087074 0.0 0.0 0.0 0.0
2.55 0.16603295505046844 0.0784139335155487 -0.00052682776004076 -0.0006417790427803993 0.0 0.0 0.0 0.0
2.551 0.16050134599208832 0.07317148894071579 -0.0005431082099676132 -0.0005451487377285957 0.0 0.0 0.0 0.0
2.552 0.15296559035778046 0.0716455951333046 -0.0006899889558553696 -0.0005590887740254402 0.0 0.0 0.0 0.0
2.553 0.1498546600341797 0.06669922173023224 -0.0005098655819892883 -0.00024087727069854736 0.0 0.0 0.0 0.0
2.554 0.14231881499290466 0.06552397459745407 -0.0004712007939815521 -0.00040323566645383835 0.0 0.0 0.0 0.0
2.555 0.13648225367069244 0.06319238990545273 -0.00039187725633382797 -0.0003129849210381508 0.0 0.0 0.0 0.0
2.556 0.12900464236736298 0.06296291947364807 -0.0003208266571164131 -0.00024799909442663193 0.0 0.0 0.0 0.0
2.557 0.12296333909034729 0.05906236171722412 -0.0004025772213935852 -0.0002760235220193863 0.0 0.0 0.0 0.0
2.558 0.11578721553087234 0.05665381997823715 -0.0003892024978995323 -0.0003954647108912468 0.0 0.0 0.0 0.0
2.559 0.10976812243461609 0.05758792161941528 -0.0004897899925708771 -2.442486584186554e-05 0.0 0.0 0.0 0.0
2.56 0.103759765625 0.05530954524874687 -0.0006004683673381805 -7.190369069576263e-05 0.0 0.0 0.0 0.0
2.561 0.09578555077314377 0.05481712520122528 -0.0003414582461118698 -8.66185873746872e-05 0.0 0.0 0.0 0.0
2.562 0.08827771991491318 0.05547568202018738 -0.00061785988509655 -4.192814230918884e-05 0.0 0.0 0.0 0.0
2.563 0.08140438795089722 0.05471619963645935 -0.0005589472129940987 -5.563627928495407e-05 0.0 0.0 0.0 0.0
2.564 0.07466372847557068 0.05309362709522247 -0.0005962979048490524 -7.004756480455399e-05 0.0 0.0 0.0 0.0
2.565 0.06558337807655334 0.05575498566031456 -0.0006286473944783211 1.8297694623470306e-05 0.0 0.0 0.0 0.0
2.566 0.061835065484046936 0.05549575015902519 -0.0003616316244006157 1.3882294297218323e-05 0.0 0.0 0.0 0.0
2.567 0.05317392572760582 0.0569126158952713 -0.00042517390102148056 3.179628401994705e-05 0.0 0.0 0.0 0.0
2.568 0.047361716628074646 0.0561683215200901 -0.0004594903439283371 0.0001439778134226799 0.0 0.0 0.0 0.0
2.569 0.03921966254711151 0.05828637629747391 -0.0003453753888607025 3.516674041748047e-05 0.0 0.0 0.0 0.0
2.57 0.032964687794446945 0.05973485857248306 -0.00028646085411310196 -2.047419548034668e-05 0.0 0.0 0.0 0.0
2.571 0.025733694434165955 0.06199420988559723 -0.00040881894528865814 7.47833400964737e-05 0.0 0.0 0.0 0.0
2.572 0.018496524542570114 0.06509365141391754 -0.00048488005995750427 3.224797546863556e-05 0.0 0.0 0.0 0.0
2.573 0.013338178396224976 0.06620367616415024 -0.00026604440063238144 3.2288022339344025e-05 0.0 0.0 0.0 0.0
2.574 0.008054789155721664 0.06939215958118439 -0.00044385623186826706 0.00030309055000543594 0.0 0.0 0.0 0.0
2.575 5.906354635953903e-05 0.07215144485235214 -0.0004313364624977112 0.00010680779814720154 0.0 0.0 0.0 0.0
2.576 -0.005532711744308472 0.0747339054942131 -0.00019166618585586548 0.00013533979654312134 0.0 0.0 0.0 0.0
2.577 -0.008176821283996105 0.0790804922580719 -0.0003905808553099632 0.0003538932651281357 0.0 0.0 0.0 0.0
2.578 -0.01826922409236431 0.0822775810956955 -0.0003186538815498352 0.00025354698300361633 0.0 0.0 0.0 0.0
2.579 -0.022900329902768135 0.0860292837023735 -0.0004628775641322136 0.0003000544384121895 0.0 0.0 0.0 0.0
2.58 -0.03233872354030609 0.08857370913028717 -0.0002467697486281395 8.066091686487198e-05 0.0 0.0 0.0 0.0
2.581 -0.036329153925180435 0.09333115816116333 -0.0002702716737985611 0.0001048501580953598 0.0 0.0 0.0 0.0
2.582 -0.039977919310331345 0.09867473691701889 -0.0003484608605504036 0.00020023249089717865 0.0 0.0 0.0 0.0
2.583 -0.04724625125527382 0.10126885026693344 -0.00030062347650527954 2.7783215045928955e-05 0.0 0.0 0.0 0.0
2.584 -0.04906204342842102 0.10767325758934021 -0.0002956688404083252 0.0002309279516339302 0.0 0.0 0.0 0.0
2.585 -0.05628654360771179 0.11030811816453934 -0.0002496037632226944 0.0002965833991765976 0.0 0.0 0.0 0.0
2.586 -0.05746997147798538 0.11729519814252853 -0.00014721602201461792 0.0003463421016931534 0.0 0.0 0.0 0.0
2.587 -0.06549376249313354 0.11922384053468704 -0.00010881107300519943 0.00020031817257404327 0.0 0.0 0.0 0.0
2.588 -0.06938855350017548 0.12559130787849426 -5.3447671234607697e-05 0.00011951196938753128 0.0 0.0 0.0 0.0
2.589 -0.07616359740495682 0.12846538424491882 -0.00017938017845153809 0.00016589462757110596 0.0 0.0 0.0 0.0
2.59 -0.0795678198337555 0.13776302337646484 -0.000248556025326252 -4.4551678001880646e-05 0.0 0.0 0.0 0.0
2.591 -0.08142876625061035 0.14156845211982727 -0.0001633940264582634 0.00026988517493009567 0.0 0.0 0.0 0.0
2.592 -0.08390346169471741 0.14895135164260864 -0.0003407401964068413 0.00032862089574337006 0.0 0.0 0.0 0.0
2.593 -0.08743598312139511 0.15432889759540558 -0.00020592380315065384 5.3413212299346924e-05 0.0 0.0 0.0 0.0
2.594 -0.09166048467159271 0.15835434198379517 -0.00019347760826349258 0.0004754588007926941 0.0 0.0 0.0 0.0
2.595 -0.0958588570356369 0.16549676656723022 -6.958842277526855e-05 0.00010301079601049423 0.0 0.0 0.0 0.0
2.596 -0.09710811823606491 0.17129895091056824 -0.0003605438396334648 0.0004371991381049156 0.0 0.0 0.0 0.0
2.597 -0.09915153682231903 0.1771039068698883 -0.00011293217539787292 0.00035352911800146103 0.0 0.0 0.0 0.0
2.598 -0.10584630817174911 0.18210312724113464 -0.0002315659075975418 0.00026852265000343323 0.0 0.0 0.0 0.0
2.599 -0.10396948456764221 0.19102437794208527 -7.253419607877731e-05 0.0002067219465970993 0.0 0.0 0.0 0.0
2.6 -0.10767871141433716 0.19433937966823578 -7.399450987577438e-05 0.00018484052270650864 0.0 0.0 0.0 0.0
2.601 -0.10409200191497803 0.20624671876430511 -0.00013308878988027573 0.0002532787621021271 0.0 0.0 0.0 0.0
2.602 -0.11184243857860565 0.20775777101516724 -0.00018945615738630295 0.0003254227340221405 0.0 0.0 0.0 0.0
2.603 -0.11073547601699829 0.21661017835140228 -0.00011323299258947372 0.00042905472218990326 0.0 0.0 0.0 0.0
2.604 -0.11653454601764679 0.22010000050067902 -6.594974547624588e-05 0.0001285625621676445 0.0 0.0 0.0 0.0
2.605 -0.1116529032588005 0.22923091053962708 -0.00011088233441114426 0.00045004766434431076 0.0 0.0 0.0 0.0
2.606 -0.1124798059463501 0.23604387044906616 -0.00020443741232156754 0.00010558683425188065 0.0 0.0 0.0 0.0
2.607 -0.1126798763871193 0.2426917403936386 -6.724148988723755e-05 0.00029922742396593094 0.0 0.0 0.0 0.0
2.608 -0.1138484999537468 0.2471381425857544 7.736310362815857e-05 0.00024184398353099823 0.0 0.0 0.0 0.0
2.609 -0.11953423917293549 0.2520409822463989 0.0001271422952413559 0.0002649538218975067 0.0 0.0 0.0 0.0
2.61 -0.1084754541516304 0.26139724254608154 -1.0658986866474152e-05 0.000479280948638916 0.0 0.0 0.0 0.0
2.611 -0.11534491926431656 0.2662947177886963 3.67630273103714e-05 0.00026870332658290863 0.0 0.0 0.0 0.0
2.612 -0.11369144171476364 0.27400821447372437 -1.3376586139202118e-05 0.00039031822234392166 0.0 0.0 0.0 0.0
2.613 -0.11010687053203583 0.2823050916194916 -3.0547380447387695e-05 0.0002570599317550659 0.0 0.0 0.0 0.0
2.614 -0.11022183299064636 0.2864440977573395 -3.0549243092536926e-05 0.00010972097516059875 0.0 0.0 0.0 0.0
2.615 -0.11773890256881714 0.28934362530708313 0.0002193804830312729 0.0001322086900472641 0.0 0.0 0.0 0.0
2.616 -0.10961966216564178 0.29811474680900574 0.0002811998128890991 0.00014525745064020157 0.0 0.0 0.0 0.0
2.617 -0.11029399931430817 0.3058641850948334 0.0001378161832690239 0.00011439714580774307 0.0 0.0 0.0 0.0
2.618 -0.1093708947300911 0.3114386796951294 0.00016498006880283356 9.285286068916321e-05 0.0 0.0 0.0 0.0
2.619 -0.10334321856498718 0.31667864322662354 0.0002617277204990387 0.00013983342796564102 0.0 0.0 0.0 0.0
2.62 -0.1007947251200676 0.3239642381668091 -5.1818788051605225e-05 4.960596561431885e-05 0.0 0.0 0.0 0.0
2.621 -0.10218940675258636 0.32753682136535645 2.0301900804042816e-05 0.00010324176400899887 0.0 0.0 0.0 0.0
2.622 -0.10354294627904892 0.3336319029331207 0.000123610720038414 9.140558540821075e-05 0.0 0.0 0.0 0.0
2.623 -0.08763296902179718 0.34028366208076477 9.797420352697372e-05 1.3114884495735168e-05 0.0 0.0 0.0 0.0
2.624 -0.09525567293167114 0.3445654809474945 0.0001084841787815094 0.0002742558717727661 0.0 0.0 0.0 0.0
2.625 -0.09218954294919968 0.3492180407047272 0.00024456996470689774 0.0003167754039168358 0.0 0.0 0.0 0.0
2.626 -0.09185518324375153 0.35563090443611145 3.660190850496292e-05 0.00019547250121831894 0.0 0.0 0.0 0.0
2.627 -0.0817732959985733 0.36091962456703186 1.7881393432617188e-06 0.00041419174522161484 0.0 0.0 0.0 0.0
2.628 -0.09073848277330399 0.36524274945259094 6.742775440216064e-05 0.00010504946112632751 0.0 0.0 0.0 0.0
2.629 -0.07501260191202164 0.37246498465538025 0.00026611797511577606 0.0001720832660794258 0.0 0.0 0.0 0.0
2.63 -0.07502217590808868 0.3757379949092865 0.0001897476613521576 -1.4523975551128387e-05 0.0 0.0 0.0 0.0
2.631 -0.06753242015838623 0.3784494698047638 0.0003427267074584961 0.00025579240173101425 0.0 0.0 0.0 0.0
2.632 -0.06654844433069229 0.38617897033691406 0.0003044428303837776 0.00018396973609924316 0.0 0.0 0.0 0.0
2.633 -0.0628824532032013 0.38865232467651367 0.00010106898844242096 0.00017230119556188583 0.0 0.0 0.0 0.0
2.634 -0.04917838051915169 0.3939799964427948 0.00024250894784927368 0.0001917276531457901 0.0 0.0 0.0 0.0
2.635 -0.0557628758251667 0.39583566784858704 0.00013447832316160202 0.00019881222397089005 0.0 0.0 0.0 0.0
2.636 -0.04745699465274811 0.40120500326156616 0.00031857937574386597 4.597380757331848e-05 0.0 0.0 0.0 0.0
2.637 -0.05376238003373146 0.40239280462265015 0.00012525822967290878 0.00014872383326292038 0.0 0.0 0.0 0.0
2.638 -0.0369223989546299 0.4055868685245514 0.00015637557953596115 -8.97534191608429e-05 0.0 0.0 0.0 0.0
2.639 -0.04119231179356575 0.41209158301353455 0.0002173176035284996 0.00014252029359340668 0.0 0.0 0.0 0.0
2.64 -0.03469586744904518 0.4128171503543854 0.0004193810746073723 5.3824856877326965e-05 0.0 0.0 0.0 0.0
2.641 -0.030217373743653297 0.42010676860809326 -4.820898175239563e-05 -0.0001708678901195526 0.0 0.0 0.0 0.0
2.642 -0.019702661782503128 0.4223038852214813 0.00015321560204029083 0.0001387977972626686 0.0 0.0 0.0 0.0
2.643 -0.014441759325563908 0.42410367727279663 0.00012573972344398499 8.358247578144073e-05 0.0 0.0 0.0 0.0
2.644 -0.014719474129378796 0.42772790789604187 4.5969150960445404e-05 -0.00023700948804616928 0.0 0.0 0.0 0.0
2.645 -0.008430369198322296 0.4307573735713959 0.00012605544179677963 -0.00014235451817512512 0.0 0.0 0.0 0.0
2.646 0.001047404482960701 0.4334337115287781 0.00014715269207954407 -0.0001376839354634285 0.0 0.0 0.0 0.0
2.647 0.0038262661546468735 0.43646878004074097 -4.2244791984558105e-05 5.658343434333801e-05 0.0 0.0 0.0 0.0
2.648 0.009621531702578068 0.4378625750541687 0.000150168314576149 -8.26837494969368e-05 0.0 0.0 0.0 0.0
2.649 0.01039912085980177 0.43905410170555115 0.00030517391860485077 1.3314187526702881e-05 0.0 0.0 0.0 0.0
2.65 0.01782015711069107 0.4415653347969055 8.92123207449913e-05 5.315709859132767e-05 0.0 0.0 0.0 0.0
2.651 0.02602594532072544 0.44339632987976074 -3.1050294637680054e-06 8.286349475383759e-05 0.0 0.0 0.0 0.0
2.652 0.039855509996414185 0.44610774517059326 0.00010403990745544434 -0.0001367507502436638 0.0 0.0 0.0 0.0
2.653 0.03757009282708168 0.44629737734794617 6.646942347288132e-05 -0.0002451157197356224 0.0 0.0 0.0 0.0
2.654 0.0371093824505806 0.44815894961357117 4.90313395857811e-05 -0.00015786942094564438 0.0 0.0 0.0 0.0
2.655 0.05505254119634628 0.44660601019859314 0.0001696823164820671 6.479769945144653e-05 0.0 0.0 0.0 0.0
2.656 0.046917371451854706 0.44971317052841187 2.367328852415085e-05 -0.0001303255558013916 0.0 0.0 0.0 0.0
2.657 0.05658887326717377 0.45244646072387695 5.286186933517456e-06 -1.2694858014583588e-05 0.0 0.0 0.0 0.0
2.658 0.07193387299776077 0.4497181177139282 -7.4319541454315186e-06 -2.2637657821178436e-05 0.0 0.0 0.0 0.0
2.659 0.07593628764152527 0.4548446238040924 -0.0002978965640068054 -0.00019639451056718826 0.0 0.0 0.0 0.0
2.66 0.07383300364017487 0.452418714761734 4.7575682401657104e-05 -3.513786941766739e-05 0.0 0.0 0.0 0.0
2.661 0.07106265425682068 0.45184648036956787 0.00014640949666500092 -4.292000085115433e-05 0.0 0.0 0.0 0.0
2.662 0.08133870363235474 0.44839560985565186 -0.00025387387722730637 3.546290099620819e-05 0.0 0.0 0.0 0.0
2.663 0.08875582367181778 0.4539804458618164 -0.0001549525186419487 -0.00010245759040117264 0.0 0.0 0.0 0.0
2.664 0.10282725840806961 0.4521884322166443 0.0002157958224415779 -5.554128438234329e-05 0.0 0.0 0.0 0.0
2.665 0.09261306375265121 0.45613527297973633 -0.00015028472989797592 -4.6273693442344666e-05 0.0 0.0 0.0 0.0
2.666 0.11251093447208405 0.45123907923698425 2.825632691383362e-06 0.0001846104860305786 0.0 0.0 0.0 0.0
2.667 0.11443018168210983 0.44924396276474 7.17034563422203e-05 -4.172325134277344e-05 0.0 0.0 0.0 0.0
2.668 0.11746790260076523 0.4504452645778656 6.488803774118423e-05 5.680788308382034e-05 0.0 0.0 0.0 0.0
2.669 0.1274009346961975 0.45259562134742737 -0.00012098904699087143 -6.815418601036072e-06 0.0 0.0 0.0 0.0
2.67 0.12055300176143646 0.45271870493888855 -0.00038189254701137543 5.9655867516994476e-05 0.0 0.0 0.0 0.0
2.671 0.138767272233963 0.4426061511039734 -8.228514343500137e-05 0.0002732034772634506 0.0 0.0 0.0 0.0
2.672 0.13887538015842438 0.44542625546455383 1.3268552720546722e-05 0.00027381908148527145 0.0 0.0 0.0 0.0
2.673 0.15309523046016693 0.4444345533847809 -0.00011719111353158951 2.941582351922989e-05 0.0 0.0 0.0 0.0
2.674 0.1439204066991806 0.4423188865184784 -4.690326750278473e-05 0.0002706795930862427 0.0 0.0 0.0 0.0
2.675 0.15642580389976501 0.44077759981155396 -4.6771951019763947e-05 0.0003003738820552826 0.0 0.0 0.0 0.0
2.676 0.1721414029598236 0.43354856967926025 -5.415547639131546e-05 0.0002206210047006607 0.0 0.0 0.0 0.0
2.677 0.17084644734859467 0.43302834033966064 -0.00011452380567789078 1.387670636177063e-07 0.0 0.0 0.0 0.0
2.678 0.17132501304149628 0.4339248836040497 -4.7043897211551666e-05 0.00013430975377559662 0.0 0.0 0.0 0.0
2.679 0.18660274147987366 0.42673149704933167 -0.00025194790214300156 9.827781468629837e-05 0.0 0.0 0.0 0.0
2.68 0.18580037355422974 0.42437055706977844 0.00014032050967216492 0.0002431543543934822 0.0 0.0 0.0 0.0
2.681 0.18940895795822144 0.42602619528770447 -0.0002695666626095772 0.00011094100773334503 0.0 0.0 0.0 0.0
2.682 0.19857624173164368 0.42109790444374084 7.642712444067001e-05 0.00014462042599916458 0.0 0.0 0.0 0.0
2.683 0.19860772788524628 0.4202590882778168 -0.0001083938404917717 0.0004341471940279007 0.0 0.0 0.0 0.0
2.684 0.20430734753608704 0.4132641851902008 0.00022427737712860107 0.00011093169450759888 0.0 0.0 0.0 0.0
2.685 0.20797884464263916 0.41203930974006653 -4.2193569242954254e-05 0.00017327722162008286 0.0 0.0 0.0 0.0
2.686 0.21174311637878418 0.40343010425567627 0.00016791094094514847 0.00044818688184022903 0.0 0.0 0.0 0.0
2.687 0.20720383524894714 0.4108569025993347 7.974356412887573e-05 0.00015521235764026642 0.0 0.0 0.0 0.0
2.688 0.21782834827899933 0.3985772728919983 0.00023481342941522598 0.00026126299053430557 0.0 0.0 0.0 0.0
2.689 0.21923305094242096 0.40109091997146606 -1.7844140529632568e-06 0.0002029016613960266 0.0 0.0 0.0 0.0
2.69 0.22657983005046844 0.39448270201683044 0.00037149712443351746 0.0002534734085202217 0.0 0.0 0.0 0.0
2.691 0.22196920216083527 0.39718011021614075 0.0002857465296983719 0.0002505546435713768 0.0 0.0 0.0 0.0
2.692 0.23606036603450775 0.38530176877975464 0.0001703072339296341 0.0004405798390507698 0.0 0.0 0.0 0.0
2.693 0.2347409576177597 0.3844117224216461 -3.3639371395111084e-06 0.00019790511578321457 0.0 0.0 0.0 0.0
2.694 0.2507520318031311 0.37441620230674744 -0.00011084787547588348 0.00029948726296424866 0.0 0.0 0.0 0.0
2.695 0.2420983612537384 0.37312477827072144 0.00018046889454126358 0.00016600918024778366 0.0 0.0 0.0 0.0
2.696 0.2486138492822647 0.37182191014289856 7.848814129829407e-05 0.0002745185047388077 0.0 0.0 0.0 0.0
2.697 0.26381850242614746 0.3596743643283844 4.9445778131484985e-05 -3.1773000955581665e-05 0.0 0.0 0.0 0.0
2.698 0.2561854124069214 0.36381569504737854 -2.490915358066559e-05 0.000125199556350708 0.0 0.0 0.0 0.0
2.699 0.25859880447387695 0.355782687664032 0.00011822395026683807 6.795953959226608e-05 0.0 0.0 0.0 0.0
2.7 0.24785815179347992 0.35980042815208435 0.0003378177061676979 6.83516263961792e-05 0.0 0.0 0.0 0.0
2.701 0.26763907074928284 0.33971256017684937 0.000399978831410408 0.00010209623724222183 0.0 0.0 0.0 0.0
2.702 0.2649514079093933 0.34287551045417786 0.00028826016932725906 5.9905461966991425e-05 0.0 0.0 0.0 0.0
2.703 0.27957883477211 0.32816004753112793 8.957367390394211e-05 0.0002189362421631813 0.0 0.0 0.0 0.0
2.704 0.2658883035182953 0.3329426348209381 0.0003035403788089752 0.0002359030768275261 0.0 0.0 0.0 0.0
2.705 0.2758076786994934 0.32394200563430786 0.0004537748172879219 0.0002789488062262535 0.0 0.0 0.0 0.0
2.706 0.28277459740638733 0.3137713670730591 0.00038472283631563187 -2.442486584186554e-05 0.0 0.0 0.0 0.0
2.707 0.2835243344306946 0.3113058805465698 -2.069026231765747e-05 0.00013470742851495743 0.0 0.0 0.0 0.0
2.708 0.27435898780822754 0.3144492208957672 0.000344250351190567 8.215382695198059e-05 0.0 0.0 0.0 0.0
2.709 0.2916570007801056 0.2961280047893524 0.00031349528580904007 0.000260891392827034 0.0 0.0 0.0 0.0
2.71 0.28653475642204285 0.2932582199573517 0.00021865032613277435 0.00020425673574209213 0.0 0.0 0.0 0.0
2.711 0.28665533661842346 0.29281508922576904 0.00025660544633865356 0.0002945568412542343 0.0 0.0 0.0 0.0
2.712 0.2868606746196747 0.2842038571834564 0.00044579803943634033 0.0001745307818055153 0.0 0.0 0.0 0.0
2.713 0.28519105911254883 0.2812982499599457 0.0004900628700852394 1.0873191058635712e-05 0.0 0.0 0.0 0.0
2.714 0.29110389947891235 0.27055877447128296 0.0004714932292699814 7.212162017822266e-06 0.0 0.0 0.0 0.0
2.715 0.29005852341651917 0.2607506215572357 0.0002951165661215782 -2.348143607378006e-05 0.0 0.0 0.0 0.0
2.716 0.2970980405807495 0.25306859612464905 0.00040866993367671967 -0.00014604255557060242 0.0 0.0 0.0 0.0
2.717 0.2860676944255829 0.25647029280662537 0.0002512233331799507 -2.7006492018699646e-05 0.0 0.0 0.0 0.0
2.718 0.28740397095680237 0.25626304745674133 0.00017052795737981796 0.00011476967483758926 0.0 0.0 0.0 0.0
2.719 0.28908056020736694 0.24414809048175812 0.00020391400903463364 -1.2907199561595917e-05 0.0 0.0 0.0 0.0
2.72 0.29062387347221375 0.2341764271259308 0.0003880467265844345 -0.0003414209932088852 0.0 0.0 0.0 0.0
2.721 0.29154592752456665 0.2238016277551651 0.00046458374708890915 -6.035156548023224e-05 0.0 0.0 0.0 0.0
2.722 0.28780218958854675 0.22256486117839813 0.00037369783967733383 -0.0002502184361219406 0.0 0.0 0.0 0.0
2.723 0.28827646374702454 0.21420902013778687 1.2575648725032806e-05 0.0001673409715294838 0.0 0.0 0.0 0.0
2.724 0.2924969792366028 0.20245598256587982 0.0003209272399544716 -1.2897886335849762e-05 0.0 0.0 0.0 0.0
2.725 0.2894406020641327 0.1997026950120926 0.00027040205895900726 0.0002934504300355911 0.0 0.0 0.0 0.0
2.726 0.28535279631614685 0.1980445235967636 0.00022593513131141663 -0.00014433450996875763 0.0 0.0 0.0 0.0
2.727 0.2806616425514221 0.19172124564647675 0.00016958639025688171 0.00016944576054811478 0.0 0.0 0.0 0.0
2.728 0.28318890929222107 0.18312780559062958 0.0001981724053621292 -2.7514994144439697e-05 0.0 0.0 0.0 0.0
2.729 0.2823346257209778 0.17300797998905182 0.0005112839862704277 -0.0002173539251089096 0.0 0.0 0.0 0.0
2.73 0.2733931243419647 0.176610067486763 0.00023642554879188538 0.00015930365771055222 0.0 0.0 0.0 0.0
2.731 0.27551978826522827 0.16292564570903778 0.0003805439919233322 6.859377026557922e-05 0.0 0.0 0.0 0.0
2.732 0.2740723788738251 0.15733693540096283 0.00033487845212221146 -0.00014645326882600784 0.0 0.0 0.0 0.0
2.733 0.26613283157348633 0.1609823852777481 0.0004235450178384781 9.147915989160538e-05 0.0 0.0 0.0 0.0
2.734 0.2667863965034485 0.14600437879562378 0.00015601236373186111 2.4260953068733215e-05 0.0 0.0 0.0 0.0
2.735 0.2591109573841095 0.14672333002090454 0.0004302244633436203 -7.21784308552742e-05 0.0 0.0 0.0 0.0
2.736 0.26416224241256714 0.13057512044906616 0.00023947842419147491 -0.0002321004867553711 0.0 0.0 0.0 0.0
2.737 0.25183844566345215 0.13315735757350922 0.000291287899017334 -0.00010403431951999664 0.0 0.0 0.0 0.0
2.738 0.2518034875392914 0.12415334582328796 0.00041726045310497284 -4.802364856004715e-05 0.0 0.0 0.0 0.0
2.739 0.2447991818189621 0.12449761480093002 5.827751010656357e-05 -0.0002706823870539665 0.0 0.0 0.0 0.0
2.74 0.24616630375385284 0.11047779768705368 0.00015150196850299835 -4.244595766067505e-05 0.0 0.0 0.0 0.0
2.741 0.2358534187078476 0.11173809319734573 0.00015206076204776764 -0.00013453327119350433 0.0 0.0 0.0 0.0
2.742 0.234312042593956 0.10526999086141586 0.00037612486630678177 -6.595347076654434e-05 0.0 0.0 0.0 0.0
2.743 0.2249131053686142 0.1009223684668541 0.00017114169895648956 -4.0930695831775665e-05 0.0 0.0 0.0 0.0
2.744 0.22250063717365265 0.09325067698955536 9.469687938690186e-06 -0.0002146586775779724 0.0 0.0 0.0 0.0
2.745 0.21832507848739624 0.08543796837329865 6.44223764538765e-05 -0.00015599187463521957 0.0 0.0 0.0 0.0
2.746 0.2119615077972412 0.08513449877500534 0.000250387005507946 -0.00038595031946897507 0.0 0.0 0.0 0.0
2.747 0.20818069577217102 0.08159210532903671 0.00019988883286714554 3.8156285881996155e-06 0.0 0.0 0.0 0.0
2.748 0.1999637633562088 0.08361810445785522 0.00021515320986509323 0.00013900268822908401 0.0 0.0 0.0 0.0
2.749 0.19586016237735748 0.07180173695087433 2.337619662284851e-06 0.00012011080980300903 0.0 0.0 0.0 0.0
2.75 0.1887773722410202 0.07109219580888748 0.0002324674278497696 -8.158385753631592e-06 0.0 0.0 0.0 0.0
2.751 0.18243557214736938 0.06795239448547363 6.970111280679703e-05 -0.0002612704411149025 0.0 0.0 0.0 0.0
2.752 0.17694099247455597 0.0671735629439354 4.6226195991039276e-05 -9.807851165533066e-05 0.0 0.0 0.0 0.0
2.753 0.17056557536125183 0.05863812193274498 0.0001580147072672844 -0.00039211753755807877 0.0 0.0 0.0 0.0
2.754 0.1629466563463211 0.06483916193246841 0.00014381017535924911 -0.00013124477118253708 0.0 0.0 0.0 0.0
2.755 0.1568024903535843 0.05485476553440094 3.275834023952484e-05 -0.0003389734774827957 0.0 0.0 0.0 0.0
2.756 0.15214087069034576 0.05440282076597214 0.00010337866842746735 -0.00021869689226150513 0.0 0.0 0.0 0.0
2.757 0.14356808364391327 0.05441795289516449 0.00032842159271240234 -4.520546644926071e-05 0.0 0.0 0.0 0.0
2.758 0.13669313490390778 0.05016045644879341 0.00019618123769760132 -0.00030182208865880966 0.0 0.0 0.0 0.0
2.759 0.13271410763263702 0.04782941937446594 -0.00017028208822011948 -1.9064173102378845e-05 0.0 0.0 0.0 0.0
2.76 0.12342257797718048 0.04796532914042473 6.314646452665329e-05 -0.00015915650874376297 0.0 0.0 0.0 0.0
2.761 0.1179112046957016 0.046223171055316925 0.00011745840311050415 -0.00035792868584394455 0.0 0.0 0.0 0.0
2.762 0.11052466928958893 0.04647151008248329 -0.00012104213237762451 -0.00015620887279510498 0.0 0.0 0.0 0.0
2.763 0.1040811613202095 0.043276771903038025 -3.88268381357193e-05 -0.00019428785890340805 0.0 0.0 0.0 0.0
2.764 0.09843940287828445 0.04511954262852669 -3.347080200910568e-05 6.359070539474487e-06 0.0 0.0 0.0 0.0
2.765 0.09121042490005493 0.0430169403553009 0.0001288149505853653 -0.00014970451593399048 0.0 0.0 0.0 0.0
2.766 0.08321830630302429 0.04230675473809242 5.141738802194595e-05 -0.00030790921300649643 0.0 0.0 0.0 0.0
2.767 0.0768430233001709 0.0434616319835186 3.842543810606003e-05 -0.00017449911683797836 0.0 0.0 0.0 0.0
2.768 0.06973157823085785 0.04406106099486351 0.0002442141994833946 -0.00037351902574300766 0.0 0.0 0.0 0.0
2.769 0.06247315555810928 0.047118641436100006 -0.0001234970986843109 -0.00016145408153533936 0.0 0.0 0.0 0.0
2.77 0.056328918784856796 0.04713750630617142 -0.0001266784965991974 2.669449895620346e-05 0.0 0.0 0.0 0.0
2.771 0.04883536323904991 0.04841138422489166 -0.00020672660320997238 -0.00018365122377872467 0.0 0.0 0.0 0.0
2.772 0.040718503296375275 0.05138925090432167 0.0001180088147521019 -0.0001514861360192299 0.0 0.0 0.0 0.0
2.773 0.037798065692186356 0.05093497037887573 0.00014153402298688889 2.987496554851532e-05 0.0 0.0 0.0 0.0
2.774 0.029283538460731506 0.052333176136016846 2.5149434804916382e-05 -0.00013041961938142776 0.0 0.0 0.0 0.0
2.775 0.02320830151438713 0.057246625423431396 -0.000357896089553833 -0.0002865539863705635 0.0 0.0 0.0 0.0
2.776 0.01632264070212841 0.0585026852786541 -7.81351700425148e-05 -0.00017385650426149368 0.0 0.0 0.0 0.0
2.777 0.010687527246773243 0.06118827313184738 -0.0001726187765598297 -0.00048104114830493927 0.0 0.0 0.0 0.0
2.778 0.006176800467073917 0.06322874128818512 4.513375461101532e-05 -3.540515899658203e-05 0.0 0.0 0.0 0.0
2.779 -0.0009628813713788986 0.06557171791791916 0.00022973213344812393 -6.951112300157547e-05 0.0 0.0 0.0 0.0
2.78 -0.005852619186043739 0.07067430019378662 5.632638931274414e-06 -0.00010237656533718109 0.0 0.0 0.0 0.0
2.781 -0.01503332331776619 0.07328222692012787 9.788293391466141e-05 -0.0002097301185131073 0.0 0.0 0.0 0.0
2.782 -0.019107012078166008 0.0771578699350357 -0.000247810035943985 -0.00018698349595069885 0.0 0.0 0.0 0.0
2.783 -0.022969665005803108 0.0797622874379158 -8.545257151126862e-05 -9.342096745967865e-06 0.0 0.0 0.0 0.0
2.784 -0.027540884912014008 0.0844523012638092 0.00010090600699186325 -0.00019754935055971146 0.0 0.0 0.0 0.0
2.785 -0.03509102389216423 0.08831538259983063 -4.2508356273174286e-05 -0.00023774988949298859 0.0 0.0 0.0 0.0
2.786 -0.03754989057779312 0.09339714050292969 -0.00020641926676034927 0.0001337425783276558 0.0 0.0 0.0 0.0
2.787 -0.04285046085715294 0.09648032486438751 2.314802259206772e-05 -5.182530730962753e-05 0.0 0.0 0.0 0.0
2.788 -0.04836243391036987 0.09926578402519226 0.00014166533946990967 -0.000464574433863163 0.0 0.0 0.0 0.0
2.789 -0.05004294216632843 0.1063881367444992 -4.373304545879364e-05 2.5680288672447205e-05 0.0 0.0 0.0 0.0
2.79 -0.057479128241539 0.10897539556026459 -7.370486855506897e-06 0.000142538920044899 0.0 0.0 0.0 0.0
2.791 -0.06102297082543373 0.11331486701965332 -1.952052116394043e-06 -0.00012868456542491913 0.0 0.0 0.0 0.0
2.792 -0.06265883147716522 0.12143439054489136 -0.00041436124593019485 8.498318493366241e-05 0.0 0.0 0.0 0.0
2.793 -0.06540030986070633 0.12662957608699799 -0.0001275939866900444 -0.00011232495307922363 0.0 0.0 0.0 0.0
2.794 -0.0743056908249855 0.12762323021888733 0.00017115287482738495 -0.00020398758351802826 0.0 0.0 0.0 0.0
2.795 -0.0750078558921814 0.13371023535728455 0.00016953330487012863 -3.830995410680771e-05 0.0 0.0 0.0 0.0
2.796 -0.08067601919174194 0.13944287598133087 -6.479956209659576e-05 6.341654807329178e-05 0.0 0.0 0.0 0.0
2.797 -0.08251509815454483 0.14464248716831207 -0.00025441497564315796 -0.00022075604647397995 0.0 0.0 0.0 0.0
2.798 -0.08577992767095566 0.15023571252822876 -0.00018092337995767593 -0.00013569742441177368 0.0 0.0 0.0 0.0
2.799 -0.08674181997776031 0.1565907597541809 -3.61194834113121e-05 0.00019298121333122253 0.0 0.0 0.0 0.0
2.8 -0.09041103720664978 0.16183890402317047 2.2924505174160004e-05 6.59869983792305e-05 0.0 0.0 0.0 0.0
2.801 -0.09156125783920288 0.16777271032333374 -0.0002910168841481209 -0.00010881852358579636 0.0 0.0 0.0 0.0
2.802 -0.09993956983089447 0.16867563128471375 -0.00010782107710838318 -3.7929974496364594e-05 0.0 0.0 0.0 0.0
2.803 -0.09657672047615051 0.18087568879127502 -0.00037164799869060516 -4.7359615564346313e-05 0.0 0.0 0.0 0.0
2.804 -0.09760598838329315 0.18231168389320374 -0.000186980701982975 7.908046245574951e-05 0.0 0.0 0.0 0.0
2.805 -0.09399813413619995 0.1916036158800125 0.00022798404097557068 0.00015975907444953918 0.0 0.0 0.0 0.0
2.806 -0.10001098364591599 0.19462941586971283 -0.00014441180974245071 7.540173828601837e-05 0.0 0.0 0.0 0.0
2.807 -0.10620461404323578 0.19755946099758148 -0.00011697318404912949 0.00026824232190847397 0.0 0.0 0.0 0.0
2.808 -0.10101925581693649 0.20756661891937256 -0.00018784310668706894 0.0003227442502975464 0.0 0.0 0.0 0.0
2.809 -0.10425777733325958 0.21293377876281738 -0.00019525177776813507 1.1875294148921967e-05 0.0 0.0 0.0 0.0
2.81 -0.1030091792345047 0.2174195945262909 -7.674098014831543e-05 -0.00010196678340435028 0.0 0.0 0.0 0.0
2.811 -0.10570510476827621 0.22150270640850067 -2.9219314455986023e-05 0.00022016093134880066 0.0 0.0 0.0 0.0
2.812 -0.10182952880859375 0.23133595287799835 -0.0003462471067905426 6.762519478797913e-05 0.0 0.0 0.0 0.0
2.813 -0.1044374406337738 0.2328520566225052 -3.200862556695938e-05 7.212720811367035e-05 0.0 0.0 0.0 0.0
2.814 -0.10436439514160156 0.24152453243732452 -0.00017932988703250885 0.0004673292860388756 0.0 0.0 0.0 0.0
2.815 -0.10384006798267365 0.24520882964134216 -4.5435503125190735e-05 -6.069988012313843e-05 0.0 0.0 0.0 0.0
2.816 -0.09921469539403915 0.25168484449386597 0.0001390678808093071 0.0003439905121922493 0.0 0.0 0.0 0.0
2.817 -0.09387071430683136 0.2588427662849426 -8.393358439207077e-05 0.0001573357731103897 0.0 0.0 0.0 0.0
2.818 -0.10314441472291946 0.2613893151283264 0.00022282637655735016 0.0001866379752755165 0.0 0.0 0.0 0.0
2.819 -0.09862186014652252 0.26846909523010254 0.0001818481832742691 0.00016661081463098526 0.0 0.0 0.0 0.0
2.82 -0.11015825718641281 0.26986798644065857 -7.306225597858429e-05 0.00016211997717618942 0.0 0.0 0.0 0.0
2.821 -0.08964092284440994 0.28269848227500916 -2.0558945834636688e-05 0.0001741349697113037 0.0 0.0 0.0 0.0
2.822 -0.10051224380731583 0.28178736567497253 9.21003520488739e-05 0.00016620010137557983 0.0 0.0 0.0 0.0
2.823 -0.09530913829803467 0.2907285988330841 9.092316031455994e-05 -5.506351590156555e-05 0.0 0.0 0.0 0.0
2.824 -0.09572914987802505 0.2935916781425476 5.942396819591522e-05 6.875209510326385e-05 0.0 0.0 0.0 0.0
2.825 -0.08692368865013123 0.30012911558151245 0.0004772571846842766 8.321460336446762e-05 0.0 0.0 0.0 0.0
2.826 -0.09242235869169235 0.29881951212882996 0.00016852840781211853 0.00020623113960027695 0.0 0.0 0.0 0.0
2.827 -0.08446267247200012 0.30639946460723877 0.0004133181646466255 0.00027041416615247726 0.0 0.0 0.0 0.0
2.828 -0.0806918814778328 0.3121624290943146 0.00029960740357637405 0.00010323897004127502 0.0 0.0 0.0 0.0
2.829 -0.07750765234231949 0.3193832337856293 -8.991267532110214e-05 0.00035931915044784546 0.0 0.0 0.0 0.0
2.83 -0.07162792980670929 0.32023492455482483 0.0003427267074584961 -4.9715861678123474e-05 0.0 0.0 0.0 0.0
2.831 -0.07497157156467438 0.32297322154045105 0.00012622959911823273 0.00033087562769651413 0.0 0.0 0.0 0.0
2.832 -0.062010444700717926 0.3333408236503601 0.00011085532605648041 0.00023869425058364868 0.0 0.0 0.0 0.0
2.833 -0.06913349032402039 0.33225327730178833 0.0002316189929842949 0.00025823526084423065 0.0 0.0 0.0 0.0
2.834 -0.06133688613772392 0.3393228054046631 4.831980913877487e-05 -0.00023968517780303955 0.0 0.0 0.0 0.0
2.835 -0.06006908044219017 0.3416009843349457 0.0001570470631122589 2.7603469789028168e-05 0.0 0.0 0.0 0.0
2.836 -0.056242600083351135 0.3473408818244934 1.676846295595169e-05 -0.00015281978994607925 0.0 0.0 0.0 0.0
2.837 -0.05738076940178871 0.34814101457595825 0.00015779025852680206 -0.00020794477313756943 0.0 0.0 0.0 0.0
2.838 -0.04187553748488426 0.35176196694374084 0.00034469179809093475 2.1520070731639862e-05 0.0 0.0 0.0 0.0
2.839 -0.04720229282975197 0.3556334376335144 0.00024685170501470566 7.092021405696869e-06 0.0 0.0 0.0 0.0
2.84 -0.039200302213430405 0.36104556918144226 -0.0002089124172925949 -0.00016167201101779938 0.0 0.0 0.0 0.0
2.841 -0.045895837247371674 0.3602292239665985 0.0002395985648036003 -9.215902537107468e-05 0.0 0.0 0.0 0.0
2.842 -0.03704069182276726 0.36329442262649536 0.0005099643021821976 -0.00032860785722732544 0.0 0.0 0.0 0.0
2.843 -0.027278006076812744 0.36679232120513916 0.00021193921566009521 -3.405660390853882e-05 0.0 0.0 0.0 0.0
2.844 -0.01963202841579914 0.37123408913612366 0.00017066486179828644 -0.0004001632332801819 0.0 0.0 0.0 0.0
2.845 -0.020668186247348785 0.37171468138694763 4.144385457038879e-06 -0.0001092301681637764 0.0 0.0 0.0 0.0
2.846 -0.02247520163655281 0.3731507658958435 0.00045542046427726746 -0.0001616310328245163 0.0 0.0 0.0 0.0
2.847 -0.01098129153251648 0.37605196237564087 0.000241902656853199 1.9564293324947357e-05 0.0 0.0 0.0 0.0
2.848 -0.007026076316833496 0.37783083319664 -0.00010824762284755707 -0.0001455545425415039 0.0 0.0 0.0 0.0
2.849 -0.0020478805527091026 0.3791879713535309 1.7851591110229492e-05 -0.0002934550866484642 0.0 0.0 0.0 0.0
2.85 -0.013043923303484917 0.3821355402469635 0.0002592355012893677 -0.000215066596865654 0.0 0.0 0.0 0.0
2.851 0.009423603303730488 0.3846341669559479 -2.7096830308437347e-05 5.1227398216724396e-05 0.0 0.0 0.0 0.0
2.852 0.0062823183834552765 0.3841780126094818 0.00012965593487024307 -9.642448276281357e-05 0.0 0.0 0.0 0.0
2.853 -0.0033002514392137527 0.3858422338962555 -0.0001480206847190857 3.734510391950607e-05 0.0 0.0 0.0 0.0
2.854 0.021112222224473953 0.3868195414543152 -0.0001100664958357811 -0.00027282722294330597 0.0 0.0 0.0 0.0
2.855 0.016666634008288383 0.3885422348976135 0.00019742082804441452 -0.0005898373201489449 0.0 0.0 0.0 0.0
2.856 0.027945689857006073 0.38625457882881165 1.0230578482151031e-05 -6.444193422794342e-05 0.0 0.0 0.0 0.0
2.857 0.0325290746986866 0.3913489580154419 1.064687967300415e-05 -0.00036251358687877655 0.0 0.0 0.0 0.0
2.858 0.038618460297584534 0.3892429769039154 0.00012526195496320724 1.3268552720546722e-05 0.0 0.0 0.0 0.0
2.859 0.03824832662940025 0.3900160789489746 -0.00026210490614175797 -0.0002862401306629181 0.0 0.0 0.0 0.0
2.86 0.0487557090818882 0.3889038860797882 5.685538053512573e-05 -0.0005453461781144142 0.0 0.0 0.0 0.0
2.861 0.04676235839724541 0.3905692398548126 0.00025903526693582535 -0.00013024825602769852 0.0 0.0 0.0 0.0
2.862 0.06225859373807907 0.38783952593803406 0.00022531487047672272 -4.492606967687607e-05 0.0 0.0 0.0 0.0
2.863 0.05762658640742302 0.38679057359695435 0.0001430148258805275 -0.0002531725913286209 0.0 0.0 0.0 0.0
2.864 0.06684843450784683 0.38865557312965393 -4.100613296031952e-05 -0.000560300424695015 0.0 0.0 0.0 0.0
2.865 0.06038929894566536 0.3889436721801758 5.9421174228191376e-05 -9.950157254934311e-05 0.0 0.0 0.0 0.0
2.866 0.0722455084323883 0.38676509261131287 -0.0002898396924138069 -0.00038950610905885696 0.0 0.0 0.0 0.0
2.867 0.07865191996097565 0.38557085394859314 -1.9235536456108093e-05 -0.00010256748646497726 0.0 0.0 0.0 0.0
2.868 0.09687749296426773 0.3868843615055084 -0.00020419899374246597 -0.0005468586459755898 0.0 0.0 0.0 0.0
2.869 0.08767320215702057 0.3814237415790558 9.216554462909698e-05 -0.00011852197349071503 0.0 0.0 0.0 0.0
2.87 0.09006428718566895 0.38445425033569336 -0.0002276059240102768 -0.00041121337562799454 0.0 0.0 0.0 0.0
2.871 0.09786158800125122 0.38257449865341187 -0.0002682851627469063 -0.0002755653113126755 0.0 0.0 0.0 0.0
2.872 0.09868761897087097 0.3816956877708435 -6.129685789346695e-05 -0.0002987300977110863 0.0 0.0 0.0 0.0
2.873 0.10778184980154037 0.37899884581565857 -0.00039553362876176834 9.063538163900375e-05 0.0 0.0 0.0 0.0
2.874 0.10008921474218369 0.37946727871894836 -0.0002045975998044014 -2.573244273662567e-05 0.0 0.0 0.0 0.0
2.875 0.11740344762802124 0.3736751079559326 -8.485279977321625e-06 7.087085396051407e-05 0.0 0.0 0.0 0.0
2.876 0.11327610909938812 0.3723854124546051 0.00011008977890014648 -8.53734090924263e-05 0.0 0.0 0.0 0.0
2.877 0.11885715276002884 0.3711218535900116 -0.0003646640107035637 9.309500455856323e-05 0.0 0.0 0.0 0.0
2.878 0.12509286403656006 0.3644523024559021 -3.6384910345077515e-05 6.350968033075333e-05 0.0 0.0 0.0 0.0
2.879 0.13107424974441528 0.3655293583869934 8.477456867694855e-05 -0.0004486227408051491 0.0 0.0 0.0 0.0
2.88 0.12404780834913254 0.36237093806266785 -0.00021084677428007126 0.00011072494089603424 0.0 0.0 0.0 0.0
2.881 0.134425088763237 0.3605765998363495 -0.0004190942272543907 -0.00035879574716091156 0.0 0.0 0.0 0.0
2.882 0.1368088573217392 0.3582863509654999 0.00010356400161981583 -0.00015015434473752975 0.0 0.0 0.0 0.0
2.883 0.14758053421974182 0.35248491168022156 -0.0002842126414179802 0.00029316823929548264 0.0 0.0 0.0 0.0
2.884 0.14768707752227783 0.34853681921958923 -0.00017961952835321426 -0.00023917760699987411 0.0 0.0 0.0 0.0
2.885 0.14641962945461273 0.3500991761684418 -0.000280650332570076 8.292403072118759e-05 0.0 0.0 0.0 0.0
2.886 0.16364982724189758 0.3401414453983307 -3.885570913553238e-05 0.00013991538435220718 0.0 0.0 0.0 0.0
2.887 0.15664047002792358 0.3423178791999817 -0.00021294597536325455 -5.0798989832401276e-05 0.0 0.0 0.0 0.0
2.888 0.16132698953151703 0.3345669209957123 4.5437365770339966e-05 -0.0004328601062297821 0.0 0.0 0.0 0.0
2.889 0.16459211707115173 0.33182811737060547 -0.00014058779925107956 -4.2879022657871246e-05 0.0 0.0 0.0 0.0
2.89 0.1681455671787262 0.3283897638320923 -9.999703615903854e-05 -0.0004679672420024872 0.0 0.0 0.0 0.0
2.891 0.1657043993473053 0.3273461163043976 -0.00013463199138641357 -0.0001684008166193962 0.0 0.0 0.0 0.0
2.892 0.1765972226858139 0.3159414231777191 0.00040655676275491714 -1.862645149230957e-07 0.0 0.0 0.0 0.0
2.893 0.1747235208749771 0.3192644715309143 -0.00011771172285079956 -5.0337053835392e-05 0.0 0.0 0.0 0.0
2.894 0.17787502706050873 0.313543438911438 -0.0005006426945328712 0.00019845925271511078 0.0 0.0 0.0 0.0
2.895 0.17672573029994965 0.3113887906074524 -4.02769073843956e-05 -0.0002798391506075859 0.0 0.0 0.0 0.0
2.896 0.18020638823509216 0.30636054277420044 0.00020792800933122635 -0.00014860089868307114 0.0 0.0 0.0 0.0
2.897 0.18652057647705078 0.29935771226882935 -0.00017004366964101791 -0.00010941270738840103 0.0 0.0 0.0 0.0
2.898 0.19021105766296387 0.2901015877723694 3.134086728096008e-05 4.402175545692444e-05 0.0 0.0 0.0 0.0
2.899 0.18619778752326965 0.29059937596321106 -0.00019690953195095062 -0.0003192983567714691 0.0 0.0 0.0 0.0
2.9 0.18489691615104675 0.2890430688858032 -3.17087396979332e-05 -5.39170578122139e-05 0.0 0.0 0.0 0.0
2.901 0.1954870969057083 0.2807942032814026 -0.0004799133166670799 0.0002510193735361099 0.0 0.0 0.0 0.0
2.902 0.18742035329341888 0.2813855707645416 -0.0002522524446249008 -0.00029888376593589783 0.0 0.0 0.0 0.0
2.903 0.19117896258831024 0.27346137166023254 -5.385465919971466e-05 -0.0004554586485028267 0.0 0.0 0.0 0.0
2.904 0.19150210916996002 0.2688544988632202 -0.00010304711759090424 -2.310238778591156e-05 0.0 0.0 0.0 0.0
2.905 0.19388148188591003 0.2650189995765686 -0.0002950979396700859 -0.0004701893776655197 0.0 0.0 0.0 0.0
2.906 0.19273746013641357 0.25712504982948303 -8.28765332698822e-05 -0.0002526836469769478 0.0 0.0 0.0 0.0
2.907 0.19413526356220245 0.25284066796302795 5.25936484336853e-05 -0.00025202054530382156 0.0 0.0 0.0 0.0
2.908 0.19534774124622345 0.24760642647743225 7.235538214445114e-05 8.901860564947128e-05 0.0 0.0 0.0 0.0
2.909 0.19373781979084015 0.24360895156860352 -0.00039649568498134613 6.565731018781662e-05 0.0 0.0 0.0 0.0
2.91 0.19730708003044128 0.23760119080543518 -0.0004986906424164772 7.380172610282898e-05 0.0 0.0 0.0 0.0
2.911 0.1944439709186554 0.2322492152452469 -0.00029531121253967285 -8.824840188026428e-05 0.0 0.0 0.0 0.0
2.912 0.19306181371212006 0.227672278881073 -0.0003832820802927017 -5.3880736231803894e-05 0.0 0.0 0.0 0.0
2.913 0.19349294900894165 0.22466620802879333 -0.00034602265805006027 0.00019509624689817429 0.0 0.0 0.0 0.0
2.914 0.19459109008312225 0.21691742539405823 5.452893674373627e-05 0.00027440953999757767 0.0 0.0 0.0 0.0
2.915 0.18986980617046356 0.21405503153800964 -0.0002701384946703911 7.23171979188919e-05 0.0 0.0 0.0 0.0
2.916 0.19704261422157288 0.19949392974376678 6.887223571538925e-05 0.00024768058210611343 0.0 0.0 0.0 0.0
2.917 0.18854054808616638 0.2043292224407196 -0.000300566665828228 0.00033165421336889267 0.0 0.0 0.0 0.0
2.918 0.1861623376607895 0.20004118978977203 -0.00015910062938928604 -1.0533258318901062e-05 0.0 0.0 0.0 0.0
2.919 0.18877963721752167 0.18943339586257935 -0.0002828044816851616 0.00017942674458026886 0.0 0.0 0.0 0.0
2.92 0.18114688992500305 0.1920890212059021 -0.0004185410216450691 0.0004386063665151596 0.0 0.0 0.0 0.0
2.921 0.18370188772678375 0.18235278129577637 6.6123902797698975e-06 0.000253838486969471 0.0 0.0 0.0 0.0
2.922 0.17966227233409882 0.17825737595558167 -0.0002629784867167473 4.597008228302002e-06 0.0 0.0 0.0 0.0
2.923 0.17825238406658173 0.17662179470062256 -6.11972063779831e-05 0.0004396466538310051 0.0 0.0 0.0 0.0
2.924 0.17303794622421265 0.17343255877494812 -0.0001948196440935135 0.00018752552568912506 0.0 0.0 0.0 0.0
2.925 0.17146895825862885 0.16815021634101868 -0.00032985489815473557 0.00042184069752693176 0.0 0.0 0.0 0.0
2.926 0.1674380600452423 0.16402050852775574 -0.0001985635608434677 6.489269435405731e-05 0.0 0.0 0.0 0.0
2.927 0.1686902940273285 0.15737776458263397 -0.00021115504205226898 0.00051829032599926 0.0 0.0 0.0 0.0
2.928 0.1569192260503769 0.15825431048870087 -0.00022688228636980057 0.0002213548868894577 0.0 0.0 0.0 0.0
2.929 0.1621444970369339 0.14758582413196564 7.901433855295181e-05 0.0005523385480046272 0.0 0.0 0.0 0.0
2.93 0.15637050569057465 0.14431661367416382 -8.934736251831055e-05 4.090741276741028e-05 0.0 0.0 0.0 0.0
2.931 0.1546265333890915 0.14355139434337616 -0.0004783235490322113 0.0005834763869643211 0.0 0.0 0.0 0.0
2.932 0.1499910205602646 0.13706833124160767 -0.0003891242668032646 0.00018913205713033676 0.0 0.0 0.0 0.0
2.933 0.1455022245645523 0.13652731478214264 -9.166542440652847e-05 1.6111880540847778e-07 0.0 0.0 0.0 0.0
2.934 0.14527678489685059 0.12792210280895233 -0.00036321114748716354 0.0005244575440883636 0.0 0.0 0.0 0.0
2.935 0.13751867413520813 0.12898653745651245 -0.00014890730381011963 0.0005333796143531799 0.0 0.0 0.0 0.0
2.936 0.13528543710708618 0.1242842972278595 0.0001074429601430893 0.0005484959110617638 0.0 0.0 0.0 0.0
2.937 0.13019144535064697 0.11829894781112671 4.572421312332153e-05 0.00022317655384540558 0.0 0.0 0.0 0.0
2.938 0.12610822916030884 0.11701582372188568 0.0002601947635412216 0.00028661731630563736 0.0 0.0 0.0 0.0
2.939 0.1201663464307785 0.1155596524477005 5.6733377277851105e-05 0.0003970237448811531 0.0 0.0 0.0 0.0
2.94 0.11746497452259064 0.11428604274988174 0.00017613079398870468 0.0005818689242005348 0.0 0.0 0.0 0.0
2.941 0.11235029250383377 0.11114262789487839 -0.00017028767615556717 0.0004573361948132515 0.0 0.0 0.0 0.0
2.942 0.1063937097787857 0.10845678299665451 0.0002193814143538475 -8.868984878063202e-06 0.0 0.0 0.0 0.0
2.943 0.10234671831130981 0.10572250187397003 0.00027495529502630234 0.00018388591706752777 0.0 0.0 0.0 0.0
2.944 0.09878155589103699 0.10315454751253128 0.00021842774003744125 0.0006748735904693604 0.0 0.0 0.0 0.0
2.945 0.094129778444767 0.10045576840639114 9.488873183727264e-05 0.00023723486810922623 0.0 0.0 0.0 0.0
2.946 0.08914804458618164 0.0982389748096466 0.0001405002549290657 0.00025220122188329697 0.0 0.0 0.0 0.0
2.947 0.0845828503370285 0.09766963869333267 0.0005501667037606239 0.00039390847086906433 0.0 0.0 0.0 0.0
2.948 0.0775822326540947 0.09847039729356766 6.0930848121643066e-05 0.00045299530029296875 0.0 0.0 0.0 0.0
2.949 0.07418663054704666 0.09381640702486038 0.00039003416895866394 -5.2294693887233734e-05 0.0 0.0 0.0 0.0
2.95 0.0679333359003067 0.09449930489063263 0.00010361522436141968 0.000456453301012516 0.0 0.0 0.0 0.0
2.951 0.06192467361688614 0.09423811733722687 0.0005071107298135757 7.232371717691422e-05 0.0 0.0 0.0 0.0
2.952 0.05723948776721954 0.09468818455934525 0.0002930285409092903 0.0006070304661989212 0.0 0.0 0.0 0.0
2.953 0.05159293860197067 0.09443945437669754 -0.00012985896319150925 5.9409067034721375e-05 0.0 0.0 0.0 0.0
2.954 0.046472981572151184 0.09357620775699615 -9.64682549238205e-05 0.00028100889176130295 0.0 0.0 0.0 0.0
2.955 0.040424149483442307 0.09321366995573044 0.00025182124227285385 0.0005844328552484512 0.0 0.0 0.0 0.0
2.956 0.035904861986637115 0.09243281930685043 0.0003809211775660515 0.00020681880414485931 0.0 0.0 0.0 0.0
2.957 0.030369220301508904 0.09291331470012665 0.0002724630758166313 0.00043960195034742355 0.0 0.0 0.0 0.0
2.958 0.0269332118332386 0.09386727958917618 0.00021135900169610977 0.0006317412480711937 0.0 0.0 0.0 0.0
2.959 0.019525757059454918 0.09491431713104248 0.00021135900169610977 0.0001874975860118866 0.0 0.0 0.0 0.0
2.96 0.013494896702468395 0.09625314176082611 0.0001774802803993225 2.5659799575805664e-05 0.0 0.0 0.0 0.0
2.961 0.008061990141868591 0.09570997208356857 0.00033946242183446884 0.00037939753383398056 0.0 0.0 0.0 0.0
2.962 0.005934824235737324 0.09838388860225677 0.0002933358773589134 0.0006104167550802231 0.0 0.0 0.0 0.0
2.963 -5.596783012151718e-05 0.09836924821138382 0.00019493792206048965 0.0002873362973332405 0.0 0.0 0.0 0.0
2.964 -0.0027530770748853683 0.10048685222864151 0.00023728050291538239 0.0005893046036362648 0.0 0.0 0.0 0.0
2.965 -0.010426278226077557 0.10315997898578644 0.00018476508557796478 0.00036734621971845627 0.0 0.0 0.0 0.0
2.966 -0.01626015640795231 0.103981152176857 -3.8730911910533905e-05 8.982326835393906e-05 0.0 0.0 0.0 0.0
2.967 -0.01926904171705246 0.10556691139936447 0.0006081517785787582 0.00010407250374555588 0.0 0.0 0.0 0.0
2.968 -0.025598296895623207 0.10810422897338867 0.00031540263444185257 0.00027791503816843033 0.0 0.0 0.0 0.0
2.969 -0.02947692945599556 0.11112494766712189 0.0003874516114592552 0.0002874564379453659 0.0 0.0 0.0 0.0
2.97 -0.038203876465559006 0.11323921382427216 0.00020576827228069305 0.00017573032528162003 0.0 0.0 0.0 0.0
2.971 -0.03954329714179039 0.11479529738426208 0.0006862394511699677 5.2765943109989166e-05 0.0 0.0 0.0 0.0
2.972 -0.04418850690126419 0.11848827451467514 0.00045054033398628235 0.00019808020442724228 0.0 0.0 0.0 0.0
2.973 -0.04867933318018913 0.122377410531044 0.00044900644570589066 0.00042889639735221863 0.0 0.0 0.0 0.0
2.974 -0.05336449667811394 0.12348622828722 0.0004104599356651306 5.9866346418857574e-05 0.0 0.0 0.0 0.0
2.975 -0.05835285782814026 0.12809857726097107 0.0005232403054833412 0.0004070065915584564 0.0 0.0 0.0 0.0
2.976 -0.064405158162117 0.12991072237491608 0.000249435193836689 4.6450644731521606e-05 0.0 0.0 0.0 0.0
2.977 -0.06474235653877258 0.13434113562107086 0.0007220078259706497 2.2800639271736145e-05 0.0 0.0 0.0 0.0
2.978 -0.06898636370897293 0.14061538875102997 0.00017902906984090805 -0.00017577596008777618 0.0 0.0 0.0 0.0
2.979 -0.07173251360654831 0.14221088588237762 0.00025911908596754074 0.00043005961924791336 0.0 0.0 0.0 0.0
2.98 -0.07508023828268051 0.14917589724063873 0.00016872957348823547 -0.0002163611352443695 0.0 0.0 0.0 0.0
2.981 -0.08012624830007553 0.1512751579284668 0.00024906639009714127 -0.0003858208656311035 0.0 0.0 0.0 0.0
2.982 -0.07884407788515091 0.15551842749118805 0.000287872739136219 0.00018716510385274887 0.0 0.0 0.0 0.0
2.983 -0.08804721385240555 0.1569853276014328 0.000507032498717308 8.26176255941391e-06 0.0 0.0 0.0 0.0
2.984 -0.0851607471704483 0.16448621451854706 0.00046706199645996094 -0.00026281923055648804 0.0 0.0 0.0 0.0
2.985 -0.08750016242265701 0.16843324899673462 0.00012542307376861572 -0.0001619746908545494 0.0 0.0 0.0 0.0
2.986 -0.0937233492732048 0.17245890200138092 0.0003471681848168373 -0.00038963276892900467 0.0 0.0 0.0 0.0
2.987 -0.0958760529756546 0.17681695520877838 0.0003129979595541954 -0.00016570650041103363 0.0 0.0 0.0 0.0
2.988 -0.09561479836702347 0.1800869107246399 0.0005975477397441864 8.29789787530899e-05 0.0 0.0 0.0 0.0
2.989 -0.09869515895843506 0.18664264678955078 0.00024154596030712128 -6.880611181259155e-06 0.0 0.0 0.0 0.0
2.99 -0.09997127950191498 0.19228287041187286 -0.00013082381337881088 2.791173756122589e-06 0.0 0.0 0.0 0.0
2.991 -0.10010233521461487 0.19621238112449646 0.00024462584406137466 0.00014664791524410248 0.0 0.0 0.0 0.0
2.992 -0.1062915101647377 0.19906382262706757 0.00044030044227838516 -3.857724368572235e-05 0.0 0.0 0.0 0.0
2.993 -0.10469936579465866 0.2063114196062088 0.00032348744571208954 -0.0003672270104289055 0.0 0.0 0.0 0.0
2.994 -0.10358403623104095 0.21208645403385162 0.0003638463094830513 -0.00024214200675487518 0.0 0.0 0.0 0.0
2.995 -0.10790526121854782 0.21509520709514618 0.00035377033054828644 -0.00016162078827619553 0.0 0.0 0.0 0.0
2.996 -0.10954779386520386 0.21817854046821594 0.0003096116706728935 -0.00013174861669540405 0.0 0.0 0.0 0.0
2.997 -0.10635283589363098 0.22797058522701263 0.0002355417236685753 -0.0004349583759903908 0.0 0.0 0.0 0.0
2.998 -0.10965901613235474 0.23049700260162354 0.0001229122281074524 -0.0002595512196421623 0.0 0.0 0.0 0.0
2.999 -0.11303464323282242 0.23381972312927246 0.0006005354225635529 -3.3727847039699554e-05 0.0 0.0 0.0 0.0
3.0 -0.1113128662109375 0.24007242918014526 0.00040173064917325974 8.683092892169952e-05 0.0 0.0 0.0 0.0
3.001 -0.10658072680234909 0.24689210951328278 2.1784566342830658e-05 0.0001505538821220398 0.0 0.0 0.0 0.0
3.002 -0.11255098879337311 0.24823327362537384 -7.087644189596176e-05 -7.064081728458405e-05 0.0 0.0 0.0 0.0
3.003 -0.10814040154218674 0.25523725152015686 -0.0003245910629630089 -0.0002763383090496063 0.0 0.0 0.0 0.0
3.004 -0.11033839732408524 0.2589256465435028 0.00025966577231884 3.859400749206543e-06 0.0 0.0 0.0 0.0
3.005 -0.11147182434797287 0.2635462284088135 -0.0002690078690648079 -0.00011277198791503906 0.0 0.0 0.0 0.0
3.006 -0.10607866197824478 0.26861318945884705 0.00019206106662750244 -0.0004430348053574562 0.0 0.0 0.0 0.0
3.007 -0.11078967899084091 0.27030110359191895 0.0001586228609085083 0.00017169956117868423 0.0 0.0 0.0 0.0
3.008 -0.10388046503067017 0.27858006954193115 0.00011564325541257858 -0.00012051407247781754 0.0 0.0 0.0 0.0
3.009 -0.1046958640217781 0.28526604175567627 -0.00021445099264383316 -0.0002520093694329262 0.0 0.0 0.0 0.0
3.01 -0.10090761631727219 0.28909817337989807 -9.816884994506836e-05 -6.718654185533524e-05 0.0 0.0 0.0 0.0
3.011 -0.10453130304813385 0.29079899191856384 1.0021962225437164e-05 -0.00010736007243394852 0.0 0.0 0.0 0.0
3.012 -0.10537853837013245 0.29473963379859924 4.490837454795837e-06 -8.966121822595596e-05 0.0 0.0 0.0 0.0
3.013 -0.10212641954421997 0.3003638982772827 0.00018501095473766327 -0.00017801392823457718 0.0 0.0 0.0 0.0
3.014 -0.09829529374837875 0.3069603741168976 0.00023290328681468964 -0.00048344768583774567 0.0 0.0 0.0 0.0
3.015 -0.09960421919822693 0.30825334787368774 2.4189241230487823e-05 -7.021427154541016e-05 0.0 0.0 0.0 0.0
3.016 -0.09587740898132324 0.31310591101646423 0.00017333868891000748 -0.000256895087659359 0.0 0.0 0.0 0.0
3.017 -0.08929970860481262 0.31626415252685547 0.00011326558887958527 -0.00021709315478801727 0.0 0.0 0.0 0.0
3.018 -0.09054053574800491 0.3191815912723541 -0.00030588172376155853 5.1021575927734375e-05 0.0 0.0 0.0 0.0
3.019 -0.08362550288438797 0.3280414342880249 -9.123701602220535e-05 -0.0003615599125623703 0.0 0.0 0.0 0.0
3.02 -0.08688261359930038 0.3287152647972107 -0.0002822568640112877 -0.00022142566740512848 0.0 0.0 0.0 0.0
3.021 -0.07275253534317017 0.33536574244499207 -3.9667822420597076e-05 -0.00012871716171503067 0.0 0.0 0.0 0.0
3.022 -0.0799931064248085 0.3371473252773285 -0.00010974984616041183 -0.00025468505918979645 0.0 0.0 0.0 0.0
3.023 -0.07073727995157242 0.34274184703826904 -0.00020644068717956543 0.00015992578119039536 0.0 0.0 0.0 0.0
3.024 -0.07216952741146088 0.3476051986217499 -0.00034242402762174606 -0.00015782658010721207 0.0 0.0 0.0 0.0
3.025 -0.06603662669658661 0.3501076400279999 -0.00031756889075040817 -0.00040527526289224625 0.0 0.0 0.0 0.0
3.026 -0.06183762103319168 0.352789968252182 -0.00025029294192790985 -0.00031241588294506073 0.0 0.0 0.0 0.0
3.027 -0.06554702669382095 0.3554283678531647 -0.00019034836441278458 -0.0002536708489060402 0.0 0.0 0.0 0.0
3.028 -0.0525486022233963 0.3568996489048004 -0.00044948048889636993 -2.4053268134593964e-05 0.0 0.0 0.0 0.0
3.029 -0.05487414449453354 0.3610049784183502 -0.000151805579662323 -0.00017798319458961487 0.0 0.0 0.0 0.0
3.03 -0.052152007818222046 0.3644273281097412 -0.00018509849905967712 -9.386986494064331e-05 0.0 0.0 0.0 0.0
3.031 -0.049304038286209106 0.3668311834335327 -0.0001993812620639801 -4.644505679607391e-06 0.0 0.0 0.0 0.0
3.032 -0.03766300156712532 0.37132155895233154 -0.00029191840440034866 0.00012044142931699753 0.0 0.0 0.0 0.0
3.033 -0.03601973131299019 0.37090083956718445 -0.0002455301582813263 -3.4049153327941895e-05 0.0 0.0 0.0 0.0
3.034 -0.03009776398539543 0.37454909086227417 0.0003246404230594635 -0.00022753048688173294 0.0 0.0 0.0 0.0
3.035 -0.026722393929958344 0.37631937861442566 -0.00014162808656692505 -0.00025037769228219986 0.0 0.0 0.0 0.0
3.036 -0.01639254204928875 0.3768577575683594 -0.0004991879686713219 0.0002741226926445961 0.0 0.0 0.0 0.0
3.037 -0.018966231495141983 0.37847235798835754 0.00013421941548585892 6.318371742963791e-05 0.0 0.0 0.0 0.0
3.038 -0.017377136275172234 0.3826465904712677 0.00016484875231981277 -0.0001978585496544838 0.0 0.0 0.0 0.0
3.039 -0.01436562929302454 0.38312122225761414 7.470324635505676e-05 0.0001561380922794342 0.0 0.0 0.0 0.0
3.04 -0.006670779548585415 0.3859637975692749 -0.000293780118227005 0.00010566413402557373 0.0 0.0 0.0 0.0
3.041 0.0025126663967967033 0.3848128914833069 -0.00035647861659526825 8.190050721168518e-05 0.0 0.0 0.0 0.0
3.042 0.008483479730784893 0.3893562853336334 -0.00025134533643722534 -0.0002026306465268135 0.0 0.0 0.0 0.0
3.043 0.008966762572526932 0.3887961804866791 -1.65523961186409e-05 0.00029451679438352585 0.0 0.0 0.0 0.0
3.044 0.009196079336106777 0.3878302574157715 0.00012363679707050323 -1.6804784536361694e-05 0.0 0.0 0.0 0.0
3.045 0.025261137634515762 0.3920042812824249 -0.00036631524562835693 -6.457790732383728e-06 0.0 0.0 0.0 0.0
3.046 0.01914805918931961 0.39219483733177185 -8.788425475358963e-05 0.00020313169807195663 0.0 0.0 0.0 0.0
3.047 0.029148221015930176 0.39204639196395874 -0.00018446240574121475 0.0003179861232638359 0.0 0.0 0.0 0.0
3.048 0.027591142803430557 0.3896690607070923 6.772112101316452e-05 4.909001290798187e-05 0.0 0.0 0.0 0.0
3.049 0.03733071684837341 0.3924942910671234 -0.0002711741253733635 -0.0002018418163061142 0.0 0.0 0.0 0.0
3.05 0.037686560302972794 0.3917795419692993 5.368143320083618e-06 0.0003174571320414543 0.0 0.0 0.0 0.0
3.051 0.049360763281583786 0.3913116455078125 0.00015214644372463226 -0.0001407833769917488 0.0 0.0 0.0 0.0
3.052 0.052980780601501465 0.3905012011528015 -0.00010031182318925858 -0.00019997265189886093 0.0 0.0 0.0 0.0
3.053 0.0537816658616066 0.3932698667049408 8.89115035533905e-05 0.0004290500655770302 0.0 0.0 0.0 0.0
3.054 0.06428316235542297 0.38850533962249756 -0.00014244858175516129 -0.00020070839673280716 0.0 0.0 0.0 0.0
3.055 0.06546451151371002 0.39080971479415894 5.914643406867981e-05 -0.00011207908391952515 0.0 0.0 0.0 0.0
3.056 0.07038772106170654 0.3899671733379364 -0.0001699579879641533 0.0001203678548336029 0.0 0.0 0.0 0.0
3.057 0.06950327008962631 0.3894791305065155 -1.1615455150604248e-05 -6.835348904132843e-05 0.0 0.0 0.0 0.0
3.058 0.08286453038454056 0.384899765253067 -2.452172338962555e-05 -0.00016432255506515503 0.0 0.0 0.0 0.0
3.059 0.07797126471996307 0.38655468821525574 0.00031089968979358673 -3.198627382516861e-05 0.0 0.0 0.0 0.0
3.06 0.09732750803232193 0.38325390219688416 0.00011385511606931686 -4.596821963787079e-05 0.0 0.0 0.0 0.0
3.061 0.09343892335891724 0.38118693232536316 8.703209459781647e-05 0.0002812361344695091 0.0 0.0 0.0 0.0
3.062 0.09790031611919403 0.38150203227996826 -0.000377126969397068 3.787688910961151e-05 0.0 0.0 0.0 0.0
3.063 0.09984355419874191 0.37976178526878357 -1.4907680451869965e-05 0.0002910774201154709 0.0 0.0 0.0 0.0
3.064 0.10488955676555634 0.3800482153892517 -0.00016148388385772705 -5.147513002157211e-05 0.0 0.0 0.0 0.0
3.065 0.11579523235559464 0.37548837065696716 -0.000393083319067955 0.00013101845979690552 0.0 0.0 0.0 0.0
3.066 0.10711948573589325 0.3778279721736908 0.0001533888280391693 0.0002457601949572563 0.0 0.0 0.0 0.0
3.067 0.12398328632116318 0.3699740767478943 4.1027553379535675e-05 -0.00016400311142206192 0.0 0.0 0.0 0.0
3.068 0.12357401102781296 0.36986950039863586 -1.7697922885417938e-05 -3.415346145629883e-05 0.0 0.0 0.0 0.0
3.069 0.12766017019748688 0.3690625727176666 -0.0002078823745250702 0.0003291536122560501 0.0 0.0 0.0 0.0
3.07 0.13690249621868134 0.36163023114204407 0.00028723571449518204 6.680283695459366e-05 0.0 0.0 0.0 0.0
3.071 0.1358090192079544 0.3628445863723755 -0.0002395613119006157 -6.604380905628204e-05 0.0 0.0 0.0 0.0
3.072 0.14585597813129425 0.3554699420928955 -7.988698780536652e-05 0.00041255727410316467 0.0 0.0 0.0 0.0
3.073 0.14563192427158356 0.3561519980430603 9.455718100070953e-06 -0.00014206953346729279 0.0 0.0 0.0 0.0
3.074 0.15343278646469116 0.35082533955574036 -0.0002207113429903984 0.00021619070321321487 0.0 0.0 0.0 0.0
3.075 0.15659306943416595 0.3460356593132019 -0.00019445177167654037 0.00014263205230236053 0.0 0.0 0.0 0.0
3.076 0.16106317937374115 0.34414663910865784 -6.102025508880615e-05 0.0004142392426729202 0.0 0.0 0.0 0.0
3.077 0.15847459435462952 0.3409136235713959 -8.132867515087128e-05 0.00018990971148014069 0.0 0.0 0.0 0.0
3.078 0.16364054381847382 0.33901655673980713 -0.00019533652812242508 0.00013237260282039642 0.0 0.0 0.0 0.0
3.079 0.164814293384552 0.3336198627948761 0.0001330757513642311 0.00011931639164686203 0.0 0.0 0.0 0.0
3.08 0.17370456457138062 0.32832905650138855 -0.0002259938046336174 0.0003097979351878166 0.0 0.0 0.0 0.0
3.081 0.1671147346496582 0.3275710940361023 -0.00011791195720434189 0.00037421006709337234 0.0 0.0 0.0 0.0
3.082 0.17395001649856567 0.3221432566642761 0.0002525718882679939 -3.221537917852402e-05 0.0 0.0 0.0 0.0
3.083 0.18013133108615875 0.31583523750305176 -0.0003107096999883652 7.376912981271744e-05 0.0 0.0 0.0 0.0
3.084 0.1781238317489624 0.31855422258377075 -0.000291251577436924 -3.435090184211731e-05 0.0 0.0 0.0 0.0
3.085 0.188092902302742 0.30565905570983887 -0.00036616623401641846 0.00012775231152772903 0.0 0.0 0.0 0.0
3.086 0.18353785574436188 0.307606965303421 5.39049506187439e-06 -9.69497486948967e-05 0.0 0.0 0.0 0.0
3.087 0.19179688394069672 0.2964992821216583 8.111726492643356e-05 -5.817040801048279e-06 0.0 0.0 0.0 0.0
3.088 0.1897546350955963 0.29569485783576965 -0.00025152042508125305 0.00018709059804677963 0.0 0.0 0.0 0.0
3.089 0.19575250148773193 0.28833121061325073 0.00011354219168424606 -7.838383316993713e-05 0.0 0.0 0.0 0.0
3.09 0.19965800642967224 0.2824215590953827 -0.00021342746913433075 0.0001717451959848404 0.0 0.0 0.0 0.0
3.091 0.19621004164218903 0.2808166742324829 8.88509675860405e-05 -0.0001891516149044037 0.0 0.0 0.0 0.0
3.092 0.19660894572734833 0.2773709297180176 -0.00018464680761098862 -0.00012039486318826675 0.0 0.0 0.0 0.0
3.093 0.20355986058712006 0.27028578519821167 -0.00019344501197338104 0.00034085381776094437 0.0 0.0 0.0 0.0
3.094 0.2012556791305542 0.26451554894447327 0.00021938327699899673 0.00020070001482963562 0.0 0.0 0.0 0.0
3.095 0.20231899619102478 0.26370179653167725 -0.00026330165565013885 -2.2098422050476074e-05 0.0 0.0 0.0 0.0
3.096 0.20253320038318634 0.25665268301963806 -3.868807107210159e-05 -0.00020854081958532333 0.0 0.0 0.0 0.0
3.097 0.20293456315994263 0.25317978858947754 0.00018481165170669556 -0.00018843822181224823 0.0 0.0 0.0 0.0
3.098 0.20757976174354553 0.2458011656999588 0.00019038747996091843 0.00012065470218658447 0.0 0.0 0.0 0.0
3.099 0.20614226162433624 0.2421332746744156 0.00020835455507040024 -2.040993422269821e-05 0.0 0.0 0.0 0.0
3.1 0.21159130334854126 0.23446910083293915 0.00010923761874437332 0.00048702117055654526 0.0 0.0 0.0 0.0
3.101 0.2071913480758667 0.2308761477470398 0.00034768786281347275 1.8118880689144135e-05 0.0 0.0 0.0 0.0
3.102 0.2100273221731186 0.22569409012794495 -0.00017344485968351364 0.0003622407093644142 0.0 0.0 0.0 0.0
3.103 0.20546597242355347 0.22392165660858154 -0.00037137605249881744 0.0002714497968554497 0.0 0.0 0.0 0.0
3.104 0.20721003413200378 0.21446549892425537 7.90618360042572e-05 -0.00024000555276870728 0.0 0.0 0.0 0.0
3.105 0.2095777541399002 0.2081848829984665 -0.0003395797684788704 0.0003593824803829193 0.0 0.0 0.0 0.0
3.106 0.20381344854831696 0.20889122784137726 -0.00034607481211423874 9.901821613311768e-06 0.0 0.0 0.0 0.0
3.107 0.2066221833229065 0.19850769639015198 0.0002776319161057472 -1.2936070561408997e-06 0.0 0.0 0.0 0.0
3.108 0.20512546598911285 0.1970549076795578 0.00019688811153173447 0.000402865931391716 0.0 0.0 0.0 0.0
3.109 0.20469634234905243 0.18775790929794312 -5.717668682336807e-05 -0.00011732429265975952 0.0 0.0 0.0 0.0
3.11 0.20297323167324066 0.18658776581287384 -0.0003001652657985687 0.00026544276624917984 0.0 0.0 0.0 0.0
3.111 0.20475654304027557 0.17738647758960724 -0.00021091382950544357 -1.884251832962036e-05 0.0 0.0 0.0 0.0
3.112 0.20052504539489746 0.17524516582489014 -6.147753447294235e-05 0.00018436647951602936 0.0 0.0 0.0 0.0
3.113 0.20023442804813385 0.16690468788146973 0.0001491755247116089 -0.00031697843223810196 0.0 0.0 0.0 0.0
3.114 0.1989554911851883 0.16393046081066132 -0.0003226976841688156 0.0006210068240761757 0.0 0.0 0.0 0.0
3.115 0.19724245369434357 0.15866325795650482 0.00011528469622135162 0.0003739716485142708 0.0 0.0 0.0 0.0
3.116 0.195927694439888 0.15043383836746216 0.00012785941362380981 -0.0002769753336906433 0.0 0.0 0.0 0.0
3.117 0.19088561832904816 0.15086129307746887 7.422361522912979e-05 0.0004712836816906929 0.0 0.0 0.0 0.0
3.118 0.1911569982767105 0.14318712055683136 -0.00030803587287664413 0.00015839189291000366 0.0 0.0 0.0 0.0
3.119 0.18656155467033386 0.14034563302993774 0.00013590417802333832 -0.00021135155111551285 0.0 0.0 0.0 0.0
3.12 0.18731355667114258 0.13295602798461914 -0.0002017337828874588 0.00017184950411319733 0.0 0.0 0.0 0.0
3.121 0.18119937181472778 0.1307753622531891 -0.00019570626318454742 -0.00019919779151678085 0.0 0.0 0.0 0.0
3.122 0.18134699761867523 0.12311261147260666 0.0003475714474916458 0.00021336227655410767 0.0 0.0 0.0 0.0
3.123 0.17361071705818176 0.12199648469686508 -4.6584755182266235e-05 -0.0001270528882741928 0.0 0.0 0.0 0.0
3.124 0.17488619685173035 0.11494790017604828 0.0003646295517683029 0.00029061827808618546 0.0 0.0 0.0 0.0
3.125 0.1708284616470337 0.1141531690955162 7.80867412686348e-05 0.0005544647574424744 0.0 0.0 0.0 0.0
3.126 0.16786512732505798 0.10825223475694656 0.00036859046667814255 -0.00017494242638349533 0.0 0.0 0.0 0.0
3.127 0.16358473896980286 0.10515735298395157 0.00012690015137195587 0.00043961964547634125 0.0 0.0 0.0 0.0
3.128 0.15975891053676605 0.10064280033111572 -0.00018897559493780136 -0.00020065996795892715 0.0 0.0 0.0 0.0
3.129 0.15718989074230194 0.09662581980228424 0.00022523757070302963 0.0006052618846297264 0.0 0.0 0.0 0.0
3.13 0.15194879472255707 0.09451209753751755 -0.0004678182303905487 0.00021324213594198227 0.0 0.0 0.0 0.0
3.131 0.14791648089885712 0.09022343158721924 -0.00042916182428598404 -0.00015140138566493988 0.0 0.0 0.0 0.0
3.132 0.14369091391563416 0.08829694241285324 -0.00048271287232637405 0.0003134431317448616 0.0 0.0 0.0 0.0
3.133 0.13943225145339966 0.08179397881031036 3.0143186450004578e-05 -0.00028018001466989517 0.0 0.0 0.0 0.0
3.134 0.13553054630756378 0.08199014514684677 0.000110662542283535 0.00028737355023622513 0.0 0.0 0.0 0.0
3.135 0.13064545392990112 0.0771154910326004 -7.495284080505371e-06 -0.0003167111426591873 0.0 0.0 0.0 0.0
3.136 0.12664087116718292 0.0774201899766922 -6.370991468429565e-05 0.00040805060416460037 0.0 0.0 0.0 0.0
3.137 0.12162360548973083 0.07227212190628052 0.00013196934014558792 -0.0003886893391609192 0.0 0.0 0.0 0.0
3.138 0.11805319041013718 0.06908925622701645 0.00047838594764471054 -6.243307143449783e-05 0.0 0.0 0.0 0.0
3.139 0.11517824977636337 0.06760929524898529 -0.00021017249673604965 0.0002967221662402153 0.0 0.0 0.0 0.0
3.14 0.10765260457992554 0.06698467582464218 -0.00036433152854442596 -3.8217753171920776e-05 0.0 0.0 0.0 0.0
3.141 0.105010487139225 0.06351704150438309 8.498970419168472e-05 0.00042158085852861404 0.0 0.0 0.0 0.0
3.142 0.0980147272348404 0.06207417696714401 -0.0004767477512359619 -0.00017609354108572006 0.0 0.0 0.0 0.0
3.143 0.09337106347084045 0.060360923409461975 0.00011917669326066971 -0.0004677111282944679 0.0 0.0 0.0 0.0
3.144 0.08899707347154617 0.05887768417596817 -0.0005881916731595993 -6.919540464878082e-05 0.0 0.0 0.0 0.0
3.145 0.08332635462284088 0.0569380521774292 0.0001437189057469368 -0.00032503996044397354 0.0 0.0 0.0 0.0
3.146 0.08030803501605988 0.05467534065246582 0.00022966228425502777 0.00041666626930236816 0.0 0.0 0.0 0.0
3.147 0.07273764163255692 0.054560303688049316 -7.169041782617569e-05 -0.00027722492814064026 0.0 0.0 0.0 0.0
3.148 0.07029598206281662 0.05182524397969246 0.00012348219752311707 0.00043622031807899475 0.0 0.0 0.0 0.0
3.149 0.06362689286470413 0.05337624251842499 -0.0002692444249987602 -0.00021755322813987732 0.0 0.0 0.0 0.0
3.15 0.05687524378299713 0.05234946310520172 4.384852945804596e-05 -0.0004371087998151779 0.0 0.0 0.0 0.0
3.151 0.05388280376791954 0.05065378546714783 0.00036318693310022354 -0.00013535469770431519 0.0 0.0 0.0 0.0
3.152 0.0473179928958416 0.05129966884851456 -7.239077240228653e-05 -0.000242539681494236 0.0 0.0 0.0 0.0
3.153 0.04310709983110428 0.0507371611893177 0.00038080010563135147 -0.00015300605446100235 0.0 0.0 0.0 0.0
3.154 0.036834802478551865 0.05250981077551842 -0.00039180461317300797 0.0002294657751917839 0.0 0.0 0.0 0.0
3.155 0.031806156039237976 0.05173548310995102 0.00011566188186407089 -0.0004110559821128845 0.0 0.0 0.0 0.0
3.156 0.026764193549752235 0.05373585969209671 -0.0003906982019543648 -3.5783275961875916e-05 0.0 0.0 0.0 0.0
3.157 0.02192560024559498 0.053604211658239365 -0.0001530218869447708 -0.00023676268756389618 0.0 0.0 0.0 0.0
3.158 0.01799856498837471 0.05544007569551468 -0.00015264656394720078 0.00028792861849069595 0.0 0.0 0.0 0.0
3.159 0.012874681502580643 0.05766808241605759 -0.0004343278706073761 -0.00017809029668569565 0.0 0.0 0.0 0.0
3.16 0.007753412239253521 0.05792870372533798 -0.0004189843311905861 0.00032684486359357834 0.0 0.0 0.0 0.0
3.161 0.002128157764673233 0.05940024554729462 -0.00031644944101572037 -7.964950054883957e-05 0.0 0.0 0.0 0.0
3.162 -0.0007875999435782433 0.058337755501270294 0.0004049660637974739 0.0003002248704433441 0.0 0.0 0.0 0.0
3.163 -0.005916109308600426 0.062217023223638535 -0.0003087632358074188 0.00036266446113586426 0.0 0.0 0.0 0.0
3.164 -0.011465261690318584 0.0637965127825737 -0.0005797520279884338 -0.00038032233715057373 0.0 0.0 0.0 0.0
3.165 -0.01587601564824581 0.06610437482595444 -0.0004545263946056366 0.0003873314708471298 0.0 0.0 0.0 0.0
3.166 -0.01967570185661316 0.06837023049592972 -0.0004616566002368927 -0.00024544820189476013 0.0 0.0 0.0 0.0
3.167 -0.025538325309753418 0.06918296217918396 -1.5378929674625397e-05 -0.00034579169005155563 0.0 0.0 0.0 0.0
3.168 -0.027628527954220772 0.07369396835565567 -0.0005606533959507942 1.3933517038822174e-05 0.0 0.0 0.0 0.0
3.169 -0.034800611436367035 0.07406063377857208 -0.0002832738682627678 -0.00011263135820627213 0.0 0.0 0.0 0.0
3.17 -0.03690672665834427 0.07600576430559158 3.996770828962326e-05 0.00020534079521894455 0.0 0.0 0.0 0.0
3.171 -0.04274222254753113 0.0795067846775055 -0.0004382012411952019 -0.00016150716692209244 0.0 0.0 0.0 0.0
3.172 -0.04452074319124222 0.0816401019692421 0.0002768365666270256 4.9962662160396576e-05 0.0 0.0 0.0 0.0
3.173 -0.04798856005072594 0.08467399328947067 0.00017191562801599503 0.0002714395523071289 0.0 0.0 0.0 0.0
3.174 -0.05294918268918991 0.0881170779466629 -2.4493783712387085e-07 -0.00015845708549022675 0.0 0.0 0.0 0.0
3.175 -0.05584872141480446 0.09018256515264511 0.00032235588878393173 0.00018981937319040298 0.0 0.0 0.0 0.0
3.176 -0.05817168578505516 0.09533529728651047 2.5884248316287994e-05 0.0003534620627760887 0.0 0.0 0.0 0.0
3.177 -0.062135953456163406 0.09754133969545364 0.00030713435262441635 0.00037359818816185 0.0 0.0 0.0 0.0
3.178 -0.06583602726459503 0.1034710705280304 -0.0005492903292179108 0.00018168892711400986 0.0 0.0 0.0 0.0
3.179 -0.06743882596492767 0.10674800723791122 -0.0004064636304974556 0.0004283292219042778 0.0 0.0 0.0 0.0
3.18 -0.07255170494318008 0.10914962738752365 0.00024069007486104965 1.7113983631134033e-05 0.0 0.0 0.0 0.0
3.181 -0.07455755025148392 0.11526747047901154 -0.0003907540813088417 7.842667400836945e-06 0.0 0.0 0.0 0.0
3.182 -0.07917474210262299 0.1164584755897522 -0.00016254279762506485 -0.00014383625239133835 0.0 0.0 0.0 0.0
3.183 -0.08125270158052444 0.12055124342441559 -5.299784243106842e-05 9.667966514825821e-05 0.0 0.0 0.0 0.0
3.184 -0.08223026245832443 0.12577520310878754 -0.00042078178375959396 0.0004718927666544914 0.0 0.0 0.0 0.0
3.185 -0.08266479521989822 0.12858127057552338 0.00013250764459371567 0.00027760397642850876 0.0 0.0 0.0 0.0
3.186 -0.08866950869560242 0.13360880315303802 -0.0005033975467085838 6.520189344882965e-05 0.0 0.0 0.0 0.0
3.187 -0.08957254141569138 0.137045219540596 0.00013041961938142776 0.00017130840569734573 0.0 0.0 0.0 0.0
3.188 -0.09108496457338333 0.14309930801391602 -0.00044951122254133224 0.0006370339542627335 0.0 0.0 0.0 0.0
3.189 -0.08956125378608704 0.14834606647491455 -0.0002947552129626274 0.0005341144278645515 0.0 0.0 0.0 0.0
3.19 -0.09260843694210052 0.15093085169792175 0.00016231928020715714 0.0007097683846950531 0.0 0.0 0.0 0.0
3.191 -0.09450818598270416 0.155904158949852 0.000248124822974205 0.0002134367823600769 0.0 0.0 0.0 0.0
3.192 -0.09430532157421112 0.1596885621547699 0.00014352332800626755 0.0004990445449948311 0.0 0.0 0.0 0.0
3.193 -0.09740369766950607 0.1657409965991974 0.00020619016140699387 5.466863512992859e-05 0.0 0.0 0.0 0.0
3.194 -0.0970275029540062 0.17149408161640167 -0.0002856403589248657 2.3595988750457764e-05 0.0 0.0 0.0 0.0
3.195 -0.0995791032910347 0.17543961107730865 -0.00011488795280456543 7.542409002780914e-05 0.0 0.0 0.0 0.0
3.196 -0.09748651832342148 0.17931753396987915 0.0004235394299030304 0.0005145464092493057 0.0 0.0 0.0 0.0
3.197 -0.10075711458921432 0.1837744414806366 -0.00012986361980438232 2.3854896426200867e-05 0.0 0.0 0.0 0.0
3.198 -0.09873051941394806 0.18970230221748352 0.00018676277250051498 0.0001876726746559143 0.0 0.0 0.0 0.0
3.199 -0.10046613961458206 0.19078220427036285 0.0003558993339538574 0.00020185019820928574 0.0 0.0 0.0 0.0
3.2 -0.10004644840955734 0.2000104933977127 -0.000136595219373703 0.00023853778839111328 0.0 0.0 0.0 0.0
3.201 -0.09868986904621124 0.20172519981861115 0.0002847965806722641 -9.799376130104065e-06 0.0 0.0 0.0 0.0
3.202 -0.09836724400520325 0.20752732455730438 0.0002744346857070923 -2.660788595676422e-05 0.0 0.0 0.0 0.0
3.203 -0.09590273350477219 0.21095235645771027 0.00030662305653095245 0.0007075918838381767 0.0 0.0 0.0 0.0
3.204 -0.09701273590326309 0.21837632358074188 8.540879935026169e-05 -0.00014416128396987915 0.0 0.0 0.0 0.0
3.205 -0.09278988838195801 0.2215094119310379 0.0005294634029269218 0.000380062498152256 0.0 0.0 0.0 0.0
3.206 -0.09457259625196457 0.2259710133075714 -5.922280251979828e-06 0.0005592042580246925 0.0 0.0 0.0 0.0
3.207 -0.08904868364334106 0.22980405390262604 0.00016851816326379776 0.0008060522377490997 0.0 0.0 0.0 0.0
3.208 -0.09079315513372421 0.23425903916358948 6.622914224863052e-05 0.0006286371499300003 0.0 0.0 0.0 0.0
3.209 -0.08680147677659988 0.2406187504529953 9.59327444434166e-05 -6.539467722177505e-05 0.0 0.0 0.0 0.0
3.21 -0.08926457166671753 0.24183446168899536 0.00023895502090454102 0.0005816416814923286 0.0 0.0 0.0 0.0
3.211 -0.08272970467805862 0.24882397055625916 4.416331648826599e-06 6.058812141418457e-05 0.0 0.0 0.0 0.0
3.212 -0.08708076179027557 0.2502518892288208 1.2278556823730469e-05 -6.9471076130867e-05 0.0 0.0 0.0 0.0
3.213 -0.07938601076602936 0.2576305866241455 -0.00032975152134895325 0.0002975650131702423 0.0 0.0 0.0 0.0
3.214 -0.08240356296300888 0.25803327560424805 -0.00010977312922477722 -0.00012397393584251404 0.0 0.0 0.0 0.0
3.215 -0.07087518274784088 0.2636665403842926 0.0003246525302529335 0.00032484252005815506 0.0 0.0 0.0 0.0
3.216 -0.07088646292686462 0.26868146657943726 -0.0006455201655626297 9.571295231580734e-05 0.0 0.0 0.0 0.0
3.217 -0.07438942044973373 0.2698167860507965 0.0003076847642660141 1.0843388736248016e-05 0.0 0.0 0.0 0.0
3.218 -0.06588577479124069 0.27417176961898804 0.0003655971959233284 0.0005562780424952507 0.0 0.0 0.0 0.0
3.219 -0.06843055784702301 0.2773851454257965 -2.933293581008911e-05 0.00010600034147500992 0.0 0.0 0.0 0.0
3.22 -0.06243908405303955 0.279985249042511 0.00035071559250354767 0.0006112093105912209 0.0 0.0 0.0 0.0
3.221 -0.06063377857208252 0.2832711935043335 4.368182271718979e-05 0.000467861071228981 0.0 0.0 0.0 0.0
3.222 -0.055333446711301804 0.2869476079940796 0.0001303199678659439 0.0005504721775650978 0.0 0.0 0.0 0.0
3.223 -0.057054195553064346 0.2890600264072418 0.00023025460541248322 0.0004996601492166519 0.0 0.0 0.0 0.0
3.224 -0.04806504026055336 0.29440850019454956 -0.0002846522256731987 1.5194527804851532e-05 0.0 0.0 0.0 0.0
3.225 -0.046660784631967545 0.2961125373840332 0.00035619456321001053 -2.046395093202591e-05 0.0 0.0 0.0 0.0
3.226 -0.04209054633975029 0.29974430799484253 -0.00018793437629938126 0.00039890874177217484 0.0 0.0 0.0 0.0
3.227 -0.041036996990442276 0.30095329880714417 1.0798685252666473e-05 -3.7239864468574524e-05 0.0 0.0 0.0 0.0
3.228 -0.033053793013095856 0.3054584264755249 0.0001957230269908905 0.00011359527707099915 0.0 0.0 0.0 0.0
3.229 -0.03543984144926071 0.3079323172569275 -7.861293852329254e-05 -0.00019889790564775467 0.0 0.0 0.0 0.0
3.23 -0.02778501808643341 0.31095075607299805 2.5192275643348694e-05 3.810413181781769e-05 0.0 0.0 0.0 0.0
3.231 -0.022380059584975243 0.31113025546073914 -0.00014098454266786575 0.0007729651406407356 0.0 0.0 0.0 0.0
3.232 -0.017781123518943787 0.31441184878349304 0.00022906344383955002 0.0006075464189052582 0.0 0.0 0.0 0.0
3.233 -0.013344112783670425 0.31538230180740356 0.0005321446806192398 0.0007504848763346672 0.0 0.0 0.0 0.0
3.234 -0.012974121607840061 0.3182043731212616 -6.667524576187134e-05 -7.303617894649506e-05 0.0 0.0 0.0 0.0
3.235 -0.00893790926784277 0.31988492608070374 0.0001140199601650238 -0.00021360628306865692 0.0 0.0 0.0 0.0
3.236 -0.004674834199249744 0.32267501950263977 -5.371496081352234e-05 0.0004919571802020073 0.0 0.0 0.0 0.0
3.237 0.006341713480651379 0.3235614597797394 -4.098284989595413e-05 1.3988465070724487e-06 0.0 0.0 0.0 0.0
3.238 0.005381018854677677 0.32415521144866943 0.00010678544640541077 0.0006688358262181282 0.0 0.0 0.0 0.0
3.239 0.013344848528504372 0.3264070451259613 -0.00011637527495622635 -0.00011378247290849686 0.0 0.0 0.0 0.0
3.24 0.01161280833184719 0.3267308473587036 -4.996638745069504e-05 -1.7826445400714874e-05 0.0 0.0 0.0 0.0
3.241 0.02205810137093067 0.3291887044906616 -0.00017743371427059174 6.867479532957077e-05 0.0 0.0 0.0 0.0
3.242 0.023353705182671547 0.32928699254989624 0.0001559630036354065 0.0005329875275492668 0.0 0.0 0.0 0.0
3.243 0.02975950576364994 0.32847899198532104 3.0052848160266876e-05 -3.244727849960327e-06 0.0 0.0 0.0 0.0
3.244 0.03337806463241577 0.3287244439125061 0.0006649121642112732 0.0003203684464097023 0.0 0.0 0.0 0.0
3.245 0.03706822171807289 0.3308255970478058 -8.356943726539612e-05 -2.8682872653007507e-05 0.0 0.0 0.0 0.0
3.246 0.04666917771100998 0.32753095030784607 0.0002928953617811203 -4.196539521217346e-05 0.0 0.0 0.0 0.0
3.247 0.04355756938457489 0.33068186044692993 0.0005263704806566238 0.000520004890859127 0.0 0.0 0.0 0.0
3.248 0.0559159591794014 0.32923322916030884 -0.0001986352726817131 0.0004749549552798271 0.0 0.0 0.0 0.0
3.249 0.05485857278108597 0.3300720453262329 -0.0003125211223959923 -2.5888904929161072e-05 0.0 0.0 0.0 0.0
3.25 0.0654304176568985 0.3302105963230133 6.774906069040298e-05 0.0003203209489583969 0.0 0.0 0.0 0.0
3.251 0.06248147413134575 0.32922062277793884 -0.00017669983208179474 0.00044971704483032227 0.0 0.0 0.0 0.0
3.252 0.0775691419839859 0.3286565840244293 6.451737135648727e-05 0.0003614211454987526 0.0 0.0 0.0 0.0
3.253 0.07576271891593933 0.3288101255893707 3.409571945667267e-06 0.0005490109324455261 0.0 0.0 0.0 0.0
3.254 0.08301016688346863 0.3266359269618988 0.00022688135504722595 0.0002783332020044327 0.0 0.0 0.0 0.0
3.255 0.08618546277284622 0.3258729875087738 0.00035246554762125015 0.0008736914023756981 0.0 0.0 0.0 0.0
3.256 0.0910080224275589 0.32525983452796936 -0.00014511123299598694 0.0003279149532318115 0.0 0.0 0.0 0.0
3.257 0.09832508116960526 0.322498083114624 -0.00015145819634199142 0.00046641193330287933 0.0 0.0 0.0 0.0
3.258 0.09738848358392715 0.3226394057273865 0.00034536421298980713 0.00040868204087018967 0.0 0.0 0.0 0.0
3.259 0.10570330917835236 0.3205684423446655 -7.127970457077026e-05 -2.451986074447632e-05 0.0 0.0 0.0 0.0
3.26 0.10512902587652206 0.32060179114341736 2.885144203901291e-05 -0.00012654531747102737 0.0 0.0 0.0 0.0
3.261 0.11774594336748123 0.3146473467350006 0.00018279533833265305 -7.698033004999161e-05 0.0 0.0 0.0 0.0
3.262 0.11321411281824112 0.3151855766773224 5.862768739461899e-05 -8.860137313604355e-05 0.0 0.0 0.0 0.0
3.263 0.12376266717910767 0.3108440339565277 0.0006210580468177795 9.208451956510544e-05 0.0 0.0 0.0 0.0
3.264 0.12779538333415985 0.3100438117980957 -0.0002456633374094963 0.0002536065876483917 0.0 0.0 0.0 0.0
3.265 0.1364762932062149 0.30641815066337585 0.0004061674699187279 0.0005292706191539764 0.0 0.0 0.0 0.0
3.266 0.1341969072818756 0.3046967685222626 0.0007902644574642181 0.00031973421573638916 0.0 0.0 0.0 0.0
3.267 0.13925519585609436 0.30351266264915466 0.0004641469568014145 0.00025221891701221466 0.0 0.0 0.0 0.0
3.268 0.142670676112175 0.3015003204345703 0.0006990144029259682 0.00019445642828941345 0.0 0.0 0.0 0.0
3.269 0.14522074162960052 0.29840582609176636 0.0006359918043017387 0.00021090824156999588 0.0 0.0 0.0 0.0
3.27 0.15199120342731476 0.29302674531936646 -6.929785013198853e-05 -0.00025269482284784317 0.0 0.0 0.0 0.0
3.271 0.15177826583385468 0.2937234342098236 0.00028785131871700287 -0.00011669844388961792 0.0 0.0 0.0 0.0
3.272 0.16021227836608887 0.2888718843460083 0.0001332852989435196 0.0004135044291615486 0.0 0.0 0.0 0.0
3.273 0.16201041638851166 0.286648154258728 -4.5495107769966125e-05 5.7042576372623444e-05 0.0 0.0 0.0 0.0
3.274 0.16694776713848114 0.2833717167377472 -3.795325756072998e-05 0.0002080695703625679 0.0 0.0 0.0 0.0
3.275 0.16846996545791626 0.2807256877422333 0.00010617543011903763 0.00047155655920505524 0.0 0.0 0.0 0.0
3.276 0.1756509244441986 0.27326279878616333 0.0002403203397989273 -0.00019426271319389343 0.0 0.0 0.0 0.0
3.277 0.17478036880493164 0.2708597481250763 0.0006521865725517273 0.00012237951159477234 0.0 0.0 0.0 0.0
3.278 0.18114545941352844 0.26859769225120544 0.0001875525340437889 0.00019819661974906921 0.0 0.0 0.0 0.0
3.279 0.18278393149375916 0.262440025806427 0.00043567828834056854 -0.0005189310759305954 0.0 0.0 0.0 0.0
3.28 0.18565009534358978 0.2625160217285156 -0.0002878345549106598 0.00019221007823944092 0.0 0.0 0.0 0.0
3.281 0.19016148149967194 0.2554321885108948 0.0006988039240241051 0.00022298749536275864 0.0 0.0 0.0 0.0
3.282 0.18999378383159637 0.25428250432014465 0.0001348080113530159 0.0004245685413479805 0.0 0.0 0.0 0.0
3.283 0.19598935544490814 0.24590334296226501 -0.00028983503580093384 -0.00022180844098329544 0.0 0.0 0.0 0.0
3.284 0.19522690773010254 0.24522462487220764 2.1122395992279053e-05 0.00037063658237457275 0.0 0.0 0.0 0.0
3.285 0.2015518993139267 0.23767295479774475 0.0005412697792053223 0.0002567926421761513 0.0 0.0 0.0 0.0
3.286 0.19664491713047028 0.23788535594940186 1.9741244614124298e-05 -0.0002171192318201065 0.0 0.0 0.0 0.0
3.287 0.20519158244132996 0.2315017282962799 -0.00019419286400079727 -3.939680755138397e-05 0.0 0.0 0.0 0.0
3.288 0.20414583384990692 0.22647126019001007 0.00022396352142095566 -0.0001008305698633194 0.0 0.0 0.0 0.0
3.289 0.20822910964488983 0.22208592295646667 -0.000108315609395504 -0.000462397001683712 0.0 0.0 0.0 0.0
3.29 0.21112123131752014 0.21563464403152466 -5.5369921028614044e-05 0.00024446286261081696 0.0 0.0 0.0 0.0
3.291 0.21097250282764435 0.21223920583724976 0.0005244789645075798 -0.00019141007214784622 0.0 0.0 0.0 0.0
3.292 0.21394816040992737 0.2052306830883026 0.00032341480255126953 -0.00041399989277124405 0.0 0.0 0.0 0.0
3.293 0.21315686404705048 0.20417620241641998 0.0004667947068810463 -1.3345852494239807e-06 0.0 0.0 0.0 0.0
3.294 0.21573570370674133 0.19799764454364777 -4.9388036131858826e-06 -0.00027692411094903946 0.0 0.0 0.0 0.0
3.295 0.21321699023246765 0.19701671600341797 -0.0001141577959060669 -0.0002278825268149376 0.0 0.0 0.0 0.0
3.296 0.2213384509086609 0.18776483833789825 0.000247390940785408 0.000245104543864727 0.0 0.0 0.0 0.0
3.297 0.21695497632026672 0.18696027994155884 -0.00037942640483379364 0.00020437967032194138 0.0 0.0 0.0 0.0
3.298 0.2220049649477005 0.17929355800151825 0.00019529927521944046 9.710155427455902e-05 0.0 0.0 0.0 0.0
3.299 0.22105373442173004 0.17559951543807983 0.00017454195767641068 0.0005837101489305496 0.0 0.0 0.0 0.0
3.3 0.2188309282064438 0.1699846237897873 -0.00018707476556301117 -0.00026499293744564056 0.0 0.0 0.0 0.0
3.301 0.22150462865829468 0.16554251313209534 -0.00016916543245315552 0.00023618154227733612 0.0 0.0 0.0 0.0
3.302 0.22130896151065826 0.16258971393108368 0.0003829142078757286 0.0002909712493419647 0.0 0.0 0.0 0.0
3.303 0.2241206020116806 0.15294335782527924 0.00015028100460767746 0.00032821670174598694 0.0 0.0 0.0 0.0
3.304 0.22114035487174988 0.15335597097873688 0.00038049835711717606 0.0003812946379184723 0.0 0.0 0.0 0.0
3.305 0.22257180511951447 0.14267730712890625 0.0003795940428972244 -0.00041561946272850037 0.0 0.0 0.0 0.0
3.306 0.22179679572582245 0.14304973185062408 0.0005891826003789902 0.00018588919192552567 0.0 0.0 0.0 0.0
3.307 0.22431673109531403 0.1334480196237564 -6.141606718301773e-05 0.00016316119581460953 0.0 0.0 0.0 0.0
3.308 0.21779365837574005 0.13242876529693604 -2.7978792786598206e-05 -0.00039558764547109604 0.0 0.0 0.0 0.0
3.309 0.22325663268566132 0.12568071484565735 -0.00011035986244678497 0.00018976908177137375 0.0 0.0 0.0 0.0
3.31 0.21653065085411072 0.12364998459815979 -0.00028117187321186066 -0.0003351625055074692 0.0 0.0 0.0 0.0
3.311 0.21737857162952423 0.11459681391716003 0.00022885762155056 -0.00032988935708999634 0.0 0.0 0.0 0.0
3.312 0.21748889982700348 0.1125529557466507 -0.00024373922497034073 -5.3063035011291504e-05 0.0 0.0 0.0 0.0
3.313 0.21524012088775635 0.10768019407987595 5.152076482772827e-05 -0.0004323069006204605 0.0 0.0 0.0 0.0
3.314 0.21523018181324005 0.10003332048654556 0.0005397368222475052 -0.0003466391935944557 0.0 0.0 0.0 0.0
3.315 0.21381376683712006 0.0996045246720314 -0.00019369181245565414 -0.00023377221077680588 0.0 0.0 0.0 0.0
3.316 0.21089056134223938 0.09183277189731598 9.920913726091385e-05 -0.0007429858669638634 0.0 0.0 0.0 0.0
3.317 0.21229863166809082 0.08951439708471298 0.00036085862666368484 0.0002809353172779083 0.0 0.0 0.0 0.0
3.318 0.2088606357574463 0.08409474045038223 -0.00024684425443410873 -0.0003074305132031441 0.0 0.0 0.0 0.0
3.319 0.20646880567073822 0.08171205222606659 0.0002015046775341034 -0.00035887863487005234 0.0 0.0 0.0 0.0
3.32 0.20595230162143707 0.07594373822212219 0.0003863628953695297 0.00020327512174844742 0.0 0.0 0.0 0.0
3.321 0.20319026708602905 0.07245758175849915 0.00038102827966213226 -0.0005492838099598885 0.0 0.0 0.0 0.0
3.322 0.20403610169887543 0.06588849425315857 0.00011215917766094208 0.00020080897957086563 0.0 0.0 0.0 0.0
3.323 0.20036999881267548 0.06335481256246567 0.00015422049909830093 -0.00037810299545526505 0.0 0.0 0.0 0.0
3.324 0.1966446042060852 0.05559104308485985 0.00012078788131475449 -0.0006391238421201706 0.0 0.0 0.0 0.0
3.325 0.1940135359764099 0.055551111698150635 0.00034003332257270813 -8.508563041687012e-05 0.0 0.0 0.0 0.0
3.326 0.19131961464881897 0.052009548991918564 -0.0004251757636666298 -0.0004051271826028824 0.0 0.0 0.0 0.0
3.327 0.190679669380188 0.04837094619870186 0.0002562450245022774 0.0002398025244474411 0.0 0.0 0.0 0.0
3.328 0.18654364347457886 0.0466354675590992 -0.0003535281866788864 -0.00027346983551979065 0.0 0.0 0.0 0.0
3.329 0.18418928980827332 0.04042861983180046 -0.00027313269674777985 0.0004210621118545532 0.0 0.0 0.0 0.0
3.33 0.18000927567481995 0.036202166229486465 0.0003711460158228874 -0.0002583032473921776 0.0 0.0 0.0 0.0
3.331 0.17583216726779938 0.036046527326107025 -0.0007315361872315407 -0.0006507197394967079 0.0 0.0 0.0 0.0
3.332 0.17265917360782623 0.02919825352728367 -0.00012138765305280685 -0.0003665583208203316 0.0 0.0 0.0 0.0
3.333 0.1697125881910324 0.028870632871985435 -0.0005653509870171547 3.6733224987983704e-05 0.0 0.0 0.0 0.0
3.334 0.16587287187576294 0.025852145627141 -7.641129195690155e-05 -0.000112852081656456 0.0 0.0 0.0 0.0
3.335 0.16498582065105438 0.021948402747511864 -0.0005483943969011307 8.122064173221588e-06 0.0 0.0 0.0 0.0
3.336 0.16075992584228516 0.016793079674243927 0.00030221976339817047 -0.0004200451076030731 0.0 0.0 0.0 0.0
3.337 0.15552443265914917 0.015144756063818932 -0.0004430534318089485 -0.0007179705426096916 0.0 0.0 0.0 0.0
3.338 0.15204913914203644 0.010383404791355133 0.0002630865201354027 -0.0007194513455033302 0.0 0.0 0.0 0.0
3.339 0.14817364513874054 0.011178553104400635 -0.00037484895437955856 -0.00023721996694803238 0.0 0.0 0.0 0.0
3.34 0.14639081060886383 0.008903801441192627 -0.00022437050938606262 0.0002555595710873604 0.0 0.0 0.0 0.0
3.341 0.14143076539039612 0.005057699047029018 0.00014713406562805176 -0.0005121873691678047 0.0 0.0 0.0 0.0
3.342 0.1362311840057373 0.00277910940349102 -0.00036352965980768204 -0.0008677560836076736 0.0 0.0 0.0 0.0
3.343 0.13415096700191498 0.0018450580537319183 0.00011991988867521286 -0.0006694532930850983 0.0 0.0 0.0 0.0
3.344 0.12766344845294952 0.0004228129982948303 -0.0005388399586081505 -0.0003711925819516182 0.0 0.0 0.0 0.0
3.345 0.12485195696353912 -0.0015497701242566109 -0.0002435576170682907 -0.0006043389439582825 0.0 0.0 0.0 0.0
3.346 0.12291111052036285 -0.004165663383901119 0.00024259090423583984 0.00015591364353895187 0.0 0.0 0.0 0.0
3.347 0.11524470150470734 -0.002259325236082077 -0.0005130395293235779 -0.0005456302314996719 0.0 0.0 0.0 0.0
3.348 0.11342819780111313 -0.010288677178323269 0.0002016909420490265 -0.0001945793628692627 0.0 0.0 0.0 0.0
3.349 0.10981280356645584 -0.007889527827501297 0.00014508794993162155 -0.0005412865430116653 0.0 0.0 0.0 0.0
3.35 0.10569702833890915 -0.006223554722964764 -0.00061834417283535 -0.0002317093312740326 0.0 0.0 0.0 0.0
3.351 0.10280819237232208 -0.00856027752161026 -0.00027763377875089645 0.0003732498735189438 0.0 0.0 0.0 0.0
3.352 0.09802332520484924 -0.009498958475887775 -0.00036066118627786636 0.00020994246006011963 0.0 0.0 0.0 0.0
3.353 0.09057443588972092 -0.01083308458328247 -0.0006152670830488205 -0.0008347555994987488 0.0 0.0 0.0 0.0
3.354 0.08842439949512482 -0.011439462192356586 0.00016502011567354202 -0.0002218969166278839 0.0 0.0 0.0 0.0
3.355 0.08285555988550186 -0.010842278599739075 -0.0009650690481066704 -0.0003685103729367256 0.0 0.0 0.0 0.0
3.356 0.07899167388677597 -0.011265548877418041 -0.000522589311003685 -0.0004481496289372444 0.0 0.0 0.0 0.0
3.357 0.07633022218942642 -0.011489243246614933 -0.0007248073816299438 7.272697985172272e-06 0.0 0.0 0.0 0.0
3.358 0.07011935114860535 -0.009839811362326145 -0.0006223535165190697 -0.0003810534253716469 0.0 0.0 0.0 0.0
3.359 0.06591656059026718 -0.012372825294733047 -2.517830580472946e-05 -0.0004968177527189255 0.0 0.0 0.0 0.0
3.36 0.06399158388376236 -0.008710254915058613 -0.000493922270834446 0.00012858211994171143 0.0 0.0 0.0 0.0
3.361 0.05733512341976166 -0.009855040349066257 -0.000677165575325489 -0.0004679197445511818 0.0 0.0 0.0 0.0
3.362 0.05412726476788521 -0.011569259688258171 -0.00024011079221963882 -0.0005566896870732307 0.0 0.0 0.0 0.0
3.363 0.052080027759075165 -0.007281391881406307 -0.0008603008463978767 2.5989487767219543e-05 0.0 0.0 0.0 0.0
3.364 0.045982591807842255 -0.009353487752377987 -0.00035412050783634186 -0.0009038690477609634 0.0 0.0 0.0 0.0
3.365 0.04550662264227867 -0.006677850149571896 0.00010837335139513016 0.0002383701503276825 0.0 0.0 0.0 0.0
3.366 0.03863993659615517 -0.007485659793019295 2.778042107820511e-05 -0.0006577353924512863 0.0 0.0 0.0 0.0
3.367 0.037459928542375565 -0.003607061691582203 -0.0006620883941650391 0.0005639847368001938 0.0 0.0 0.0 0.0
3.368 0.03164137899875641 -0.0035900305956602097 -0.0003684442490339279 -0.0007058223709464073 0.0 0.0 0.0 0.0
3.369 0.027922138571739197 -0.0015361709520220757 -0.00032691285014152527 -0.0004720911383628845 0.0 0.0 0.0 0.0
3.37 0.022850794717669487 0.0003792615607380867 -0.0003575272858142853 -0.0005200272426009178 0.0 0.0 0.0 0.0
3.371 0.02224259078502655 0.0024784449487924576 -0.00030154548585414886 0.0003919284790754318 0.0 0.0 0.0 0.0
3.372 0.017252201214432716 0.006813384592533112 -0.0011259755119681358 -0.0002840869128704071 0.0 0.0 0.0 0.0
3.373 0.014314175583422184 0.0041444627568125725 -6.835535168647766e-05 0.00015256833285093307 0.0 0.0 0.0 0.0
3.374 0.013679016381502151 0.008752618916332722 -0.0005499972030520439 0.000347883440554142 0.0 0.0 0.0 0.0
3.375 0.0074690356850624084 0.013462663628160954 -0.0012154290452599525 0.00017184019088745117 0.0 0.0 0.0 0.0
3.376 0.005963743664324284 0.011943251825869083 -7.560476660728455e-05 0.00011825468391180038 0.0 0.0 0.0 0.0
3.377 0.005329545587301254 0.016606315970420837 -0.0003360789269208908 0.0007723476737737656 0.0 0.0 0.0 0.0
3.378 -0.00015773996710777283 0.020385976880788803 -0.0008244356140494347 0.00042221788316965103 0.0 0.0 0.0 0.0
3.379 -0.0014087008312344551 0.01982393115758896 0.00011850986629724503 0.000371614471077919 0.0 0.0 0.0 0.0
3.38 -0.005268964916467667 0.02472304180264473 -0.0003718724474310875 4.2071565985679626e-05 0.0 0.0 0.0 0.0
3.381 -0.005180605687201023 0.027527056634426117 -0.0007616346701979637 0.0005680005997419357 0.0 0.0 0.0 0.0
3.382 -0.011998309753835201 0.03187404200434685 -0.0008215783163905144 -0.0002171853557229042 0.0 0.0 0.0 0.0
3.383 -0.01436341181397438 0.032453157007694244 -0.00022310204803943634 -0.00019632838666439056 0.0 0.0 0.0 0.0
3.384 -0.0143514983355999 0.03813708573579788 -0.0009053982794284821 0.00046486780047416687 0.0 0.0 0.0 0.0
3.385 -0.014485406689345837 0.03786218538880348 -0.0002609230577945709 0.00034208595752716064 0.0 0.0 0.0 0.0
3.386 -0.017498325556516647 0.04395730420947075 -0.0004772758111357689 0.0006368951871991158 0.0 0.0 0.0 0.0
3.387 -0.021143130958080292 0.04843704029917717 -0.0010658688843250275 -4.47053462266922e-05 0.0 0.0 0.0 0.0
3.388 -0.02419373393058777 0.0496407151222229 -0.00046147406101226807 -0.00028678029775619507 0.0 0.0 0.0 0.0
3.389 -0.02445634827017784 0.052996743470430374 -0.0004397239536046982 -0.00017793942242860794 0.0 0.0 0.0 0.0
3.39 -0.025004932656884193 0.05762244015932083 -0.0009174784645438194 -0.00024967920035123825 0.0 0.0 0.0 0.0
3.391 -0.025588611140847206 0.05991494283080101 -0.0002753818407654762 0.0008344454690814018 0.0 0.0 0.0 0.0
3.392 -0.024391869083046913 0.06320232152938843 -9.974464774131775e-07 0.0006506657227873802 0.0 0.0 0.0 0.0
3.393 -0.027909286320209503 0.06589413434267044 0.00016679242253303528 0.00027432292699813843 0.0 0.0 0.0 0.0
3.394 -0.027729282155632973 0.06979147344827652 -1.3355165719985962e-05 0.0004789847880601883 0.0 0.0 0.0 0.0
3.395 -0.032105717808008194 0.07409659773111343 -0.00046698935329914093 -0.0002126479521393776 0.0 0.0 0.0 0.0
3.396 -0.02629435993731022 0.08187273144721985 -0.0007960079237818718 0.0006490116938948631 0.0 0.0 0.0 0.0
3.397 -0.03200504556298256 0.08459760248661041 -0.0009511401876807213 2.1758489310741425e-05 0.0 0.0 0.0 0.0
3.398 -0.029870647937059402 0.08809825778007507 -0.0007118750363588333 0.0002706274390220642 0.0 0.0 0.0 0.0
3.399 -0.026211010292172432 0.08911176025867462 0.00030210893601179123 0.0011689066886901855 0.0 0.0 0.0 0.0
3.4 -0.028867747634649277 0.0950387492775917 -0.0008781338110566139 0.00017199106514453888 0.0 0.0 0.0 0.0
3.401 -0.029263081029057503 0.09669710695743561 -0.0008001560345292091 -0.00012813694775104523 0.0 0.0 0.0 0.0
3.402 -0.028201891109347343 0.10111045837402344 -3.284495323896408e-05 0.0008924948051571846 0.0 0.0 0.0 0.0
3.403 -0.02823374606668949 0.10518757998943329 -0.0009271353483200073 1.3998709619045258e-05 0.0 0.0 0.0 0.0
3.404 -0.02916550077497959 0.10861790180206299 -0.0005189953371882439 -3.0084513127803802e-05 0.0 0.0 0.0 0.0
3.405 -0.023430656641721725 0.11336857825517654 -0.0004994375631213188 0.0004845699295401573 0.0 0.0 0.0 0.0
3.406 -0.027478495612740517 0.11645153164863586 -0.0008250381797552109 0.00038185901939868927 0.0 0.0 0.0 0.0
3.407 -0.025919746607542038 0.1186550110578537 5.477201193571091e-05 -0.00031192414462566376 0.0 0.0 0.0 0.0
3.408 -0.020625188946723938 0.12378498911857605 -0.0006262175738811493 0.00046587642282247543 0.0 0.0 0.0 0.0
3.409 -0.02197703719139099 0.12739013135433197 -0.0006135879084467888 -9.467732161283493e-05 0.0 0.0 0.0 0.0
3.41 -0.02335139736533165 0.12793096899986267 5.818251520395279e-05 -0.0003915606066584587 0.0 0.0 0.0 0.0
3.411 -0.01661568321287632 0.13625174760818481 -0.0003383336588740349 0.0003807852044701576 0.0 0.0 0.0 0.0
3.412 -0.019664056599140167 0.13677310943603516 -0.00036847498267889023 -0.0003341455012559891 0.0 0.0 0.0 0.0
3.413 -0.015988430008292198 0.13885186612606049 5.444325506687164e-05 -0.0004884162917733192 0.0 0.0 0.0 0.0
3.414 -0.01174221746623516 0.14390546083450317 -0.0010776268318295479 0.00037772301584482193 0.0 0.0 0.0 0.0
3.415 -0.013097870163619518 0.1451590210199356 0.00047469884157180786 -0.00034269504249095917 0.0 0.0 0.0 0.0
3.416 -0.00753904040902853 0.14768674969673157 0.0006096893921494484 0.00015251245349645615 0.0 0.0 0.0 0.0
3.417 -0.00604463554918766 0.15202994644641876 -0.0007050829008221626 0.00026662182062864304 0.0 0.0 0.0 0.0
3.418 -0.002732250839471817 0.15393078327178955 -7.184594869613647e-05 -0.00022583361715078354 0.0 0.0 0.0 0.0
3.419 -0.0006827404722571373 0.15433378517627716 0.0002001989632844925 0.00023503508418798447 0.0 0.0 0.0 0.0
3.42 0.0011928882449865341 0.16157212853431702 -0.00043258070945739746 -4.9942173063755035e-05 0.0 0.0 0.0 0.0
3.421 0.007121752016246319 0.16257186233997345 0.0003117052838206291 0.0007352456450462341 0.0 0.0 0.0 0.0
3.422 0.01223854348063469 0.16329272091388702 0.00025455933064222336 0.0004906449466943741 0.0 0.0 0.0 0.0
3.423 0.009861175902187824 0.16828984022140503 -0.00038713961839675903 -0.00015025679022073746 0.0 0.0 0.0 0.0
3.424 0.013847962021827698 0.17115555703639984 -0.00043099746108055115 1.7259269952774048e-05 0.0 0.0 0.0 0.0
3.425 0.015685254707932472 0.17102301120758057 6.505846977233887e-05 -0.0005224244669079781 0.0 0.0 0.0 0.0
3.426 0.02629677765071392 0.17278555035591125 -0.00010104570537805557 0.000658116303384304 0.0 0.0 0.0 0.0
3.427 0.023442009463906288 0.1761390119791031 0.0003002109006047249 -0.00012704171240329742 0.0 0.0 0.0 0.0
3.428 0.026598457247018814 0.17895261943340302 -0.00046146661043167114 -0.00030600279569625854 0.0 0.0 0.0 0.0
3.429 0.035741161555051804 0.17985358834266663 -0.00010146200656890869 0.0008430080488324165 0.0 0.0 0.0 0.0
3.43 0.034580543637275696 0.18272221088409424 -0.00037641171365976334 0.0007180105894804001 0.0 0.0 0.0 0.0
3.431 0.04211537912487984 0.18342217803001404 0.00014843512326478958 0.00042233895510435104 0.0 0.0 0.0 0.0
3.432 0.04088082164525986 0.18445195257663727 0.00019169412553310394 -0.0004987269639968872 0.0 0.0 0.0 0.0
3.433 0.05124198645353317 0.1865546852350235 -0.0002765124663710594 0.0006268033757805824 0.0 0.0 0.0 0.0
3.434 0.05197083577513695 0.18663613498210907 0.00025197584182024 0.0006071077659726143 0.0 0.0 0.0 0.0
3.435 0.05867653340101242 0.18640443682670593 -6.266869604587555e-05 0.000778423622250557 0.0 0.0 0.0 0.0
3.436 0.058308862149715424 0.18720898032188416 0.0007142936810851097 0.000324753113090992 0.0 0.0 0.0 0.0
3.437 0.06250420212745667 0.19093893468379974 -0.00032466650009155273 -0.0007439572364091873 0.0 0.0 0.0 0.0
3.438 0.06852088123559952 0.19030429422855377 -0.00044793635606765747 -0.00039888452738523483 0.0 0.0 0.0 0.0
3.439 0.06811623275279999 0.1921750009059906 -0.0004937797784805298 0.00035289209336042404 0.0 0.0 0.0 0.0
3.44 0.07636159658432007 0.19118548929691315 -0.0002764323726296425 -0.0005124770104885101 0.0 0.0 0.0 0.0
3.441 0.07817771285772324 0.19266974925994873 9.385216981172562e-05 0.000561106950044632 0.0 0.0 0.0 0.0
3.442 0.08646099269390106 0.19370615482330322 -0.0004529329016804695 -2.648215740919113e-05 0.0 0.0 0.0 0.0
3.443 0.08735910058021545 0.19467465579509735 -0.0004752008244395256 0.00035391561686992645 0.0 0.0 0.0 0.0
3.444 0.09339034557342529 0.1868099868297577 0.000588475726544857 -0.00011123437434434891 0.0 0.0 0.0 0.0
3.445 0.09574180096387863 0.1943865418434143 -0.00047747325152158737 0.00015398580580949783 0.0 0.0 0.0 0.0
3.446 0.1009615957736969 0.19401195645332336 -0.0007941015064716339 0.00038667768239974976 0.0 0.0 0.0 0.0
3.447 0.10646724700927734 0.1896911859512329 -2.6775524020195007e-06 0.0006578555330634117 0.0 0.0 0.0 0.0
3.448 0.1112142875790596 0.1900893598794937 -3.532040864229202e-05 0.0009382357820868492 0.0 0.0 0.0 0.0
3.449 0.11463821679353714 0.18772535026073456 -0.0003601405769586563 0.0007888516411185265 0.0 0.0 0.0 0.0
3.45 0.11735498905181885 0.18858827650547028 -0.00012870598584413528 0.0005067940801382065 0.0 0.0 0.0 0.0
3.451 0.12242071330547333 0.18792523443698883 -0.0004203459247946739 0.0001467512920498848 0.0 0.0 0.0 0.0
3.452 0.12279503792524338 0.18862764537334442 -0.0006385035812854767 -0.0004708385095000267 0.0 0.0 0.0 0.0
3.453 0.13257426023483276 0.1853516399860382 4.0862709283828735e-05 0.0002671321853995323 0.0 0.0 0.0 0.0
3.454 0.1316591203212738 0.18817831575870514 -0.0004172474145889282 0.00013790186494588852 0.0 0.0 0.0 0.0
3.455 0.13660024106502533 0.18135511875152588 -0.00026491470634937286 -0.000469231978058815 0.0 0.0 0.0 0.0
3.456 0.144908607006073 0.18167468905448914 -0.00018688105046749115 0.00019873864948749542 0.0 0.0 0.0 0.0
3.457 0.14750134944915771 0.17984476685523987 -0.0004894230514764786 0.00021491199731826782 0.0 0.0 0.0 0.0
3.458 0.14743150770664215 0.17618024349212646 -0.0003241542726755142 -0.0007582176476716995 0.0 0.0 0.0 0.0
3.459 0.15816780924797058 0.17325209081172943 -0.00015511177480220795 0.0005548754706978798 0.0 0.0 0.0 0.0
3.46 0.15895074605941772 0.17540274560451508 -0.000475212000310421 0.0004064571112394333 0.0 0.0 0.0 0.0
3.461 0.16076694428920746 0.1695416420698166 0.00030878838151693344 -0.0007192967459559441 0.0 0.0 0.0 0.0
3.462 0.1672350913286209 0.168847918510437 5.072634667158127e-05 0.0007512317970395088 0.0 0.0 0.0 0.0
3.463 0.17001564800739288 0.16738581657409668 -0.0009508458897471428 -0.0005932832136750221 0.0 0.0 0.0 0.0
3.464 0.1732538640499115 0.1614352911710739 -0.0005579506978392601 -0.0010312767699360847 0.0 0.0 0.0 0.0
3.465 0.1758257895708084 0.16155163943767548 -0.000929705798625946 -0.00011651404201984406 0.0 0.0 0.0 0.0
3.466 0.1809329390525818 0.15816715359687805 -0.0007789069786667824 -0.0001046871766448021 0.0 0.0 0.0 0.0
3.467 0.18209289014339447 0.15702661871910095 -0.0005036536604166031 -0.0006721494719386101 0.0 0.0 0.0 0.0
3.468 0.19022934138774872 0.14962781965732574 -0.000843532383441925 0.0002460647374391556 0.0 0.0 0.0 0.0
3.469 0.1891205906867981 0.1526835411787033 -0.0006295563653111458 -7.89714977145195e-05 0.0 0.0 0.0 0.0
3.47 0.19322256743907928 0.14395785331726074 -0.0004252428188920021 -0.0008435379713773727 0.0 0.0 0.0 0.0
3.471 0.19328899681568146 0.14549729228019714 -0.000867045484483242 -0.0007463432848453522 0.0 0.0 0.0 0.0
3.472 0.20063039660453796 0.1412077099084854 -0.0008814046159386635 0.0005325013771653175 0.0 0.0 0.0 0.0
3.473 0.20276246964931488 0.13510705530643463 4.779268056154251e-05 -0.0009069778025150299 0.0 0.0 0.0 0.0
3.474 0.20592913031578064 0.1351967304944992 -0.0015480266883969307 -0.00016085244715213776 0.0 0.0 0.0 0.0
3.475 0.21111370623111725 0.12487193197011948 -0.0003120582550764084 -0.0006769467145204544 0.0 0.0 0.0 0.0
3.476 0.21200500428676605 0.1262209117412567 -0.0010077916085720062 -0.00012872274965047836 0.0 0.0 0.0 0.0
3.477 0.21858654916286469 0.11702576279640198 0.00020559411495923996 -7.846672087907791e-05 0.0 0.0 0.0 0.0
3.478 0.21773217618465424 0.12007351219654083 -0.0008660191670060158 -1.0676681995391846e-05 0.0 0.0 0.0 0.0
3.479 0.22050434350967407 0.1146421954035759 -0.0006762221455574036 -0.00022033415734767914 0.0 0.0 0.0 0.0
3.48 0.22536934912204742 0.1091320812702179 0.00010932330042123795 0.00028469134122133255 0.0 0.0 0.0 0.0
3.481 0.2281312793493271 0.10786664485931396 -0.000867907889187336 0.00021647382527589798 0.0 0.0 0.0 0.0
3.482 0.22599931061267853 0.1036226749420166 -0.0015247566625475883 0.00010303035378456116 0.0 0.0 0.0 0.0
3.483 0.2317441701889038 0.09595729410648346 0.00020703952759504318 0.0002492014318704605 0.0 0.0 0.0 0.0
3.484 0.23253947496414185 0.08975744992494583 0.000332552008330822 -0.0007979804649949074 0.0 0.0 0.0 0.0
3.485 0.2345406860113144 0.08880605548620224 -1.722760498523712e-05 0.0003902055323123932 0.0 0.0 0.0 0.0
3.486 0.235951766371727 0.08139023184776306 6.785057485103607e-05 0.00036310963332653046 0.0 0.0 0.0 0.0
3.487 0.2373449206352234 0.0834563672542572 -0.0009008878841996193 0.0005939621478319168 0.0 0.0 0.0 0.0
3.488 0.2371959239244461 0.07364460825920105 -0.0010051112622022629 -0.000426294282078743 0.0 0.0 0.0 0.0
3.489 0.2399776428937912 0.07309376448392868 -0.00040339957922697067 0.0003310786560177803 0.0 0.0 0.0 0.0
3.49 0.2389545887708664 0.06265075504779816 -0.0003409702330827713 -0.00028498098254203796 0.0 0.0 0.0 0.0
3.491 0.23822510242462158 0.06530537456274033 -0.001208948902785778 -2.2745691239833832e-05 0.0 0.0 0.0 0.0
3.492 0.2435445636510849 0.05106731131672859 0.00015746336430311203 -0.0005112709477543831 0.0 0.0 0.0 0.0
3.493 0.24396006762981415 0.05817336589097977 -0.001156546175479889 0.00014260876923799515 0.0 0.0 0.0 0.0
3.494 0.2439313679933548 0.04999207705259323 -0.0011482499539852142 -0.0002929680049419403 0.0 0.0 0.0 0.0
3.495 0.24665220081806183 0.043852292001247406 -1.2984499335289001e-05 0.0006130523979663849 0.0 0.0 0.0 0.0
3.496 0.24754247069358826 0.039547670632600784 -0.00020477082580327988 0.0007174639031291008 0.0 0.0 0.0 0.0
3.497 0.24720004200935364 0.03628680109977722 -0.0012687630951404572 0.0005488479509949684 0.0 0.0 0.0 0.0
3.498 0.24723723530769348 0.030433522537350655 -9.05422493815422e-05 0.00026943720877170563 0.0 0.0 0.0 0.0
3.499 0.2476045936346054 0.024561792612075806 -0.00011437293142080307 0.000584850087761879 0.0 0.0 0.0 0.0
3.5 0.24618284404277802 0.024700932204723358 -0.0012991931289434433 -0.0002441583201289177 0.0 0.0 0.0 0.0
3.501 0.2495334893465042 0.013989917002618313 -0.00012547988444566727 0.0001261625438928604 0.0 0.0 0.0 0.0
3.502 0.24671825766563416 0.017830442637205124 -0.0011180872097611427 0.0002549160271883011 0.0 0.0 0.0 0.0
3.503 0.24474577605724335 0.008386819623410702 -0.0015892228111624718 -0.0002951817587018013 0.0 0.0 0.0 0.0
3.504 0.2486073523759842 0.0019067134708166122 -0.00023368559777736664 0.000377473421394825 0.0 0.0 0.0 0.0
3.505 0.24808824062347412 -0.0001642545685172081 -0.0011325357481837273 0.0006601782515645027 0.0 0.0 0.0 0.0
3.506 0.2470378428697586 -0.004806751385331154 -0.00039090681821107864 0.0007283249869942665 0.0 0.0 0.0 0.0
3.507 0.24547234177589417 -0.015069635584950447 0.0002521723508834839 -0.00015628617256879807 0.0 0.0 0.0 0.0
3.508 0.24535630643367767 -0.012116345576941967 -0.0011206064373254776 0.0010150568559765816 0.0 0.0 0.0 0.0
3.509 0.24027863144874573 -0.02060561068356037 -7.409695535898209e-05 -0.0003853142261505127 0.0 0.0 0.0 0.0
3.51 0.23740722239017487 -0.021904241293668747 -0.001353491097688675 -0.0006440216675400734 0.0 0.0 0.0 0.0
3.511 0.24156948924064636 -0.027445606887340546 -0.00014655012637376785 0.0006296457722783089 0.0 0.0 0.0 0.0
3.512 0.23824453353881836 -0.037193477153778076 -0.0011947853490710258 -0.0005550496280193329 0.0 0.0 0.0 0.0
3.513 0.23740626871585846 -0.031545259058475494 -0.0014405511319637299 -0.00030076131224632263 0.0 0.0 0.0 0.0
3.514 0.23590326309204102 -0.04223933815956116 -0.0004483181983232498 -0.00035079382359981537 0.0 0.0 0.0 0.0
3.515 0.23305043578147888 -0.04113377630710602 -0.0016905851662158966 0.0005535418167710304 0.0 0.0 0.0 0.0
3.516 0.23462218046188354 -0.048031631857156754 -0.0005990117788314819 0.000784517265856266 0.0 0.0 0.0 0.0
3.517 0.23246130347251892 -0.05057898163795471 -0.00034388061612844467 0.0001298496499657631 0.0 0.0 0.0 0.0
3.518 0.23071442544460297 -0.05503864958882332 -0.0010416284203529358 0.0008826693519949913 0.0 0.0 0.0 0.0
3.519 0.2285347431898117 -0.06156294792890549 -0.0006658677011728287 0.0007052840664982796 0.0 0.0 0.0 0.0
3.52 0.22564494609832764 -0.06131737679243088 -0.0014345105737447739 -0.00033862702548503876 0.0 0.0 0.0 0.0
3.521 0.2223907858133316 -0.06508900970220566 -0.001805247738957405 0.0006719892844557762 0.0 0.0 0.0 0.0
3.522 0.22147463262081146 -0.07165013253688812 -0.0007535684853792191 -0.0009436691179871559 0.0 0.0 0.0 0.0
3.523 0.21545949578285217 -0.07134395092725754 -0.0021340977400541306 0.00019702129065990448 0.0 0.0 0.0 0.0
3.524 0.2184986174106598 -0.07880129665136337 -0.00013402197510004044 -0.00017711520195007324 0.0 0.0 0.0 0.0
3.525 0.2111237794160843 -0.08146785944700241 -0.002171892672777176 0.0003529740497469902 0.0 0.0 0.0 0.0
3.526 0.21239368617534637 -0.08323097229003906 -0.001558985561132431 0.0009093685075640678 0.0 0.0 0.0 0.0
3.527 0.20830568671226501 -0.08935260027647018 -0.0013399487361311913 0.0008076122030615807 0.0 0.0 0.0 0.0
3.528 0.20704957842826843 -0.09568178653717041 -0.00040575210005044937 -0.0003822203725576401 0.0 0.0 0.0 0.0
3.529 0.2062220722436905 -0.09981895983219147 -0.00048144254833459854 0.0006316462531685829 0.0 0.0 0.0 0.0
3.53 0.2012295424938202 -0.09467919915914536 -0.0016570920124650002 0.0006524622440338135 0.0 0.0 0.0 0.0
3.531 0.19419743120670319 -0.10361992567777634 -0.0010651154443621635 -0.0004193708300590515 0.0 0.0 0.0 0.0
3.532 0.1921946108341217 -0.10886679589748383 -0.0007078023627400398 -0.00014459621161222458 0.0 0.0 0.0 0.0
3.533 0.18706591427326202 -0.109493687748909 -0.001195257529616356 -0.0007683122530579567 0.0 0.0 0.0 0.0
3.534 0.18732066452503204 -0.10645325481891632 -0.0018100980669260025 0.0009333165362477303 0.0 0.0 0.0 0.0
3.535 0.1870736926794052 -0.11002790182828903 -0.0018762918189167976 0.001047191210091114 0.0 0.0 0.0 0.0
3.536 0.18322841823101044 -0.11912260949611664 -0.0004373658448457718 0.0003937818109989166 0.0 0.0 0.0 0.0
3.537 0.1806178092956543 -0.11887787282466888 -0.00016080215573310852 0.0011826613917946815 0.0 0.0 0.0 0.0
3.538 0.1747906357049942 -0.12070050090551376 -0.001317441463470459 0.0013663070276379585 0.0 0.0 0.0 0.0
3.539 0.17308391630649567 -0.12067259103059769 -0.002022751607000828 0.0007934784516692162 0.0 0.0 0.0 0.0
3.54 0.1706075668334961 -0.12850141525268555 -0.000285848043859005 0.001029469072818756 0.0 0.0 0.0 0.0
3.541 0.1656600683927536 -0.12480659782886505 -0.0019133416935801506 0.0008835028856992722 0.0 0.0 0.0 0.0
3.542 0.16458486020565033 -0.1325545310974121 -0.0007642963901162148 0.0014025894924998283 0.0 0.0 0.0 0.0
3.543 0.15654774010181427 -0.12809215486049652 -0.0012537529692053795 0.000433371402323246 0.0 0.0 0.0 0.0
3.544 0.1496007740497589 -0.13636136054992676 -0.0010676505044102669 -0.0005040513351559639 0.0 0.0 0.0 0.0
3.545 0.1547669917345047 -0.13452550768852234 -0.0006966078653931618 0.0012640152126550674 0.0 0.0 0.0 0.0
3.546 0.1458943486213684 -0.14319831132888794 0.00020945724099874496 0.0003277258947491646 0.0 0.0 0.0 0.0
3.547 0.14507955312728882 -0.13397817313671112 -0.0017043910920619965 0.0015713786706328392 0.0 0.0 0.0 0.0
3.548 0.1394822746515274 -0.13664817810058594 -0.001950528472661972 -0.00016946904361248016 0.0 0.0 0.0 0.0
3.549 0.138270765542984 -0.14155974984169006 -0.0012277178466320038 0.001488090492784977 0.0 0.0 0.0 0.0
3.55 0.13351304829120636 -0.13913600146770477 -0.002121586352586746 0.001240260899066925 0.0 0.0 0.0 0.0
3.551 0.12592162191867828 -0.144825279712677 -0.0013669095933437347 -5.5925920605659485e-06 0.0 0.0 0.0 0.0
3.552 0.12435480952262878 -0.14530089497566223 -0.0017443913966417313 0.0022500399500131607 0.0 0.0 0.0 0.0
3.553 0.11799586564302444 -0.14646683633327484 -0.0011449940502643585 6.844289600849152e-06 0.0 0.0 0.0 0.0
3.554 0.11491997539997101 -0.14872406423091888 -0.00042649079114198685 -5.846936255693436e-05 0.0 0.0 0.0 0.0
3.555 0.11316508054733276 -0.1429319828748703 -0.0016012629494071007 0.0015266584232449532 0.0 0.0 0.0 0.0
3.556 0.10713621228933334 -0.14327527582645416 -0.0011229012161493301 -0.00013182498514652252 0.0 0.0 0.0 0.0
3.557 0.10245992243289948 -0.15394312143325806 -0.0007641557604074478 0.00042651500552892685 0.0 0.0 0.0 0.0
3.558 0.10142797231674194 -0.14282697439193726 -0.0018513109534978867 0.0008767964318394661 0.0 0.0 0.0 0.0
3.559 0.09302322566509247 -0.1473226249217987 -0.0010593263432383537 0.0002851337194442749 0.0 0.0 0.0 0.0
3.56 0.0949673280119896 -0.14983363449573517 -0.000368230976164341 0.0006515271961688995 0.0 0.0 0.0 0.0
3.561 0.09330446273088455 -0.14317362010478973 -0.001555081456899643 0.0017177630215883255 0.0 0.0 0.0 0.0
3.562 0.08657162636518478 -0.15100644528865814 -0.00047297403216362 0.00034419354051351547 0.0 0.0 0.0 0.0
3.563 0.08158161491155624 -0.14581310749053955 -0.0007279058918356895 -0.00040054600685834885 0.0 0.0 0.0 0.0
3.564 0.07926744967699051 -0.14372001588344574 -0.0010350476950407028 7.154420018196106e-06 0.0 0.0 0.0 0.0
3.565 0.07562222331762314 -0.14252783358097076 -0.0012785345315933228 0.0001333523541688919 0.0 0.0 0.0 0.0
3.566 0.06881598383188248 -0.14877139031887054 -0.00011461786925792694 0.00036209169775247574 0.0 0.0 0.0 0.0
3.567 0.06673117727041245 -0.14025996625423431 -0.0013526072725653648 0.0004975767806172371 0.0 0.0 0.0 0.0
3.568 0.059590764343738556 -0.14436273276805878 -0.0008733095601201057 3.0199997127056122e-05 0.0 0.0 0.0 0.0
3.569 0.06785167008638382 -0.14111730456352234 -0.0007281284779310226 0.0017259158194065094 0.0 0.0 0.0 0.0
3.57 0.05449656769633293 -0.1414281129837036 -0.0010546091943979263 -0.00033761654049158096 0.0 0.0 0.0 0.0
3.571 0.05348193272948265 -0.13301874697208405 -0.0013642963021993637 0.0007349299266934395 0.0 0.0 0.0 0.0
3.572 0.04815984517335892 -0.1367950439453125 -0.000532492995262146 -0.0005741575732827187 0.0 0.0 0.0 0.0
3.573 0.05149219185113907 -0.13071975111961365 -0.0014503449201583862 0.0008641788735985756 0.0 0.0 0.0 0.0
3.574 0.0446622334420681 -0.13546453416347504 0.00034960824996232986 -0.0006021745502948761 0.0 0.0 0.0 0.0
3.575 0.04417914152145386 -0.1334342509508133 7.543712854385376e-08 0.0009370232000946999 0.0 0.0 0.0 0.0
3.576 0.03932155296206474 -0.1328849196434021 -0.0005151359364390373 6.178021430969238e-05 0.0 0.0 0.0 0.0
3.577 0.03335241600871086 -0.1280013471841812 -0.0012401090934872627 0.0006137620657682419 0.0 0.0 0.0 0.0
3.578 0.0339648462831974 -0.124569833278656 -0.0014942334964871407 0.0011741630733013153 0.0 0.0 0.0 0.0
3.579 0.02597370743751526 -0.12227635830640793 -0.0013998299837112427 0.0005977945402264595 0.0 0.0 0.0 0.0
3.58 0.031001152470707893 -0.11972889304161072 -0.0013760533183813095 0.0015124203637242317 0.0 0.0 0.0 0.0
3.581 0.018946196883916855 -0.12089720368385315 -0.0005834242329001427 -0.0002722805365920067 0.0 0.0 0.0 0.0
3.582 0.028245899826288223 -0.11518310755491257 -0.0008046915754675865 0.0013616140931844711 0.0 0.0 0.0 0.0
3.583 0.015353770926594734 -0.11676312237977982 -0.0005719093605875969 -0.000356053002178669 0.0 0.0 0.0 0.0
3.584 0.019163720309734344 -0.10755665600299835 -0.0013157231733202934 0.001347169280052185 0.0 0.0 0.0 0.0
3.585 0.019393324851989746 -0.11349217593669891 0.0005911253392696381 0.001359136775135994 0.0 0.0 0.0 0.0
3.586 0.013326185755431652 -0.1101735457777977 -0.0005743512883782387 -1.4792196452617645e-05 0.0 0.0 0.0 0.0
3.587 0.011188594624400139 -0.10210628807544708 -0.0010829316452145576 -0.00018061045557260513 0.0 0.0 0.0 0.0
3.588 0.013712185434997082 -0.09871438145637512 -0.001145695336163044 0.0012947916984558105 0.0 0.0 0.0 0.0
3.589 0.010004079900681973 -0.09669990837574005 -0.0013652518391609192 -0.000303095206618309 0.0 0.0 0.0 0.0
3.59 0.009969666600227356 -0.09410755336284637 -0.0010076211765408516 0.000965392217040062 0.0 0.0 0.0 0.0
3.591 0.007224659435451031 -0.09449034929275513 0.0002837786450982094 -5.996599793434143e-05 0.0 0.0 0.0 0.0
3.592 0.008663645014166832 -0.09079956263303757 0.00032640155404806137 0.0008232304826378822 0.0 0.0 0.0 0.0
3.593 0.00713406503200531 -0.08812747895717621 -0.0010887058451771736 0.0015236316248774529 0.0 0.0 0.0 0.0
3.594 0.00035247113555669785 -0.08883277326822281 4.20399010181427e-05 0.0008660834282636642 0.0 0.0 0.0 0.0
3.595 0.0005720499902963638 -0.08395260572433472 -8.000712841749191e-05 0.0006238836795091629 0.0 0.0 0.0 0.0
3.596 -0.0016358867287635803 -0.07430122792720795 -0.0012471936643123627 9.584333747625351e-05 0.0 0.0 0.0 0.0
3.597 0.004859715700149536 -0.07956811785697937 -0.00021157972514629364 0.0011396938934922218 0.0 0.0 0.0 0.0
3.598 0.00029283296316862106 -0.07654335349798203 0.0001272987574338913 0.000658281147480011 0.0 0.0 0.0 0.0
3.599 -0.0013661030679941177 -0.07159627228975296 -0.0002047717571258545 0.00047164224088191986 0.0 0.0 0.0 0.0
3.6 -0.0012086965143680573 -0.062291260808706284 -0.0018110359087586403 0.00148030836135149 0.0 0.0 0.0 0.0
3.601 0.0020476393401622772 -0.061505261808633804 -0.0007330961525440216 0.0015039630234241486 0.0 0.0 0.0 0.0
3.602 -0.00020165741443634033 -0.06317965686321259 0.00023272447288036346 0.001311376690864563 0.0 0.0 0.0 0.0
3.603 -0.004358273930847645 -0.056099068373441696 -0.0010204697027802467 -7.030554115772247e-05 0.0 0.0 0.0 0.0
3.604 -0.0023880545049905777 -0.0512591153383255 -0.0009388681501150131 -0.0007653273642063141 0.0 0.0 0.0 0.0
3.605 5.548819899559021e-06 -0.0469638928771019 -0.0015552043914794922 0.0006586182862520218 0.0 0.0 0.0 0.0
3.606 0.0014982130378484726 -0.04725183546543121 0.0002249646931886673 0.0015095388516783714 0.0 0.0 0.0 0.0
3.607 0.0005627088248729706 -0.04134640097618103 -0.0006605749949812889 0.0012474404647946358 0.0 0.0 0.0 0.0
3.608 -0.00043346453458070755 -0.03867151960730553 -0.0012513687834143639 0.0001810770481824875 0.0 0.0 0.0 0.0
3.609 0.004434119910001755 -0.03453007712960243 -0.0007218709215521812 0.0011641224846243858 0.0 0.0 0.0 0.0
3.61 0.007283071056008339 -0.030748244374990463 -0.0012137945741415024 0.0007956400513648987 0.0 0.0 0.0 0.0
3.611 0.0017453636974096298 -0.029066486284136772 -0.0014909487217664719 -0.00016624946147203445 0.0 0.0 0.0 0.0
3.612 0.0075250044465065 -0.027533674612641335 -0.0006535155698657036 0.0012859152629971504 0.0 0.0 0.0 0.0
3.613 0.006959876045584679 -0.023380044847726822 -0.0015177978202700615 -0.0003482978790998459 0.0 0.0 0.0 0.0
3.614 0.005953643471002579 -0.02489408664405346 -0.0001245550811290741 -0.0001599527895450592 0.0 0.0 0.0 0.0
3.615 0.011041807010769844 -0.021109554916620255 -0.0008762553334236145 0.0017116107046604156 0.0 0.0 0.0 0.0
3.616 0.00733586959540844 -0.013953623361885548 -0.0015952093526721 0.0008874218910932541 0.0 0.0 0.0 0.0
3.617 0.01249660924077034 -0.015097357332706451 -0.0014676684513688087 0.0006703101098537445 0.0 0.0 0.0 0.0
3.618 0.009542318060994148 -0.015074153430759907 -0.0003397436812520027 0.00037538353353738785 0.0 0.0 0.0 0.0
3.619 0.012855510227382183 -0.011120827868580818 -0.000410350039601326 0.00022583454847335815 0.0 0.0 0.0 0.0
3.62 0.020661134272813797 -0.004787355661392212 -0.0012344438582658768 0.001496550627052784 0.0 0.0 0.0 0.0
3.621 0.02034113183617592 -0.0003227042034268379 -0.0016210759058594704 0.0008131023496389389 0.0 0.0 0.0 0.0
3.622 0.01953561045229435 -0.0046234652400016785 0.00012221280485391617 8.951220661401749e-05 0.0 0.0 0.0 0.0
3.623 0.026027917861938477 -0.0034345556050539017 -0.00026028696447610855 0.0016894135624170303 0.0 0.0 0.0 0.0
3.624 0.03011019341647625 -0.002139853313565254 -0.0011519920080900192 0.0023244833573698997 0.0 0.0 0.0 0.0
3.625 0.02928231470286846 0.004405722953379154 -0.0020567970350384712 0.0009624278172850609 0.0 0.0 0.0 0.0
3.626 0.03190549835562706 0.005863813683390617 -0.00010423362255096436 0.00047827325761318207 0.0 0.0 0.0 0.0
3.627 0.03679691627621651 0.009144510142505169 -0.0006890799850225449 0.0014987839385867119 0.0 0.0 0.0 0.0
3.628 0.038991253823041916 0.010673757642507553 -0.0017950870096683502 0.0011254716664552689 0.0 0.0 0.0 0.0
3.629 0.04267115518450737 0.006014087237417698 0.00023765303194522858 0.0013967957347631454 0.0 0.0 0.0 0.0
3.63 0.04538337141275406 0.011081008240580559 -0.0009574694558978081 0.001697261817753315 0.0 0.0 0.0 0.0
3.631 0.04900234565138817 0.009549122303724289 -0.0001593446359038353 0.0008936868980526924 0.0 0.0 0.0 0.0
3.632 0.0501180998980999 0.011918635107576847 -0.0007815640419721603 0.002054305747151375 0.0 0.0 0.0 0.0
3.633 0.05317152664065361 0.012818481773138046 0.0006832843646407127 0.0011037513613700867 0.0 0.0 0.0 0.0
3.634 0.05642719939351082 0.02166634425520897 -0.0011649904772639275 0.0013824980705976486 0.0 0.0 0.0 0.0
3.635 0.06105350703001022 0.019323695451021194 -0.0010729441419243813 0.0021707583218812943 0.0 0.0 0.0 0.0
3.636 0.06561745703220367 0.01868261583149433 -0.0011518076062202454 0.0017964215949177742 0.0 0.0 0.0 0.0
3.637 0.06322821229696274 0.017453355714678764 0.00010937359184026718 0.0019054161384701729 0.0 0.0 0.0 0.0
3.638 0.07039298862218857 0.020717160776257515 -0.0009970404207706451 0.0017970483750104904 0.0 0.0 0.0 0.0
3.639 0.07221535593271255 0.023449040949344635 0.00017608515918254852 0.0013151364400982857 0.0 0.0 0.0 0.0
3.64 0.07423768937587738 0.028234753757715225 -0.0009492943063378334 0.0008658990263938904 0.0 0.0 0.0 0.0
3.641 0.07957117259502411 0.025208795443177223 -0.0014926334843039513 0.0014541679993271828 0.0 0.0 0.0 0.0
3.642 0.08416550606489182 0.019556725397706032 -0.0007170690223574638 0.0009611789137125015 0.0 0.0 0.0 0.0
3.643 0.0874989777803421 0.025872282683849335 -0.0012137610465288162 0.0013321805745363235 0.0 0.0 0.0 0.0
3.644 0.0891987755894661 0.02709992602467537 -0.0013118339702486992 0.0017004208639264107 0.0 0.0 0.0 0.0
3.645 0.09518958628177643 0.023080073297023773 -0.001767265610396862 0.0021456414833664894 0.0 0.0 0.0 0.0
3.646 0.09884890913963318 0.0252876915037632 -0.0011835573241114616 0.0012930883094668388 0.0 0.0 0.0 0.0
3.647 0.09624692797660828 0.025062745437026024 -0.0006457949057221413 0.0011801645159721375 0.0 0.0 0.0 0.0
3.648 0.10625358670949936 0.01893847994506359 0.00012270547449588776 0.00222163088619709 0.0 0.0 0.0 0.0
3.649 0.10938740521669388 0.024557339027523994 -0.0010569514706730843 0.0010946569964289665 0.0 0.0 0.0 0.0
3.65 0.11078102886676788 0.024748902767896652 -0.0008719423785805702 0.0008726920932531357 0.0 0.0 0.0 0.0
3.651 0.1122649610042572 0.0243295319378376 -0.001728001981973648 0.0012238072231411934 0.0 0.0 0.0 0.0
3.652 0.11522392183542252 0.023493953049182892 1.635681837797165e-05 0.0006556417793035507 0.0 0.0 0.0 0.0
3.653 0.11971855163574219 0.01820465922355652 -0.000768536701798439 0.00048192497342824936 0.0 0.0 0.0 0.0
3.654 0.12481899559497833 0.017754899337887764 -0.00022276397794485092 0.0014436319470405579 0.0 0.0 0.0 0.0
3.655 0.12874875962734222 0.015173732303082943 3.724265843629837e-05 0.0007741255685687065 0.0 0.0 0.0 0.0
3.656 0.1284945011138916 0.015005895867943764 -0.00032662879675626755 0.000897308811545372 0.0 0.0 0.0 0.0
3.657 0.13119296729564667 0.011643685400485992 0.0003001764416694641 0.00046022888273000717 0.0 0.0 0.0 0.0
3.658 0.14100682735443115 0.013790849596261978 -0.0007999343797564507 0.0014976225793361664 0.0 0.0 0.0 0.0
3.659 0.1409618854522705 0.011651354841887951 -0.0005271630361676216 0.0008819755166769028 0.0 0.0 0.0 0.0
3.66 0.14498299360275269 0.008068498224020004 0.00012623146176338196 0.0023186001926660538 0.0 0.0 0.0 0.0
3.661 0.1492462009191513 0.00798603892326355 -0.0013400455936789513 0.0013276515528559685 0.0 0.0 0.0 0.0
3.662 0.14651797711849213 0.005622281692922115 -0.0009833388030529022 0.0008805738762021065 0.0 0.0 0.0 0.0
3.663 0.15355245769023895 0.0018129805102944374 -0.0007330598309636116 0.001102910377085209 0.0 0.0 0.0 0.0
3.664 0.15070679783821106 -0.00038186926394701004 -0.0010290322825312614 0.0014900807291269302 0.0 0.0 0.0 0.0
3.665 0.15756523609161377 0.007125910371541977 -0.0006649130955338478 0.0009545031934976578 0.0 0.0 0.0 0.0
3.666 0.157622829079628 -0.003168848343193531 -0.0009349100291728973 0.0011060787364840508 0.0 0.0 0.0 0.0
3.667 0.16651052236557007 -0.001084260642528534 -0.001258794218301773 0.0007697232067584991 0.0 0.0 0.0 0.0
3.668 0.17047086358070374 -0.010470578446984291 5.2702613174915314e-05 0.001770012080669403 0.0 0.0 0.0 0.0
3.669 0.17028804123401642 -0.006131465546786785 -0.0007066996768116951 0.001187967136502266 0.0 0.0 0.0 0.0
3.67 0.17303773760795593 -0.016918262466788292 -0.0004139142110943794 0.0020788488909602165 0.0 0.0 0.0 0.0
3.671 0.17222824692726135 -0.016994250938296318 0.00019286945462226868 0.0007956065237522125 0.0 0.0 0.0 0.0
3.672 0.17752812802791595 -0.02106151357293129 -0.00038677267730236053 0.0020104534924030304 0.0 0.0 0.0 0.0
3.673 0.18181076645851135 -0.016973311081528664 -0.0006492612883448601 0.0016950340941548347 0.0 0.0 0.0 0.0
3.674 0.1801801174879074 -0.01972612366080284 0.00010688323527574539 0.0008119801059365273 0.0 0.0 0.0 0.0
3.675 0.1836237907409668 -0.025080658495426178 -0.0008855648338794708 0.0020201411098241806 0.0 0.0 0.0 0.0
3.676 0.1854105144739151 -0.029963433742523193 -0.0006369752809405327 0.0017626183107495308 0.0 0.0 0.0 0.0
3.677 0.1833433359861374 -0.03764089569449425 -0.00038927700370550156 0.001439519226551056 0.0 0.0 0.0 0.0
3.678 0.1887509822845459 -0.03413115441799164 0.0002321964129805565 0.0014911387115716934 0.0 0.0 0.0 0.0
3.679 0.19520942866802216 -0.03844911977648735 -0.0005746353417634964 0.001965086907148361 0.0 0.0 0.0 0.0
3.68 0.19581475853919983 -0.03785889595746994 -0.00040019024163484573 0.0013246331363916397 0.0 0.0 0.0 0.0
3.681 0.19431035220623016 -0.04238900542259216 -0.0006218878552317619 0.0017618769779801369 0.0 0.0 0.0 0.0
3.682 0.20263336598873138 -0.04738503694534302 -0.0011884374544024467 0.0016254903748631477 0.0 0.0 0.0 0.0
3.683 0.20298153162002563 -0.0553978830575943 0.0006387410685420036 0.0019679348915815353 0.0 0.0 0.0 0.0
3.684 0.19784680008888245 -0.05546918511390686 -0.0005169007927179337 0.0018855482339859009 0.0 0.0 0.0 0.0
3.685 0.20343957841396332 -0.051360100507736206 -0.00017344672232866287 0.000841120257973671 0.0 0.0 0.0 0.0
3.686 0.1989700347185135 -0.0615529790520668 0.0004084855318069458 0.0013532433658838272 0.0 0.0 0.0 0.0
3.687 0.20561015605926514 -0.061999764293432236 0.0002929791808128357 0.0013129198923707008 0.0 0.0 0.0 0.0
3.688 0.20486842095851898 -0.06885740160942078 0.00016078446060419083 0.001621508039534092 0.0 0.0 0.0 0.0
3.689 0.2071184515953064 -0.06961923837661743 -0.00014251749962568283 0.0018529295921325684 0.0 0.0 0.0 0.0
3.69 0.209848552942276 -0.07967601716518402 0.0003030337393283844 0.0010183239355683327 0.0 0.0 0.0 0.0
3.691 0.20800580084323883 -0.07596937566995621 0.0005513066425919533 0.0015356969088315964 0.0 0.0 0.0 0.0
3.692 0.20797528326511383 -0.08084115386009216 0.00023491308093070984 0.001644175499677658 0.0 0.0 0.0 0.0
3.693 0.20728661119937897 -0.08346465229988098 0.00041887909173965454 0.0012678196653723717 0.0 0.0 0.0 0.0
3.694 0.21098896861076355 -0.09185554832220078 0.0005377866327762604 0.0015787780284881592 0.0 0.0 0.0 0.0
3.695 0.20753216743469238 -0.0885738655924797 0.0014756834134459496 0.0016579898074269295 0.0 0.0 0.0 0.0
3.696 0.2107400894165039 -0.10353129357099533 0.0003246450796723366 0.0011355048045516014 0.0 0.0 0.0 0.0
3.697 0.209990456700325 -0.09437476843595505 0.0002810051664710045 0.0008635660633444786 0.0 0.0 0.0 0.0
3.698 0.20590446889400482 -0.10092548280954361 0.0003817034885287285 0.0009027775377035141 0.0 0.0 0.0 0.0
3.699 0.21474358439445496 -0.10339000076055527 0.0008531967177987099 0.0009502694010734558 0.0 0.0 0.0 0.0
3.7 0.21409769356250763 -0.10440117120742798 0.00023492611944675446 0.0011240039020776749 0.0 0.0 0.0 0.0
3.701 0.20727986097335815 -0.11478291451931 0.0004069758579134941 0.0008904468268156052 0.0 0.0 0.0 0.0
3.702 0.21152539551258087 -0.1182706207036972 0.001103484071791172 0.0009804312139749527 0.0 0.0 0.0 0.0
3.703 0.20709443092346191 -0.119895339012146 0.00023883581161499023 0.0018585482612252235 0.0 0.0 0.0 0.0
3.704 0.20907044410705566 -0.12251409888267517 -0.0001941649243235588 0.0014478117227554321 0.0 0.0 0.0 0.0
3.705 0.20945784449577332 -0.12689583003520966 0.0009551309049129486 0.0013012699782848358 0.0 0.0 0.0 0.0
3.706 0.2136610448360443 -0.12976977229118347 0.00014917179942131042 0.0008106231689453125 0.0 0.0 0.0 0.0
3.707 0.20594102144241333 -0.12877686321735382 0.00042523909360170364 0.0007960153743624687 0.0 0.0 0.0 0.0
3.708 0.2041637897491455 -0.14432083070278168 -0.00023581180721521378 0.0007707634940743446 0.0 0.0 0.0 0.0
3.709 0.2148859202861786 -0.14174549281597137 0.0002309884876012802 0.0012584682554006577 0.0 0.0 0.0 0.0
3.71 0.20192529261112213 -0.1398381143808365 0.0005682855844497681 0.001316150650382042 0.0 0.0 0.0 0.0
3.711 0.19969160854816437 -0.14753000438213348 0.001103193499147892 0.0009859027341008186 0.0 0.0 0.0 0.0
3.712 0.20137321949005127 -0.1533062905073166 5.0984323024749756e-05 0.0016988571733236313 0.0 0.0 0.0 0.0
3.713 0.2071460783481598 -0.15352900326251984 0.0010078512132167816 0.0008361702784895897 0.0 0.0 0.0 0.0
3.714 0.20143310725688934 -0.1579633355140686 0.0009541837498545647 6.957259029150009e-05 0.0 0.0 0.0 0.0
3.715 0.19854635000228882 -0.15834039449691772 0.0015484103932976723 0.001079801470041275 0.0 0.0 0.0 0.0
3.716 0.19112293422222137 -0.16118989884853363 0.0005239155143499374 0.001498352736234665 0.0 0.0 0.0 0.0
3.717 0.19266285002231598 -0.16419754922389984 0.0008693579584360123 0.002509806305170059 0.0 0.0 0.0 0.0
3.718 0.19257628917694092 -0.16596822440624237 0.0003774818032979965 0.00018484611064195633 0.0 0.0 0.0 0.0
3.719 0.1916470229625702 -0.17209556698799133 0.0013052839785814285 -2.6166439056396484e-05 0.0 0.0 0.0 0.0
3.72 0.18767282366752625 -0.1811322569847107 0.0004720659926533699 0.0008524460718035698 0.0 0.0 0.0 0.0
3.721 0.19425040483474731 -0.1782926470041275 0.0011279704049229622 -0.00034500937908887863 0.0 0.0 0.0 0.0
3.722 0.18859803676605225 -0.17580047249794006 0.0004253219813108444 0.0011136038228869438 0.0 0.0 0.0 0.0
3.723 0.17759811878204346 -0.1843232810497284 -0.0009954702109098434 0.0003436831757426262 0.0 0.0 0.0 0.0
3.724 0.19013504683971405 -0.1809002161026001 0.001357346773147583 0.0016567939892411232 0.0 0.0 0.0 0.0
3.725 0.1761029064655304 -0.19097104668617249 -0.0003993352875113487 0.0020181406289339066 0.0 0.0 0.0 0.0
3.726 0.18109379708766937 -0.19744658470153809 0.0006999699398875237 -0.0002737324684858322 0.0 0.0 0.0 0.0
3.727 0.17789047956466675 -0.19365662336349487 -0.0002582026645541191 0.0015952298417687416 0.0 0.0 0.0 0.0
3.728 0.1777411550283432 -0.19440989196300507 0.0001909928396344185 -0.0008856840431690216 0.0 0.0 0.0 0.0
3.729 0.1745252162218094 -0.19836553931236267 0.0003321068361401558 0.002010377123951912 0.0 0.0 0.0 0.0
3.73 0.16830560564994812 -0.1963183432817459 0.0013932175934314728 1.069437712430954e-05 0.0 0.0 0.0 0.0
3.731 0.16361215710639954 -0.21448937058448792 -0.00023107044398784637 0.00045259948819875717 0.0 0.0 0.0 0.0
3.732 0.17043086886405945 -0.20358692109584808 0.0009838324040174484 -0.0010447409003973007 0.0 0.0 0.0 0.0
3.733 0.16139677166938782 -0.21769404411315918 0.0003631357103586197 -0.00010591931641101837 0.0 0.0 0.0 0.0
3.734 0.16199558973312378 -0.20661552250385284 0.0020803511142730713 0.0016020378097891808 0.0 0.0 0.0 0.0
3.735 0.14933426678180695 -0.20986567437648773 -0.0002087065950036049 0.0010885708034038544 0.0 0.0 0.0 0.0
3.736 0.15981042385101318 -0.21763773262500763 0.0005338499322533607 -7.864739745855331e-05 0.0 0.0 0.0 0.0
3.737 0.15166717767715454 -0.20840774476528168 -0.0008852332830429077 0.0004376424476504326 0.0 0.0 0.0 0.0
3.738 0.1468801647424698 -0.2151023894548416 -0.0005139913409948349 0.0021948013454675674 0.0 0.0 0.0 0.0
3.739 0.1479487419128418 -0.2131403535604477 -0.0006916075944900513 0.0014259088784456253 0.0 0.0 0.0 0.0
3.74 0.14966422319412231 -0.22327333688735962 0.00011374801397323608 0.001120423898100853 0.0 0.0 0.0 0.0
3.741 0.14209815859794617 -0.21803665161132812 -0.0008408399298787117 0.002034195698797703 0.0 0.0 0.0 0.0
3.742 0.13409507274627686 -0.2320922613143921 -0.00021151918917894363 0.0002088882029056549 0.0 0.0 0.0 0.0
3.743 0.13695575296878815 -0.22186271846294403 0.001790270209312439 -0.0007896209135651588 0.0 0.0 0.0 0.0
3.744 0.13306944072246552 -0.2358415126800537 0.0004669399932026863 -9.286589920520782e-05 0.0 0.0 0.0 0.0
3.745 0.13392995297908783 -0.22442860901355743 0.002292970195412636 -0.0014109034091234207 0.0 0.0 0.0 0.0
3.746 0.13038553297519684 -0.2214839607477188 0.0015261946246027946 0.0018603764474391937 0.0 0.0 0.0 0.0
3.747 0.1344258040189743 -0.23228637874126434 0.0008158273994922638 -0.0016878461465239525 0.0 0.0 0.0 0.0
3.748 0.12893341481685638 -0.2276458442211151 0.002262282185256481 0.003014272078871727 0.0 0.0 0.0 0.0
3.749 0.12302672117948532 -0.22553415596485138 -0.0006826091557741165 0.003008631058037281 0.0 0.0 0.0 0.0
3.75 0.12581023573875427 -0.23268316686153412 0.0015191631391644478 -0.00027760211378335953 0.0 0.0 0.0 0.0
3.751 0.1194215714931488 -0.22997087240219116 0.0017228778451681137 0.002687527798116207 0.0 0.0 0.0 0.0
3.752 0.1108555868268013 -0.2272735834121704 -0.002198716625571251 0.004320880398154259 0.0 0.0 0.0 0.0
3.753 0.11512517184019089 -0.23997031152248383 0.0019899262115359306 -0.00021373294293880463 0.0 0.0 0.0 0.0
3.754 0.10444623976945877 -0.22959238290786743 0.0001722387969493866 0.004397365264594555 0.0 0.0 0.0 0.0
3.755 0.09018077701330185 -0.23658908903598785 -0.001176055520772934 0.0008737398311495781 0.0 0.0 0.0 0.0
3.756 0.1010180339217186 -0.22222691774368286 0.000767475925385952 0.0033001741394400597 0.0 0.0 0.0 0.0
3.757 0.09357032924890518 -0.24481850862503052 0.00039075035601854324 0.0005788626149296761 0.0 0.0 0.0 0.0
3.758 0.08152894675731659 -0.2263144999742508 -0.0005247108638286591 0.000573672354221344 0.0 0.0 0.0 0.0
3.759 0.09268979728221893 -0.2206026315689087 -0.001774056814610958 0.001946011558175087 0.0 0.0 0.0 0.0
3.76 0.08635252714157104 -0.2306285947561264 -0.0015992345288395882 0.001848059706389904 0.0 0.0 0.0 0.0
3.761 0.08707905560731888 -0.2367664873600006 0.0023424215614795685 4.543270915746689e-05 0.0 0.0 0.0 0.0
3.762 0.07687672972679138 -0.231779083609581 -0.0020288582891225815 -0.0012819897383451462 0.0 0.0 0.0 0.0
3.763 0.08400604873895645 -0.23055356740951538 0.0012341169640421867 -0.0018925676122307777 0.0 0.0 0.0 0.0
3.764 0.06939701735973358 -0.23013679683208466 -0.0022782282903790474 0.0011274097487330437 0.0 0.0 0.0 0.0
3.765 0.0823558047413826 -0.23400850594043732 -0.0005948971956968307 -0.0008009839802980423 0.0 0.0 0.0 0.0
3.766 0.06375496089458466 -0.2261608988046646 -0.0012614959850907326 -0.00028235185891389847 0.0 0.0 0.0 0.0
3.767 0.07303939014673233 -0.23478688299655914 0.0003383420407772064 -0.00038619060069322586 0.0 0.0 0.0 0.0
3.768 0.061709433794021606 -0.2192716747522354 -0.0009752446785569191 0.00219041109085083 0.0 0.0 0.0 0.0
3.769 0.06741831451654434 -0.21783892810344696 0.0012557217851281166 0.0025023268535733223 0.0 0.0 0.0 0.0
3.77 0.07335619628429413 -0.23298488557338715 0.002532094717025757 0.0013797171413898468 0.0 0.0 0.0 0.0
3.771 0.04750560596585274 -0.2235257774591446 -0.0010469332337379456 0.0013394728302955627 0.0 0.0 0.0 0.0
3.772 0.05871480703353882 -0.21021880209445953 -0.0015043318271636963 0.002304600551724434 0.0 0.0 0.0 0.0
3.773 0.050625815987586975 -0.22551609575748444 0.0003355126827955246 -0.0001044832170009613 0.0 0.0 0.0 0.0
3.774 0.059278883039951324 -0.22811974585056305 0.003406541422009468 0.0018240390345454216 0.0 0.0 0.0 0.0
3.775 0.05990254133939743 -0.2283521294593811 0.00405977014452219 0.0005623931065201759 0.0 0.0 0.0 0.0
3.776 0.05379987135529518 -0.21342550218105316 -0.0020845644176006317 0.0010306844487786293 0.0 0.0 0.0 0.0
3.777 0.04090804606676102 -0.21748949587345123 -0.0017836587503552437 0.001470097340643406 0.0 0.0 0.0 0.0
3.778 0.052660565823316574 -0.21711842715740204 0.00488644652068615 0.0013338252902030945 0.0 0.0 0.0 0.0
3.779 0.04382617771625519 -0.1996033638715744 0.0007725609466433525 0.004721546545624733 0.0 0.0 0.0 0.0
3.78 0.05166688188910484 -0.2183455526828766 0.0013964390382170677 -0.0018064938485622406 0.0 0.0 0.0 0.0
3.781 0.053464967757463455 -0.22404944896697998 0.003834071569144726 -2.3290514945983887e-05 0.0 0.0 0.0 0.0
3.782 0.035651709884405136 -0.19805733859539032 -0.0010112784802913666 0.0029588500037789345 0.0 0.0 0.0 0.0
3.783 0.0306527242064476 -0.21875658631324768 0.002365030348300934 -0.0013382676988840103 0.0 0.0 0.0 0.0
3.784 0.04374697431921959 -0.20175178349018097 0.0011199051514267921 0.0034205466508865356 0.0 0.0 0.0 0.0
3.785 0.030771207064390182 -0.21122394502162933 0.002680780366063118 -0.001014132983982563 0.0 0.0 0.0 0.0
3.786 0.03502512350678444 -0.20506753027439117 0.0038719112053513527 0.0003432445228099823 0.0 0.0 0.0 0.0
3.787 0.04471905902028084 -0.20277303457260132 0.005400102585554123 0.0013468191027641296 0.0 0.0 0.0 0.0
3.788 0.02834254689514637 -0.20415368676185608 -0.0010239174589514732 -0.0012927530333399773 0.0 0.0 0.0 0.0
3.789 0.039142582565546036 -0.19562256336212158 0.003281606361269951 0.003436240367591381 0.0 0.0 0.0 0.0
3.79 0.04173861816525459 -0.18826650083065033 0.003884822130203247 0.0020998409017920494 0.0 0.0 0.0 0.0
3.791 0.04410925135016441 -0.1970856636762619 0.004539528861641884 -0.00123541709035635 0.0 0.0 0.0 0.0
3.792 0.0238957479596138 -0.18346212804317474 -0.000503959134221077 0.003279072232544422 0.0 0.0 0.0 0.0
3.793 0.02003883197903633 -0.1949518620967865 -0.0012584943324327469 -0.0020371852442622185 0.0 0.0 0.0 0.0
3.794 0.02965495176613331 -0.20155613124370575 0.0036472873762249947 -0.001470799557864666 0.0 0.0 0.0 0.0
3.795 0.022732606157660484 -0.17850501835346222 -0.0013545267283916473 0.0028992826119065285 0.0 0.0 0.0 0.0
3.796 0.024505769833922386 -0.18773357570171356 0.001673426479101181 -0.002776714041829109 0.0 0.0 0.0 0.0
3.797 0.03916441649198532 -0.17591944336891174 0.002600017935037613 0.003188599832355976 0.0 0.0 0.0 0.0
3.798 0.01959296129643917 -0.17968174815177917 -0.0013116896152496338 0.0005221227183938026 0.0 0.0 0.0 0.0
3.799 0.019055912271142006 -0.1876767873764038 0.0008883010596036911 -0.0022273659706115723 0.0 0.0 0.0 0.0
3.8 0.028664851561188698 -0.17886918783187866 0.0024971244856715202 -0.0032867351546883583 0.0 0.0 0.0 0.0
3.801 0.014069145545363426 -0.16490846872329712 0.0006153136491775513 0.001393461599946022 0.0 0.0 0.0 0.0
3.802 0.04180511459708214 -0.1648743897676468 0.004580147564411163 0.002161094918847084 0.0 0.0 0.0 0.0
3.803 0.03969716653227806 -0.1638479232788086 0.004492668434977531 0.0033139660954475403 0.0 0.0 0.0 0.0
3.804 0.038261618465185165 -0.17060880362987518 0.0051600392907857895 0.0010516494512557983 0.0 0.0 0.0 0.0
3.805 0.01822473853826523 -0.1500575840473175 -0.0014724945649504662 8.469074964523315e-05 0.0 0.0 0.0 0.0
3.806 0.03539932891726494 -0.15170612931251526 0.0033305715769529343 0.003029540181159973 0.0 0.0 0.0 0.0
3.807 0.01574944518506527 -0.1681804209947586 0.0034715561196208 -0.002981935627758503 0.0 0.0 0.0 0.0
3.808 0.01846589520573616 -0.17119017243385315 0.0032662441954016685 -0.0011126771569252014 0.0 0.0 0.0 0.0
3.809 0.0389150008559227 -0.1496608555316925 0.00036563724279403687 0.004556003026664257 0.0 0.0 0.0 0.0
3.81 0.03389909863471985 -0.16386283934116364 0.006412253715097904 0.0007313303649425507 0.0 0.0 0.0 0.0
3.811 0.03693527355790138 -0.15396253764629364 0.0036551039665937424 0.0024635735899209976 0.0 0.0 0.0 0.0
3.812 0.039158809930086136 -0.16292567551136017 0.003920858725905418 -0.0034281397238373756 0.0 0.0 0.0 0.0
3.813 0.04011452943086624 -0.14182327687740326 0.006283019669353962 0.0013942364603281021 0.0 0.0 0.0 0.0
3.814 0.03076970763504505 -0.12160155177116394 0.001367146149277687 0.0020334087312221527 0.0 0.0 0.0 0.0
3.815 0.041497427970170975 -0.14255154132843018 0.004990181885659695 0.0007459716871380806 0.0 0.0 0.0 0.0
3.816 0.011490067467093468 -0.14906862378120422 0.0010503297671675682 -0.0031701866537332535 0.0 0.0 0.0 0.0
3.817 0.022451911121606827 -0.13072556257247925 0.00062557402998209 -1.621432602405548e-06 0.0 0.0 0.0 0.0
3.818 0.043361593037843704 -0.12736880779266357 0.0018413392826914787 0.005332392640411854 0.0 0.0 0.0 0.0
3.819 0.03978721797466278 -0.1467757672071457 0.005944306030869484 -0.0015729451552033424 0.0 0.0 0.0 0.0
3.82 0.04882477968931198 -0.1426301747560501 0.009485231712460518 0.0008215000852942467 0.0 0.0 0.0 0.0
3.821 0.03093101643025875 -0.12210510671138763 -0.0022669797763228416 0.0006631035357713699 0.0 0.0 0.0 0.0
3.822 0.04851958155632019 -0.13301682472229004 0.007129192352294922 0.00030865613371133804 0.0 0.0 0.0 0.0
3.823 0.031215868890285492 -0.13562476634979248 0.0023092571645975113 -0.0042648594826459885 0.0 0.0 0.0 0.0
3.824 0.0466744489967823 -0.1174015998840332 0.001668643206357956 0.0034349225461483 0.0 0.0 0.0 0.0
3.825 0.04114225506782532 -0.1104159876704216 0.001379581168293953 0.002083555795252323 0.0 0.0 0.0 0.0
3.826 0.036536119878292084 -0.1221098005771637 -0.0015607541427016258 -0.0006793905049562454 0.0 0.0 0.0 0.0
3.827 0.05444571003317833 -0.13370344042778015 0.003996182233095169 -0.005092446692287922 0.0 0.0 0.0 0.0
3.828 0.0444764643907547 -0.10710249841213226 0.0017299363389611244 0.004510651342570782 0.0 0.0 0.0 0.0
3.829 0.06568492203950882 -0.1251930147409439 0.006271427497267723 -0.001094442792236805 0.0 0.0 0.0 0.0
3.83 0.04654819890856743 -0.13510531187057495 0.002162691205739975 -0.004084593616425991 0.0 0.0 0.0 0.0
3.831 0.06396428495645523 -0.09977803379297256 0.0009517623111605644 0.002231266349554062 0.0 0.0 0.0 0.0
3.832 0.04180833697319031 -0.10686713457107544 -0.0010694107040762901 -0.0034486018121242523 0.0 0.0 0.0 0.0
3.833 0.049563318490982056 -0.1128111183643341 0.000751148909330368 -0.004523804411292076 0.0 0.0 0.0 0.0
3.834 0.07289151847362518 -0.11532866209745407 0.004568981938064098 0.002098941244184971 0.0 0.0 0.0 0.0
3.835 0.07856237143278122 -0.11183597147464752 0.002588510513305664 0.003892759792506695 0.0 0.0 0.0 0.0
3.836 0.058675650507211685 -0.12414269894361496 0.003040675073862076 -0.006865395233035088 0.0 0.0 0.0 0.0
3.837 0.07930369675159454 -0.10550837963819504 0.005966765806078911 0.003474721685051918 0.0 0.0 0.0 0.0
3.838 0.06237053498625755 -0.10066812485456467 -0.0006664758548140526 -0.0005936091765761375 0.0 0.0 0.0 0.0
3.839 0.06105726957321167 -0.11489824950695038 0.003287332132458687 -0.0018081748858094215 0.0 0.0 0.0 0.0
3.84 0.08818528801202774 -0.13228613138198853 0.007617882452905178 0.0014812229201197624 0.0 0.0 0.0 0.0
3.841 0.06745146214962006 -0.10476899147033691 -0.000786907970905304 0.0003111250698566437 0.0 0.0 0.0 0.0
3.842 0.06197670102119446 -0.11335217952728271 0.002396908588707447 -0.007174140773713589 0.0 0.0 0.0 0.0
3.843 0.08585511893033981 -0.09965179860591888 0.0023083770647644997 0.0015961751341819763 0.0 0.0 0.0 0.0
3.844 0.09005122631788254 -0.09432186186313629 -0.0028472114354372025 -0.0014908341690897942 0.0 0.0 0.0 0.0
3.845 0.08239419013261795 -0.09870283305644989 4.53069806098938e-05 -0.00014092400670051575 0.0 0.0 0.0 0.0
3.846 0.08436191082000732 -0.0959419459104538 -0.0016584387049078941 -0.0021684523671865463 0.0 0.0 0.0 0.0
3.847 0.0836760476231575 -0.11436962336301804 0.001156727783381939 -0.0050750188529491425 0.0 0.0 0.0 0.0
3.848 0.09050191193819046 -0.10579011589288712 -0.0002910410985350609 -0.006152407266199589 0.0 0.0 0.0 0.0
3.849 0.09708317369222641 -0.09159352630376816 9.982474148273468e-05 0.001328703947365284 0.0 0.0 0.0 0.0
3.85 0.09917513281106949 -0.11588381975889206 0.0017088726162910461 -0.0053862351924180984 0.0 0.0 0.0 0.0
3.851 0.10162080824375153 -0.12678299844264984 0.0017539048567414284 -0.007418192923069 0.0 0.0 0.0 0.0
3.852 0.09549359232187271 -0.09967710822820663 0.0005379300564527512 0.00048162881284952164 0.0 0.0 0.0 0.0
3.853 0.09935127943754196 -0.09350070357322693 -0.0011624787002801895 -0.0008529657498002052 0.0 0.0 0.0 0.0
3.854 0.09856823831796646 -0.1041623130440712 -0.0005812440067529678 -0.0005197068676352501 0.0 0.0 0.0 0.0
3.855 0.1031566858291626 -0.12964671850204468 0.0028086546808481216 -0.006480471231043339 0.0 0.0 0.0 0.0
3.856 0.12143932282924652 -0.1218804270029068 0.006076344288885593 -0.0003707343712449074 0.0 0.0 0.0 0.0
3.857 0.1270444542169571 -0.10298498719930649 -0.0017016446217894554 0.001797633245587349 0.0 0.0 0.0 0.0
3.858 0.1195732057094574 -0.12447398900985718 0.005872419103980064 -0.004763873293995857 0.0 0.0 0.0 0.0
3.859 0.12511654198169708 -0.11055351793766022 0.0035630250349640846 0.001486268825829029 0.0 0.0 0.0 0.0
3.86 0.12700366973876953 -0.11061710119247437 0.0021327240392565727 0.002039879560470581 0.0 0.0 0.0 0.0
3.861 0.13591890037059784 -0.12537790834903717 0.008676002733409405 -0.004305972717702389 0.0 0.0 0.0 0.0
3.862 0.12654246389865875 -0.11424578726291656 0.0020193643867969513 -0.0006638402119278908 0.0 0.0 0.0 0.0
3.863 0.14071407914161682 -0.12270035594701767 0.006275644525885582 -0.0032829521223902702 0.0 0.0 0.0 0.0
3.864 0.11902530491352081 -0.1389969438314438 -0.000287679024040699 -0.007119723595678806 0.0 0.0 0.0 0.0
3.865 0.12094218283891678 -0.11826352775096893 -0.0020103715360164642 0.000445537269115448 0.0 0.0 0.0 0.0
3.866 0.15189696848392487 -0.11484955251216888 0.0035958653315901756 -0.00032371003180742264 0.0 0.0 0.0 0.0
3.867 0.12240949273109436 -0.12233269959688187 -0.003670915961265564 -0.0016436269506812096 0.0 0.0 0.0 0.0
3.868 0.15540534257888794 -0.11493373662233353 0.0025792196393013 0.0024249088019132614 0.0 0.0 0.0 0.0
3.869 0.15543530881404877 -0.13812796771526337 0.004967761225998402 -0.0006375852972269058 0.0 0.0 0.0 0.0
3.87 0.1601257175207138 -0.13868892192840576 0.004301190376281738 0.0007543619722127914 0.0 0.0 0.0 0.0
3.871 0.15608060359954834 -0.13702580332756042 0.002330869436264038 -0.0011431481689214706 0.0 0.0 0.0 0.0
3.872 0.15417617559432983 -0.12808160483837128 -0.0009239558130502701 0.0014821337535977364 0.0 0.0 0.0 0.0
3.873 0.15123242139816284 -0.1295652687549591 -0.0011729402467608452 0.000999215990304947 0.0 0.0 0.0 0.0
3.874 0.15670861303806305 -0.1375202238559723 0.003267282620072365 0.0009086085483431816 0.0 0.0 0.0 0.0
3.875 0.15376728773117065 -0.15560002624988556 0.004236201755702496 -0.006180472671985626 0.0 0.0 0.0 0.0
3.876 0.1447197049856186 -0.14886127412319183 -0.0004825461655855179 -0.006984381936490536 0.0 0.0 0.0 0.0
3.877 0.15435725450515747 -0.1535867303609848 -0.0004941262304782867 -0.006725774146616459 0.0 0.0 0.0 0.0
3.878 0.16449624300003052 -0.15740984678268433 0.005174312740564346 -0.0028670066967606544 0.0 0.0 0.0 0.0
3.879 0.14080627262592316 -0.1576058566570282 -0.001425793394446373 -0.003816608339548111 0.0 0.0 0.0 0.0
3.88 0.16406778991222382 -0.16535504162311554 0.002215261571109295 -0.007129200734198093 0.0 0.0 0.0 0.0
3.881 0.17943944036960602 -0.15058808028697968 0.003074520267546177 3.2629817724227905e-05 0.0 0.0 0.0 0.0
3.882 0.15048131346702576 -0.14550502598285675 -0.002043839544057846 0.0016433177515864372 0.0 0.0 0.0 0.0
3.883 0.16477078199386597 -0.14377595484256744 -0.00021790619939565659 0.0017400439828634262 0.0 0.0 0.0 0.0
3.884 0.16939318180084229 -0.15195292234420776 -0.00018991157412528992 0.0006050644442439079 0.0 0.0 0.0 0.0
3.885 0.15122781693935394 -0.16631071269512177 0.00032088905572891235 -0.0014637326821684837 0.0 0.0 0.0 0.0
3.886 0.17357243597507477 -0.1542612761259079 6.295088678598404e-05 0.0004974184557795525 0.0 0.0 0.0 0.0
3.887 0.16061559319496155 -0.16921091079711914 -0.0034015141427516937 -0.0063240863382816315 0.0 0.0 0.0 0.0
3.888 0.17080636322498322 -0.17342278361320496 0.0046912021934986115 -0.0012355493381619453 0.0 0.0 0.0 0.0
3.889 0.1538667380809784 -0.17210283875465393 -0.004681126214563847 0.0006717955693602562 0.0 0.0 0.0 0.0
3.89 0.1800551414489746 -0.16590750217437744 0.0021565277129411697 0.0006069066002964973 0.0 0.0 0.0 0.0
3.891 0.15679258108139038 -0.1605345457792282 -0.0018080035224556923 0.0013984628021717072 0.0 0.0 0.0 0.0
3.892 0.14666086435317993 -0.17614848911762238 -0.005031404085457325 -0.0010336432605981827 0.0 0.0 0.0 0.0
3.893 0.16481679677963257 -0.1998458206653595 2.334732562303543e-05 -0.005245896987617016 0.0 0.0 0.0 0.0
3.894 0.1536741405725479 -0.1695903092622757 -0.0033729886636137962 -0.0026039062067866325 0.0 0.0 0.0 0.0
3.895 0.15189655125141144 -0.19466766715049744 -0.0024232082068920135 -0.0038287220522761345 0.0 0.0 0.0 0.0
3.896 0.18185342848300934 -0.1882171481847763 0.0017603514716029167 0.000758378766477108 0.0 0.0 0.0 0.0
3.897 0.1566576510667801 -0.18823543190956116 -0.004971044138073921 -0.0016640881076455116 0.0 0.0 0.0 0.0
3.898 0.15766574442386627 -0.19866053760051727 -0.0038233380764722824 -0.005491561256349087 0.0 0.0 0.0 0.0
3.899 0.17641711235046387 -0.21115994453430176 0.0006382633000612259 -0.002618708647787571 0.0 0.0 0.0 0.0
3.9 0.1652899980545044 -0.19202278554439545 -0.006055912934243679 0.0015947874635457993 0.0 0.0 0.0 0.0
3.901 0.15906590223312378 -0.2161533385515213 -0.002741987816989422 -0.006166661158204079 0.0 0.0 0.0 0.0
3.902 0.17136208713054657 -0.19693943858146667 0.0015211086720228195 0.0018318621441721916 0.0 0.0 0.0 0.0
3.903 0.1504598706960678 -0.20181527733802795 -0.003977017477154732 -0.0028532790020108223 0.0 0.0 0.0 0.0
3.904 0.1764504611492157 -0.2080049365758896 0.004479826427996159 -0.0007276535034179688 0.0 0.0 0.0 0.0
3.905 0.16856887936592102 -0.1953367292881012 -0.0032502785325050354 0.002832908183336258 0.0 0.0 0.0 0.0
3.906 0.15166738629341125 -0.21858230233192444 -0.004214770160615444 -0.0027376171201467514 0.0 0.0 0.0 0.0
3.907 0.15778392553329468 -0.2325507551431656 0.0043559325858950615 -0.005543160252273083 0.0 0.0 0.0 0.0
3.908 0.15252463519573212 -0.2142631709575653 -0.0038944249972701073 -0.0009837467223405838 0.0 0.0 0.0 0.0
3.909 0.15131248533725739 -0.22214099764823914 -0.0015965485945343971 -0.005302758887410164 0.0 0.0 0.0 0.0
3.91 0.15898096561431885 -0.2129105031490326 -0.0016299672424793243 -0.00010045990347862244 0.0 0.0 0.0 0.0
3.911 0.1700495481491089 -0.22892649471759796 0.00497305765748024 0.002079569734632969 0.0 0.0 0.0 0.0
3.912 0.15307526290416718 -0.23970136046409607 -0.0005754102021455765 -0.005144685506820679 0.0 0.0 0.0 0.0
3.913 0.15475697815418243 -0.22524304687976837 -0.004720785655081272 -0.00024056155234575272 0.0 0.0 0.0 0.0
3.914 0.16589568555355072 -0.22530317306518555 0.0009104134514927864 0.00286224577575922 0.0 0.0 0.0 0.0
3.915 0.15462002158164978 -0.22840546071529388 0.00031398236751556396 0.0047583552077412605 0.0 0.0 0.0 0.0
3.916 0.14489023387432098 -0.24427154660224915 -0.002484560012817383 -0.0028297295793890953 0.0 0.0 0.0 0.0
3.917 0.1585741937160492 -0.22975224256515503 0.0019883466884493828 0.0030165938660502434 0.0 0.0 0.0 0.0
3.918 0.14618109166622162 -0.2335970252752304 -0.0034150807186961174 -0.002540689893066883 0.0 0.0 0.0 0.0
3.919 0.16347426176071167 -0.2456510066986084 0.0032978495582938194 0.002938271500170231 0.0 0.0 0.0 0.0
3.92 0.15858730673789978 -0.23647591471672058 -0.0017919670790433884 0.0014235572889447212 0.0 0.0 0.0 0.0
3.921 0.15640151500701904 -0.24588878452777863 -0.0011161742731928825 0.0019965479150414467 0.0 0.0 0.0 0.0
3.922 0.14646703004837036 -0.26074525713920593 0.0026126476004719734 -0.004090546630322933 0.0 0.0 0.0 0.0
3.923 0.15880988538265228 -0.2522006332874298 0.0032194526866078377 0.00021849945187568665 0.0 0.0 0.0 0.0
3.924 0.15920129418373108 -0.26192042231559753 0.004656343720853329 -0.0034098895266652107 0.0 0.0 0.0 0.0
3.925 0.15237188339233398 -0.2504746913909912 -0.00019845739006996155 0.002243313007056713 0.0 0.0 0.0 0.0
3.926 0.1407531201839447 -0.25238311290740967 -0.0037257149815559387 0.0016238801181316376 0.0 0.0 0.0 0.0
3.927 0.1538568139076233 -0.2598380446434021 0.004008539021015167 -0.00022351928055286407 0.0 0.0 0.0 0.0
3.928 0.14718365669250488 -0.24800792336463928 0.0010460326448082924 0.003885219804942608 0.0 0.0 0.0 0.0
3.929 0.12472545355558395 -0.2568274438381195 -0.0041483500972390175 -0.001387965865433216 0.0 0.0 0.0 0.0
3.93 0.1534837931394577 -0.27386224269866943 0.003168000839650631 -0.001570715568959713 0.0 0.0 0.0 0.0
3.931 0.12619224190711975 -0.2638302445411682 0.000759451650083065 -0.0013457220047712326 0.0 0.0 0.0 0.0
3.932 0.1234336867928505 -0.2590601444244385 -0.0018864432349801064 -0.0007554208859801292 0.0 0.0 0.0 0.0
3.933 0.13818517327308655 -0.2763216197490692 0.0026275096461176872 -0.002961399033665657 0.0 0.0 0.0 0.0
3.934 0.1296384334564209 -0.26005086302757263 -0.0005466034635901451 0.0018142564222216606 0.0 0.0 0.0 0.0
3.935 0.12470885366201401 -0.26358291506767273 -0.003136914223432541 0.002153952606022358 0.0 0.0 0.0 0.0
3.936 0.131444051861763 -0.28892427682876587 0.0045760758221149445 -0.004048401489853859 0.0 0.0 0.0 0.0
3.937 0.1278507560491562 -0.2748839855194092 0.004927266389131546 -0.000512000173330307 0.0 0.0 0.0 0.0
3.938 0.13338156044483185 -0.2598755657672882 0.000446476973593235 0.0027144718915224075 0.0 0.0 0.0 0.0
3.939 0.12759985029697418 -0.26378241181373596 0.002548210322856903 0.0012380415573716164 0.0 0.0 0.0 0.0
3.94 0.11786957830190659 -0.2598364055156708 -0.0031975368037819862 0.0008018966764211655 0.0 0.0 0.0 0.0
3.941 0.0953107699751854 -0.28361690044403076 -0.0025021955370903015 -0.0033119190484285355 0.0 0.0 0.0 0.0
3.942 0.10811977833509445 -0.2759546935558319 -0.0022428324446082115 -0.0020395079627633095 0.0 0.0 0.0 0.0
3.943 0.09844834357500076 -0.27849143743515015 -0.0013575777411460876 -0.004554754123091698 0.0 0.0 0.0 0.0
3.944 0.10484979301691055 -0.2811651825904846 -0.0017662430182099342 -0.003152424469590187 0.0 0.0 0.0 0.0
3.945 0.10204579681158066 -0.2754513621330261 -0.0008198078721761703 0.0012483447790145874 0.0 0.0 0.0 0.0
3.946 0.10524137318134308 -0.2868315577507019 -0.0035915598273277283 -0.005364596843719482 0.0 0.0 0.0 0.0
3.947 0.09178631007671356 -0.29690974950790405 -0.0011622458696365356 -0.0053582750260829926 0.0 0.0 0.0 0.0
3.948 0.10733841359615326 -0.27348464727401733 0.0017020711675286293 0.0018357373774051666 0.0 0.0 0.0 0.0
3.949 0.09611314535140991 -0.3017672300338745 0.0011797929182648659 -0.004629235714673996 0.0 0.0 0.0 0.0
3.95 0.08401955664157867 -0.2980852723121643 -0.0015361905097961426 -0.0029294686391949654 0.0 0.0 0.0 0.0
3.951 0.07875541597604752 -0.28160586953163147 -0.0017306609079241753 -0.0037361998111009598 0.0 0.0 0.0 0.0
3.952 0.0756324976682663 -0.28400105237960815 -0.0017357077449560165 -0.0024508144706487656 0.0 0.0 0.0 0.0
3.953 0.08678937703371048 -0.29228973388671875 0.0002447497099637985 -0.005583522841334343 0.0 0.0 0.0 0.0
3.954 0.08544471114873886 -0.2825213074684143 -0.0035281144082546234 0.00022715236991643906 0.0 0.0 0.0 0.0
3.955 0.08325055241584778 -0.28348276019096375 -0.0020692311227321625 -0.004863758571445942 0.0 0.0 0.0 0.0
3.956 0.08148107677698135 -0.30422115325927734 0.0024019740521907806 -0.005303641781210899 0.0 0.0 0.0 0.0
3.957 0.07982093095779419 -0.28142669796943665 -0.0024377908557653427 -4.9282796680927277e-05 0.0 0.0 0.0 0.0
3.958 0.0884622186422348 -0.2818019390106201 0.003115931525826454 0.0003384314477443695 0.0 0.0 0.0 0.0
3.959 0.07828398793935776 -0.2776045799255371 0.0005968352779746056 -9.421538561582565e-05 0.0 0.0 0.0 0.0
3.96 0.06785471737384796 -0.2763521075248718 -0.0047438787296414375 -0.000982566736638546 0.0 0.0 0.0 0.0
3.961 0.06583733856678009 -0.2963026762008667 -0.0008455533534288406 -0.0048156557604670525 0.0 0.0 0.0 0.0
3.962 0.0869930237531662 -0.3007047772407532 0.003444872796535492 -0.004712275229394436 0.0 0.0 0.0 0.0
3.963 0.07912276685237885 -0.2870517671108246 0.003992471843957901 -0.002652824856340885 0.0 0.0 0.0 0.0
3.964 0.0678454264998436 -0.2755230665206909 -0.0025512976571917534 -0.00048103462904691696 0.0 0.0 0.0 0.0
3.965 0.056598909199237823 -0.29395008087158203 -0.0010067010298371315 -0.005017074756324291 0.0 0.0 0.0 0.0
3.966 0.05599801987409592 -0.29141274094581604 -0.0009555425494909286 -0.005305522121489048 0.0 0.0 0.0 0.0
3.967 0.065789133310318 -0.27414360642433167 -0.000773940235376358 0.0006438884884119034 0.0 0.0 0.0 0.0
3.968 0.07758603990077972 -0.28446441888809204 0.0025162724778056145 0.0008782641962170601 0.0 0.0 0.0 0.0
3.969 0.06735594570636749 -0.2896815836429596 0.002276812680065632 0.00037411972880363464 0.0 0.0 0.0 0.0
3.97 0.06803164631128311 -0.29236888885498047 0.003454461693763733 -0.002635498531162739 0.0 0.0 0.0 0.0
3.971 0.05607440695166588 -0.27603742480278015 0.000982026569545269 0.0015312889590859413 0.0 0.0 0.0 0.0
3.972 0.05365554243326187 -0.29150503873825073 0.0008045900613069534 -0.006881341338157654 0.0 0.0 0.0 0.0
3.973 0.06602565199136734 -0.28215450048446655 0.0031741270795464516 -0.0032587917521595955 0.0 0.0 0.0 0.0
3.974 0.056286316365003586 -0.27329933643341064 -0.0006166519597172737 0.0017739590257406235 0.0 0.0 0.0 0.0
3.975 0.052810367196798325 -0.2966157793998718 0.002535698004066944 -0.0044067613780498505 0.0 0.0 0.0 0.0
3.976 0.05711370334029198 -0.2745782136917114 0.003615136258304119 -0.0005589369684457779 0.0 0.0 0.0 0.0
3.977 0.035693030804395676 -0.27991706132888794 0.0002921503037214279 -0.0021462906152009964 0.0 0.0 0.0 0.0
3.978 0.043025460094213486 -0.290336012840271 0.0019809268414974213 -0.002831432968378067 0.0 0.0 0.0 0.0
3.979 0.054372385144233704 -0.28008565306663513 0.0030820248648524284 -0.0011433549225330353 0.0 0.0 0.0 0.0
3.98 0.05065031349658966 -0.27171170711517334 0.0008704317733645439 0.000774863176047802 0.0 0.0 0.0 0.0
3.981 0.039400774985551834 -0.28223440051078796 0.0015617646276950836 -0.006457074545323849 0.0 0.0 0.0 0.0
3.982 0.05402836203575134 -0.2687571346759796 0.0014050798490643501 -0.0007992712780833244 0.0 0.0 0.0 0.0
3.983 0.04312232881784439 -0.2662983536720276 0.0011350428685545921 0.001058695837855339 0.0 0.0 0.0 0.0
3.984 0.04322827607393265 -0.2839769721031189 0.0012592477723956108 -0.003855982795357704 0.0 0.0 0.0 0.0
3.985 0.038851864635944366 -0.2649909257888794 0.0026530856266617775 -0.0001366725191473961 0.0 0.0 0.0 0.0
3.986 0.033102452754974365 -0.2545628547668457 -0.002618015743792057 -0.0005753487348556519 0.0 0.0 0.0 0.0
3.987 0.04206676781177521 -0.2752512991428375 0.0031968289986252785 -0.002473260276019573 0.0 0.0 0.0 0.0
3.988 0.0436505451798439 -0.2608906328678131 0.0007389308884739876 0.0008458355441689491 0.0 0.0 0.0 0.0
3.989 0.02715723216533661 -0.25787580013275146 -0.0021710898727178574 -0.0006882268935441971 0.0 0.0 0.0 0.0
3.99 0.03147998824715614 -0.27400243282318115 0.0013427436351776123 -0.004333541728556156 0.0 0.0 0.0 0.0
3.991 0.03089454583823681 -0.2563073933124542 -9.336229413747787e-05 0.00016005057841539383 0.0 0.0 0.0 0.0
3.992 0.029598375782370567 -0.25374898314476013 -0.0029572853818535805 -0.00016129110008478165 0.0 0.0 0.0 0.0
3.993 0.038930244743824005 -0.26065680384635925 0.002205737866461277 -0.0021069934591650963 0.0 0.0 0.0 0.0
3.994 0.034672778099775314 -0.25572848320007324 0.0025010351091623306 6.632693111896515e-05 0.0 0.0 0.0 0.0
3.995 0.029517952352762222 -0.2730371356010437 -0.0018999623134732246 -0.005812936462461948 0.0 0.0 0.0 0.0
3.996 0.02418164350092411 -0.249678373336792 0.0013826191425323486 -0.0001051872968673706 0.0 0.0 0.0 0.0
3.997 0.015409289859235287 -0.2562985420227051 -0.002532907761633396 -0.004794148728251457 0.0 0.0 0.0 0.0
3.998 0.018759362399578094 -0.26686596870422363 0.0014015166088938713 -0.003697139210999012 0.0 0.0 0.0 0.0
3.999 0.03368133679032326 -0.26358774304389954 0.002578228712081909 -0.0021176347509026527 0.0 0.0 0.0 0.0
4.0 0.030113762244582176 -0.252959281206131 2.5091692805290222e-05 -6.633345037698746e-05 0.0 0.0 0.0 0.0
