!Created with skrf (http://scikit-rf.org).
# GHz S RI R 50.0 
!freq ReS11 ImS11 ReS21 ImS21 ReS12 ImS12 ReS22 ImS22
0.001 -0.14849509298801422 0.008953581564128399 1.3075478076934814 -0.14386536180973053 0.0 0.0 0.0 0.0
0.002 -0.08097556233406067 0.1276807337999344 1.0777950286865234 -0.27576136589050293 0.0 0.0 0.0 0.0
0.003 -0.03431550785899162 0.20078203082084656 0.9899280667304993 -0.36920076608657837 0.0 0.0 0.0 0.0
0.004 0.01836797408759594 0.2549559772014618 0.9104776382446289 -0.43097054958343506 0.0 0.0 0.0 0.0
0.005 0.07373315095901489 0.29430899024009705 0.8306124806404114 -0.48563241958618164 0.0 0.0 0.0 0.0
0.006 0.13062937557697296 0.32455119490623474 0.7676528692245483 -0.5318999290466309 0.0 0.0 0.0 0.0
0.007 0.18894712626934052 0.34563714265823364 0.6997618675231934 -0.5634307861328125 0.0 0.0 0.0 0.0
0.008 0.24780048429965973 0.35699525475502014 0.6337447166442871 -0.5963547229766846 0.0 0.0 0.0 0.0
0.009 0.30612877011299133 0.3607030510902405 0.5735605359077454 -0.6251718997955322 0.0 0.0 0.0 0.0
0.01 0.36309415102005005 0.356866717338562 0.5111379623413086 -0.6397440433502197 0.0 0.0 0.0 0.0
0.011 0.4174255132675171 0.34635505080223083 0.45515546202659607 -0.6531182527542114 0.0 0.0 0.0 0.0
0.012 0.47093668580055237 0.3283851444721222 0.3938765525817871 -0.666084885597229 0.0 0.0 0.0 0.0
0.013 0.5204416513442993 0.30526816844940186 0.3385639190673828 -0.6695720553398132 0.0 0.0 0.0 0.0
0.014 0.5646546483039856 0.2774195373058319 0.28414541482925415 -0.6692717671394348 0.0 0.0 0.0 0.0
0.015 0.6060157418251038 0.24490676820278168 0.23488681018352509 -0.6611476540565491 0.0 0.0 0.0 0.0
0.016 0.6433060765266418 0.20693248510360718 0.18276675045490265 -0.6556926369667053 0.0 0.0 0.0 0.0
0.017 0.6786345839500427 0.16678205132484436 0.1389719843864441 -0.6479961276054382 0.0 0.0 0.0 0.0
0.018 0.7048497796058655 0.1266961693763733 0.09565427899360657 -0.6326138377189636 0.0 0.0 0.0 0.0
0.019 0.7297866940498352 0.08350765705108643 0.055487655103206635 -0.6171907782554626 0.0 0.0 0.0 0.0
0.02 0.7502747178077698 0.039610836654901505 0.02058292180299759 -0.5982129573822021 0.0 0.0 0.0 0.0
0.021 0.7673492431640625 -0.0063021061941981316 -0.01248967181891203 -0.5796448588371277 0.0 0.0 0.0 0.0
0.022 0.7801518440246582 -0.055425047874450684 -0.04494207352399826 -0.5628476142883301 0.0 0.0 0.0 0.0
0.023 0.7887129783630371 -0.10115472972393036 -0.07336294651031494 -0.5405272841453552 0.0 0.0 0.0 0.0
0.024 0.7918744087219238 -0.14547383785247803 -0.09721564501523972 -0.5160215497016907 0.0 0.0 0.0 0.0
0.025 0.7956560254096985 -0.19734317064285278 -0.12488742917776108 -0.4972842335700989 0.0 0.0 0.0 0.0
0.026 0.7921262979507446 -0.24138963222503662 -0.1462685614824295 -0.4725748300552368 0.0 0.0 0.0 0.0
0.027 0.7878724336624146 -0.2849777340888977 -0.16345521807670593 -0.44825246930122375 0.0 0.0 0.0 0.0
0.028 0.7833988666534424 -0.3304003179073334 -0.17969904839992523 -0.4273681938648224 0.0 0.0 0.0 0.0
0.029 0.7701916694641113 -0.375137597322464 -0.1958974450826645 -0.4036620855331421 0.0 0.0 0.0 0.0
0.03 0.7552617192268372 -0.41793346405029297 -0.21015751361846924 -0.38101765513420105 0.0 0.0 0.0 0.0
0.031 0.7416004538536072 -0.46083879470825195 -0.22139856219291687 -0.3576734960079193 0.0 0.0 0.0 0.0
0.032 0.7252030372619629 -0.49882304668426514 -0.22918179631233215 -0.33563873171806335 0.0 0.0 0.0 0.0
0.033 0.7061075568199158 -0.5393478274345398 -0.23655745387077332 -0.3115222156047821 0.0 0.0 0.0 0.0
0.034 0.6823303699493408 -0.5768718719482422 -0.2411288321018219 -0.2881808280944824 0.0 0.0 0.0 0.0
0.035 0.6553583145141602 -0.6167513728141785 -0.24423308670520782 -0.26557648181915283 0.0 0.0 0.0 0.0
0.036 0.6132625341415405 -0.6590610146522522 -0.22712774574756622 -0.23813413083553314 0.0 0.0 0.0 0.0
0.037 0.5904104709625244 -0.6319565773010254 -0.2348308265209198 -0.2810876965522766 0.0 0.0 0.0 0.0
0.038 0.5849125981330872 -0.6906102299690247 -0.2584547698497772 -0.23462440073490143 0.0 0.0 0.0 0.0
0.039 0.5531324744224548 -0.7245587706565857 -0.25942444801330566 -0.2075120061635971 0.0 0.0 0.0 0.0
0.04 0.5282723903656006 -0.7541057467460632 -0.25849995017051697 -0.1891515552997589 0.0 0.0 0.0 0.0
0.041 0.4931323230266571 -0.7791774272918701 -0.25754234194755554 -0.16891729831695557 0.0 0.0 0.0 0.0
0.042 0.4611392915248871 -0.8079243898391724 -0.25611451268196106 -0.15267489850521088 0.0 0.0 0.0 0.0
0.043 0.4292488694190979 -0.8335121870040894 -0.25463008880615234 -0.13646478950977325 0.0 0.0 0.0 0.0
0.044 0.3864372968673706 -0.8613392114639282 -0.250679612159729 -0.11900952458381653 0.0 0.0 0.0 0.0
0.045 0.3493706285953522 -0.8820470571517944 -0.24753281474113464 -0.10441892594099045 0.0 0.0 0.0 0.0
0.046 0.3149954676628113 -0.8967388868331909 -0.2438391000032425 -0.09074608236551285 0.0 0.0 0.0 0.0
0.047 0.27583956718444824 -0.9114874601364136 -0.23832982778549194 -0.07599448412656784 0.0 0.0 0.0 0.0
0.048 0.24234691262245178 -0.924125075340271 -0.23192241787910461 -0.06388717889785767 0.0 0.0 0.0 0.0
0.049 0.20117679238319397 -0.9415884613990784 -0.22763054072856903 -0.05204446241259575 0.0 0.0 0.0 0.0
0.05 0.16457565128803253 -0.9519290924072266 -0.22120797634124756 -0.040955379605293274 0.0 0.0 0.0 0.0
0.051 0.12755167484283447 -0.9554013609886169 -0.21365149319171906 -0.028671544045209885 0.0 0.0 0.0 0.0
0.052 0.0922279879450798 -0.9648837447166443 -0.20731021463871002 -0.019823066890239716 0.0 0.0 0.0 0.0
0.053 0.05348993092775345 -0.9722484946250916 -0.19977158308029175 -0.010876782238483429 0.0 0.0 0.0 0.0
0.054 0.0106740677729249 -0.9744236469268799 -0.1918850541114807 -0.002948170527815819 0.0 0.0 0.0 0.0
0.055 -0.02421334572136402 -0.9758961200714111 -0.1835889220237732 0.003915317356586456 0.0 0.0 0.0 0.0
0.056 -0.06335162371397018 -0.9804649353027344 -0.17647434771060944 0.011284968815743923 0.0 0.0 0.0 0.0
0.057 -0.1044226884841919 -0.9756348729133606 -0.16829122602939606 0.018278401345014572 0.0 0.0 0.0 0.0
0.058 -0.13691364228725433 -0.9720807671546936 -0.16075794398784637 0.024099448695778847 0.0 0.0 0.0 0.0
0.059 -0.17469584941864014 -0.97101891040802 -0.1522589921951294 0.029398540034890175 0.0 0.0 0.0 0.0
0.06 -0.2152482569217682 -0.964886486530304 -0.1445600837469101 0.03399824723601341 0.0 0.0 0.0 0.0
0.061 -0.25226345658302307 -0.9595635533332825 -0.1363389939069748 0.03835142403841019 0.0 0.0 0.0 0.0
0.062 -0.2866189777851105 -0.9505086541175842 -0.12776929140090942 0.04153170809149742 0.0 0.0 0.0 0.0
0.063 -0.3246770203113556 -0.937343955039978 -0.12023399025201797 0.0441943034529686 0.0 0.0 0.0 0.0
0.064 -0.35968175530433655 -0.9234196543693542 -0.11120006442070007 0.04549161344766617 0.0 0.0 0.0 0.0
0.065 -0.3966287672519684 -0.9150872826576233 -0.10401425510644913 0.04773455858230591 0.0 0.0 0.0 0.0
0.066 -0.43102896213531494 -0.8981485962867737 -0.09605002403259277 0.04888499155640602 0.0 0.0 0.0 0.0
0.067 -0.4598265588283539 -0.8827756643295288 -0.08881361782550812 0.0496019646525383 0.0 0.0 0.0 0.0
0.068 -0.4915473163127899 -0.8667154908180237 -0.08136449754238129 0.04971139132976532 0.0 0.0 0.0 0.0
0.069 -0.5218436121940613 -0.8514772057533264 -0.0743471309542656 0.04919847473502159 0.0 0.0 0.0 0.0
0.07 -0.5588898062705994 -0.8330338597297668 -0.0675099641084671 0.04879013076424599 0.0 0.0 0.0 0.0
0.071 -0.5897634029388428 -0.8129178285598755 -0.060907814651727676 0.047589268535375595 0.0 0.0 0.0 0.0
0.072 -0.6148045063018799 -0.7882094383239746 -0.054519735276699066 0.04634581506252289 0.0 0.0 0.0 0.0
0.073 -0.6456494927406311 -0.7659697532653809 -0.04849407821893692 0.04453306272625923 0.0 0.0 0.0 0.0
0.074 -0.6717521548271179 -0.7433382272720337 -0.04253430292010307 0.04201282188296318 0.0 0.0 0.0 0.0
0.075 -0.6979122757911682 -0.7244015336036682 -0.03727822005748749 0.03948687016963959 0.0 0.0 0.0 0.0
0.076 -0.7263699769973755 -0.7004820108413696 -0.03220032528042793 0.036539580672979355 0.0 0.0 0.0 0.0
0.077 -0.7515844702720642 -0.6716751456260681 -0.027381431311368942 0.033204156905412674 0.0 0.0 0.0 0.0
0.078 -0.7735506892204285 -0.6431299448013306 -0.022891443222761154 0.02969393879175186 0.0 0.0 0.0 0.0
0.079 -0.7988905906677246 -0.617691159248352 -0.018760638311505318 0.02570018172264099 0.0 0.0 0.0 0.0
0.08 -0.8163955211639404 -0.5875466465950012 -0.01509077288210392 0.021739261224865913 0.0 0.0 0.0 0.0
0.081 -0.8376215696334839 -0.564850926399231 -0.011954804882407188 0.01773417741060257 0.0 0.0 0.0 0.0
0.082 -0.8543450236320496 -0.5338411331176758 -0.00890558771789074 0.01311311312019825 0.0 0.0 0.0 0.0
0.083 -0.8755663633346558 -0.503757655620575 -0.006224711425602436 0.008439217694103718 0.0 0.0 0.0 0.0
0.084 -0.8934507369995117 -0.4696943759918213 -0.004122958518564701 0.003761177882552147 0.0 0.0 0.0 0.0
0.085 -0.9046182036399841 -0.4398016929626465 -0.0023854244500398636 -0.001066279597580433 0.0 0.0 0.0 0.0
0.086 -0.9224569201469421 -0.4081886410713196 -0.0007613562047481537 -0.006019690074026585 0.0 0.0 0.0 0.0
0.087 -0.9390727281570435 -0.3792572617530823 9.949225932359695e-05 -0.011135570704936981 0.0 0.0 0.0 0.0
0.088 -0.9498894214630127 -0.3443102240562439 0.0007024984806776047 -0.016194822266697884 0.0 0.0 0.0 0.0
0.089 -0.9634143710136414 -0.3116573095321655 0.0006876830011606216 -0.02120933122932911 0.0 0.0 0.0 0.0
0.09 -0.9734790325164795 -0.2781582176685333 0.0005296133458614349 -0.026093482971191406 0.0 0.0 0.0 0.0
0.091 -0.9781962037086487 -0.24463538825511932 0.0002046572044491768 -0.03121689334511757 0.0 0.0 0.0 0.0
0.092 -0.9899465441703796 -0.20694699883460999 -0.0011592572554945946 -0.036457400768995285 0.0 0.0 0.0 0.0
0.093 -0.9931244254112244 -0.16923083364963531 -0.002599947154521942 -0.04117729142308235 0.0 0.0 0.0 0.0
0.094 -0.9967300295829773 -0.1373433768749237 -0.004297426901757717 -0.045889902859926224 0.0 0.0 0.0 0.0
0.095 -1.000694751739502 -0.10496845096349716 -0.006083991378545761 -0.05085614323616028 0.0 0.0 0.0 0.0
0.096 -1.0074777603149414 -0.06681661307811737 -0.008781608194112778 -0.05601661652326584 0.0 0.0 0.0 0.0
0.097 -1.0048425197601318 -0.03229236975312233 -0.011544514447450638 -0.060368478298187256 0.0 0.0 0.0 0.0
0.098 -1.0030791759490967 0.0035617519170045853 -0.014742652885615826 -0.06462526321411133 0.0 0.0 0.0 0.0
0.099 -1.0035029649734497 0.03718511760234833 -0.018100887537002563 -0.06927069276571274 0.0 0.0 0.0 0.0
0.1 -1.011309027671814 0.09766063094139099 -0.024180326610803604 -0.07394202053546906 0.0 0.0 0.0 0.0
0.101 -0.9333184957504272 0.1171451285481453 -0.025967707857489586 -0.07239135354757309 0.0 0.0 0.0 0.0
0.102 -0.9313724637031555 0.14883728325366974 -0.03036324679851532 -0.07638922333717346 0.0 0.0 0.0 0.0
0.103 -0.9235798716545105 0.17843745648860931 -0.03502151370048523 -0.07981231063604355 0.0 0.0 0.0 0.0
0.104 -0.9169724583625793 0.21436160802841187 -0.04049157723784447 -0.08322839438915253 0.0 0.0 0.0 0.0
0.105 -0.9076939821243286 0.24323810636997223 -0.04554490000009537 -0.08651041984558105 0.0 0.0 0.0 0.0
0.106 -0.8979635238647461 0.2772253453731537 -0.0522804819047451 -0.08938499540090561 0.0 0.0 0.0 0.0
0.107 -0.8868342041969299 0.3073470890522003 -0.05847368761897087 -0.09196691960096359 0.0 0.0 0.0 0.0
0.108 -0.8756303787231445 0.339862585067749 -0.06586430221796036 -0.0944630578160286 0.0 0.0 0.0 0.0
0.109 -0.8585363030433655 0.37150976061820984 -0.07339098304510117 -0.09622769057750702 0.0 0.0 0.0 0.0
0.11 -0.8435060381889343 0.40159425139427185 -0.08301161229610443 -0.09774665534496307 0.0 0.0 0.0 0.0
0.111 -0.825348973274231 0.43104642629623413 -0.09187829494476318 -0.09821891039609909 0.0 0.0 0.0 0.0
0.112 -0.8084491491317749 0.4613078832626343 -0.10173473507165909 -0.09882863610982895 0.0 0.0 0.0 0.0
0.113 -0.7870020270347595 0.4875706732273102 -0.11124379187822342 -0.09869718551635742 0.0 0.0 0.0 0.0
0.114 -0.76569002866745 0.518210768699646 -0.12317774444818497 -0.0979863628745079 0.0 0.0 0.0 0.0
0.115 -0.7366355657577515 0.5435041189193726 -0.13635949790477753 -0.09460229426622391 0.0 0.0 0.0 0.0
0.116 -0.7082165479660034 0.5673790574073792 -0.15144585072994232 -0.08860790729522705 0.0 0.0 0.0 0.0
0.117 -0.6766897439956665 0.585273802280426 -0.16520154476165771 -0.0780804455280304 0.0 0.0 0.0 0.0
0.118 -0.6491218209266663 0.5982130169868469 -0.17738012969493866 -0.06312678009271622 0.0 0.0 0.0 0.0
0.119 -0.6211187243461609 0.6056910157203674 -0.18362325429916382 -0.04469306021928787 0.0 0.0 0.0 0.0
0.12 -0.6003472208976746 0.6103066205978394 -0.18436020612716675 -0.02519027329981327 0.0 0.0 0.0 0.0
0.121 -0.5872334241867065 0.6178893446922302 -0.17893123626708984 -0.009328877553343773 0.0 0.0 0.0 0.0
0.122 -0.5749155879020691 0.6254280805587769 -0.1684495508670807 0.0030618272721767426 0.0 0.0 0.0 0.0
0.123 -0.5676700472831726 0.6427180767059326 -0.15763325989246368 0.006365668028593063 0.0 0.0 0.0 0.0
0.124 -0.5564286708831787 0.6633296012878418 -0.1505415439605713 0.005501884035766125 0.0 0.0 0.0 0.0
0.125 -0.5404739379882812 0.6913096308708191 -0.1483863890171051 0.0014445194974541664 0.0 0.0 0.0 0.0
0.126 -0.5170643925666809 0.712685227394104 -0.1504819542169571 -2.0666979253292084e-05 0.0 0.0 0.0 0.0
0.127 -0.49320757389068604 0.7357591390609741 -0.15353156626224518 0.001066773198544979 0.0 0.0 0.0 0.0
0.128 -0.4658978581428528 0.7562770843505859 -0.15664471685886383 0.0013143103569746017 0.0 0.0 0.0 0.0
0.129 -0.4383257031440735 0.7749939560890198 -0.16266144812107086 0.003716336563229561 0.0 0.0 0.0 0.0
0.13 -0.4060365855693817 0.7887094616889954 -0.16661490499973297 0.009297425858676434 0.0 0.0 0.0 0.0
0.131 -0.37954214215278625 0.8047454953193665 -0.16990599036216736 0.013790675438940525 0.0 0.0 0.0 0.0
0.132 -0.34931108355522156 0.8168250918388367 -0.1719415932893753 0.01785358600318432 0.0 0.0 0.0 0.0
0.133 -0.31905651092529297 0.8304819464683533 -0.1765083521604538 0.021622415632009506 0.0 0.0 0.0 0.0
0.134 -0.2858940362930298 0.8433401584625244 -0.1805669665336609 0.02759423665702343 0.0 0.0 0.0 0.0
0.135 -0.25392627716064453 0.8511940240859985 -0.1841283142566681 0.03326650336384773 0.0 0.0 0.0 0.0
0.136 -0.21990911662578583 0.8613186478614807 -0.18817052245140076 0.040010176599025726 0.0 0.0 0.0 0.0
0.137 -0.1863933503627777 0.8669143915176392 -0.19160687923431396 0.04616459459066391 0.0 0.0 0.0 0.0
0.138 -0.15137679874897003 0.8742770552635193 -0.19615134596824646 0.05349569767713547 0.0 0.0 0.0 0.0
0.139 -0.11465916782617569 0.8783947825431824 -0.200095996260643 0.06164352595806122 0.0 0.0 0.0 0.0
0.14 -0.07975885272026062 0.878081738948822 -0.20471543073654175 0.07094728201627731 0.0 0.0 0.0 0.0
0.141 -0.04028322920203209 0.8755878806114197 -0.20837020874023438 0.08256293833255768 0.0 0.0 0.0 0.0
0.142 -0.005065202713012695 0.8711278438568115 -0.2112736850976944 0.09463024884462357 0.0 0.0 0.0 0.0
0.143 0.0311297420412302 0.8645217418670654 -0.2125156819820404 0.10916370898485184 0.0 0.0 0.0 0.0
0.144 0.06366518884897232 0.855677604675293 -0.21156322956085205 0.12296294420957565 0.0 0.0 0.0 0.0
0.145 0.09612410515546799 0.8461401462554932 -0.20847776532173157 0.1367904394865036 0.0 0.0 0.0 0.0
0.146 0.12551409006118774 0.833734929561615 -0.20426210761070251 0.14885906875133514 0.0 0.0 0.0 0.0
0.147 0.15756961703300476 0.8243987560272217 -0.20105674862861633 0.16150742769241333 0.0 0.0 0.0 0.0
0.148 0.18807832896709442 0.8106635212898254 -0.19764570891857147 0.1739477813243866 0.0 0.0 0.0 0.0
0.149 0.22059449553489685 0.7946295142173767 -0.19395771622657776 0.1900431215763092 0.0 0.0 0.0 0.0
0.15 0.24841910600662231 0.772795557975769 -0.1871481090784073 0.20682568848133087 0.0 0.0 0.0 0.0
0.151 0.27335670590400696 0.7494305372238159 -0.17697995901107788 0.22582104802131653 0.0 0.0 0.0 0.0
0.152 0.29165294766426086 0.7233831286430359 -0.16010354459285736 0.24218447506427765 0.0 0.0 0.0 0.0
0.153 0.30336493253707886 0.701988697052002 -0.13973423838615417 0.255425363779068 0.0 0.0 0.0 0.0
0.154 0.31499922275543213 0.6836846470832825 -0.11939320713281631 0.26330938935279846 0.0 0.0 0.0 0.0
0.155 0.32442137598991394 0.6680219173431396 -0.09829431027173996 0.2688576877117157 0.0 0.0 0.0 0.0
0.156 0.33439549803733826 0.6548331379890442 -0.07746243476867676 0.2713291645050049 0.0 0.0 0.0 0.0
0.157 0.3405803442001343 0.6393246054649353 -0.05610566958785057 0.27378323674201965 0.0 0.0 0.0 0.0
0.158 0.34178099036216736 0.6251983642578125 -0.027186796069145203 0.2740328907966614 0.0 0.0 0.0 0.0
0.159 0.3303743302822113 0.6259979605674744 0.005816670134663582 0.258710116147995 0.0 0.0 0.0 0.0
0.16 0.32966580986976624 0.6473953127861023 0.0290694460272789 0.22630363702774048 0.0 0.0 0.0 0.0
0.161 0.35221385955810547 0.6782961487770081 0.029171984642744064 0.18862830102443695 0.0 0.0 0.0 0.0
0.162 0.3963119387626648 0.7000633478164673 0.01241634227335453 0.1624211072921753 0.0 0.0 0.0 0.0
0.163 0.44904470443725586 0.7001447677612305 -0.009503192268311977 0.15192843973636627 0.0 0.0 0.0 0.0
0.164 0.5003029704093933 0.6899392604827881 -0.029387345537543297 0.15332835912704468 0.0 0.0 0.0 0.0
0.165 0.5442991256713867 0.6671518683433533 -0.04216497763991356 0.16061894595623016 0.0 0.0 0.0 0.0
0.166 0.5842968225479126 0.6411409378051758 -0.05116521194577217 0.17021523416042328 0.0 0.0 0.0 0.0
0.167 0.6206812858581543 0.6115043759346008 -0.05575315281748772 0.18129193782806396 0.0 0.0 0.0 0.0
0.168 0.6502416133880615 0.579268753528595 -0.05826668441295624 0.1928779035806656 0.0 0.0 0.0 0.0
0.169 0.6791228652000427 0.5445975065231323 -0.056853193789720535 0.20508593320846558 0.0 0.0 0.0 0.0
0.17 0.7015402913093567 0.5118512511253357 -0.05415213480591774 0.21621648967266083 0.0 0.0 0.0 0.0
0.171 0.7232952117919922 0.4767129421234131 -0.04902980476617813 0.22740018367767334 0.0 0.0 0.0 0.0
0.172 0.740752637386322 0.4426247179508209 -0.0432676337659359 0.23670098185539246 0.0 0.0 0.0 0.0
0.173 0.7592966556549072 0.40553945302963257 -0.034703273326158524 0.24664045870304108 0.0 0.0 0.0 0.0
0.174 0.772487223148346 0.3726239502429962 -0.027620630338788033 0.2545734941959381 0.0 0.0 0.0 0.0
0.175 0.7845069169998169 0.3359197676181793 -0.017809364944696426 0.2642870247364044 0.0 0.0 0.0 0.0
0.176 0.7926549911499023 0.30067986249923706 -0.005747485905885696 0.26998355984687805 0.0 0.0 0.0 0.0
0.177 0.8006079792976379 0.2686905860900879 0.004980665631592274 0.2748551368713379 0.0 0.0 0.0 0.0
0.178 0.8089779615402222 0.23475578427314758 0.016021573916077614 0.2786981761455536 0.0 0.0 0.0 0.0
0.179 0.8152296543121338 0.2043720781803131 0.025342604145407677 0.28188568353652954 0.0 0.0 0.0 0.0
0.18 0.8244864344596863 0.17074447870254517 0.035047538578510284 0.28580334782600403 0.0 0.0 0.0 0.0
0.181 0.8280022144317627 0.13654954731464386 0.04355534166097641 0.2890622019767761 0.0 0.0 0.0 0.0
0.182 0.8339657187461853 0.10116510838270187 0.05430709943175316 0.29460281133651733 0.0 0.0 0.0 0.0
0.183 0.8334724307060242 0.06471235305070877 0.06529704481363297 0.29738569259643555 0.0 0.0 0.0 0.0
0.184 0.8367835879325867 0.02892465516924858 0.07694046944379807 0.30283668637275696 0.0 0.0 0.0 0.0
0.185 0.8344339728355408 -0.007584437727928162 0.08834359794855118 0.3066764175891876 0.0 0.0 0.0 0.0
0.186 0.8323518633842468 -0.04411676153540611 0.10194036364555359 0.3124881684780121 0.0 0.0 0.0 0.0
0.187 0.8245851397514343 -0.08133095502853394 0.1174769178032875 0.31586045026779175 0.0 0.0 0.0 0.0
0.188 0.8162772059440613 -0.11611006408929825 0.1338372826576233 0.3185221254825592 0.0 0.0 0.0 0.0
0.189 0.8060577511787415 -0.15268506109714508 0.15210884809494019 0.31998467445373535 0.0 0.0 0.0 0.0
0.19 0.7923288345336914 -0.1842941790819168 0.16927343606948853 0.3191852569580078 0.0 0.0 0.0 0.0
0.191 0.7811008095741272 -0.21589395403862 0.18856187164783478 0.31705471873283386 0.0 0.0 0.0 0.0
0.192 0.7648079991340637 -0.24476052820682526 0.20476509630680084 0.31284061074256897 0.0 0.0 0.0 0.0
0.193 0.7483779788017273 -0.2719189524650574 0.22181499004364014 0.30828770995140076 0.0 0.0 0.0 0.0
0.194 0.7340148091316223 -0.3010977804660797 0.23844397068023682 0.3034714162349701 0.0 0.0 0.0 0.0
0.195 0.7141134738922119 -0.32911354303359985 0.2571823298931122 0.2973812222480774 0.0 0.0 0.0 0.0
0.196 0.6965965628623962 -0.35563063621520996 0.2739192843437195 0.2896333336830139 0.0 0.0 0.0 0.0
0.197 0.6793742775917053 -0.38094469904899597 0.2905391752719879 0.28352004289627075 0.0 0.0 0.0 0.0
0.198 0.6574390530586243 -0.40643125772476196 0.3076421022415161 0.2741740643978119 0.0 0.0 0.0 0.0
0.199 0.6374815106391907 -0.42835912108421326 0.32544800639152527 0.26597005128860474 0.0 0.0 0.0 0.0
0.2 0.6157571077346802 -0.4511329233646393 0.3429655134677887 0.2544393539428711 0.0 0.0 0.0 0.0
0.201 0.5895888805389404 -0.4715839922428131 0.3599783778190613 0.2430347353219986 0.0 0.0 0.0 0.0
0.202 0.5651918053627014 -0.4936010539531708 0.37853094935417175 0.2285895198583603 0.0 0.0 0.0 0.0
0.203 0.538898229598999 -0.5078936219215393 0.39366772770881653 0.21504008769989014 0.0 0.0 0.0 0.0
0.204 0.5141460299491882 -0.5246717929840088 0.4121525287628174 0.19909009337425232 0.0 0.0 0.0 0.0
0.205 0.48629534244537354 -0.5406060814857483 0.42908066511154175 0.1812622994184494 0.0 0.0 0.0 0.0
0.206 0.45978987216949463 -0.5515421628952026 0.44998228549957275 0.1571742296218872 0.0 0.0 0.0 0.0
0.207 0.4332095682621002 -0.5624423623085022 0.46477192640304565 0.13584013283252716 0.0 0.0 0.0 0.0
0.208 0.40346574783325195 -0.5700783133506775 0.47756847739219666 0.11165598779916763 0.0 0.0 0.0 0.0
0.209 0.3780311346054077 -0.5748851299285889 0.489764541387558 0.08774230629205704 0.0 0.0 0.0 0.0
0.21 0.35002952814102173 -0.5779492855072021 0.4980369508266449 0.06006472185254097 0.0 0.0 0.0 0.0
0.211 0.3273870646953583 -0.5819110870361328 0.5078135132789612 0.034239690750837326 0.0 0.0 0.0 0.0
0.212 0.3026624023914337 -0.5846624374389648 0.5136315226554871 0.0062803225591778755 0.0 0.0 0.0 0.0
0.213 0.2790117561817169 -0.583514928817749 0.5173598527908325 -0.0217561237514019 0.0 0.0 0.0 0.0
0.214 0.2577019929885864 -0.5833430886268616 0.5198013782501221 -0.04992545396089554 0.0 0.0 0.0 0.0
0.215 0.23441971838474274 -0.5835903882980347 0.5210938453674316 -0.07754220068454742 0.0 0.0 0.0 0.0
0.216 0.2093406319618225 -0.5830077528953552 0.5233703255653381 -0.1092500239610672 0.0 0.0 0.0 0.0
0.217 0.18751759827136993 -0.5732260346412659 0.5184043049812317 -0.13828584551811218 0.0 0.0 0.0 0.0
0.218 0.1658613532781601 -0.5703221559524536 0.5167364478111267 -0.17201916873455048 0.0 0.0 0.0 0.0
0.219 0.14757080376148224 -0.5616527199745178 0.5095887780189514 -0.2028934210538864 0.0 0.0 0.0 0.0
0.22 0.13169342279434204 -0.552423894405365 0.5004239678382874 -0.23425614833831787 0.0 0.0 0.0 0.0
0.221 0.11328773200511932 -0.5419445633888245 0.48597249388694763 -0.2680133581161499 0.0 0.0 0.0 0.0
0.222 0.10156208276748657 -0.5318020582199097 0.470412015914917 -0.29819267988204956 0.0 0.0 0.0 0.0
0.223 0.08971191197633743 -0.5209667086601257 0.45156851410865784 -0.329764187335968 0.0 0.0 0.0 0.0
0.224 0.0841347873210907 -0.5080921649932861 0.42881694436073303 -0.35708704590797424 0.0 0.0 0.0 0.0
0.225 0.07984155416488647 -0.5004205107688904 0.403842568397522 -0.3822452425956726 0.0 0.0 0.0 0.0
0.226 0.07477650791406631 -0.49247777462005615 0.3758701980113983 -0.4042825400829315 0.0 0.0 0.0 0.0
0.227 0.07312624901533127 -0.48715195059776306 0.34669896960258484 -0.4234044551849365 0.0 0.0 0.0 0.0
0.228 0.06981191784143448 -0.4840586483478546 0.3160173296928406 -0.4357146620750427 0.0 0.0 0.0 0.0
0.229 0.06439830362796783 -0.4845115840435028 0.29312682151794434 -0.45037978887557983 0.0 0.0 0.0 0.0
0.23 0.058071624487638474 -0.4821234345436096 0.2661166489124298 -0.4636804759502411 0.0 0.0 0.0 0.0
0.231 0.05330072343349457 -0.47591668367385864 0.24019061028957367 -0.47706088423728943 0.0 0.0 0.0 0.0
0.232 0.048720795661211014 -0.470360666513443 0.2074516862630844 -0.4886091649532318 0.0 0.0 0.0 0.0
0.233 0.04880243539810181 -0.4669867157936096 0.17941197752952576 -0.4986862540245056 0.0 0.0 0.0 0.0
0.234 0.04676983878016472 -0.4622127413749695 0.1430945247411728 -0.5084081888198853 0.0 0.0 0.0 0.0
0.235 0.05079815164208412 -0.46043509244918823 0.10768037289381027 -0.5098356008529663 0.0 0.0 0.0 0.0
0.236 0.051946721971035004 -0.4660797119140625 0.07452677190303802 -0.5111379623413086 0.0 0.0 0.0 0.0
0.237 0.05352964252233505 -0.4640964865684509 0.04253139719367027 -0.5063961744308472 0.0 0.0 0.0 0.0
0.238 0.05426088348031044 -0.47014766931533813 0.009080059826374054 -0.5047681927680969 0.0 0.0 0.0 0.0
0.239 0.05462914705276489 -0.47201040387153625 -0.023144366219639778 -0.49700966477394104 0.0 0.0 0.0 0.0
0.24 0.06121111661195755 -0.47582927346229553 -0.05577554181218147 -0.49005019664764404 0.0 0.0 0.0 0.0
0.241 0.06460311263799667 -0.4818815588951111 -0.09195207804441452 -0.476118803024292 0.0 0.0 0.0 0.0
0.242 0.06960199028253555 -0.4913453459739685 -0.12435191869735718 -0.46057987213134766 0.0 0.0 0.0 0.0
0.243 0.0752551481127739 -0.5045100450515747 -0.15710391104221344 -0.4408434331417084 0.0 0.0 0.0 0.0
0.244 0.08094936609268188 -0.520785927772522 -0.18881718814373016 -0.4124852120876312 0.0 0.0 0.0 0.0
0.245 0.0839298889040947 -0.5460495948791504 -0.2158282846212387 -0.38156557083129883 0.0 0.0 0.0 0.0
0.246 0.0819520652294159 -0.5694568157196045 -0.23343361914157867 -0.3435516059398651 0.0 0.0 0.0 0.0
0.247 0.07578559964895248 -0.6000504493713379 -0.24510107934474945 -0.30730533599853516 0.0 0.0 0.0 0.0
0.248 0.06094948947429657 -0.628129780292511 -0.2491016685962677 -0.27149099111557007 0.0 0.0 0.0 0.0
0.249 0.039764150977134705 -0.6586207151412964 -0.24866268038749695 -0.23858574032783508 0.0 0.0 0.0 0.0
0.25 0.015092483721673489 -0.676895022392273 -0.24212387204170227 -0.20989617705345154 0.0 0.0 0.0 0.0
0.251 -0.011277417652308941 -0.6966937780380249 -0.23772473633289337 -0.18794232606887817 0.0 0.0 0.0 0.0
0.252 -0.03843332454562187 -0.7158930897712708 -0.23059427738189697 -0.16443583369255066 0.0 0.0 0.0 0.0
0.253 -0.0643809586763382 -0.731770932674408 -0.22337104380130768 -0.14250919222831726 0.0 0.0 0.0 0.0
0.254 -0.09614439308643341 -0.7455683946609497 -0.21487872302532196 -0.12108305096626282 0.0 0.0 0.0 0.0
0.255 -0.12431599199771881 -0.7602657079696655 -0.20210473239421844 -0.10067611932754517 0.0 0.0 0.0 0.0
0.256 -0.16165180504322052 -0.7750345468521118 -0.1873411238193512 -0.08477537333965302 0.0 0.0 0.0 0.0
0.257 -0.19720244407653809 -0.7822521328926086 -0.16880065202713013 -0.07084694504737854 0.0 0.0 0.0 0.0
0.258 -0.2393856793642044 -0.789334237575531 -0.14914512634277344 -0.06145855039358139 0.0 0.0 0.0 0.0
0.259 -0.2837604284286499 -0.7888575792312622 -0.13132265210151672 -0.058281537145376205 0.0 0.0 0.0 0.0
0.26 -0.32018622756004333 -0.7830415368080139 -0.11683937162160873 -0.05767208710312843 0.0 0.0 0.0 0.0
0.261 -0.35790368914604187 -0.7790173292160034 -0.10226207971572876 -0.05705901235342026 0.0 0.0 0.0 0.0
0.262 -0.3975057601928711 -0.7697434425354004 -0.08917844295501709 -0.05883112922310829 0.0 0.0 0.0 0.0
0.263 -0.4298653304576874 -0.7537052035331726 -0.07774092257022858 -0.06351102143526077 0.0 0.0 0.0 0.0
0.264 -0.4669150114059448 -0.7405312657356262 -0.07048965990543365 -0.06917454302310944 0.0 0.0 0.0 0.0
0.265 -0.4986795485019684 -0.7252434492111206 -0.06519211828708649 -0.07284536957740784 0.0 0.0 0.0 0.0
0.266 -0.525773823261261 -0.710543155670166 -0.05951298400759697 -0.07503128796815872 0.0 0.0 0.0 0.0
0.267 -0.5572595000267029 -0.6918644905090332 -0.053200848400592804 -0.07703303545713425 0.0 0.0 0.0 0.0
0.268 -0.5892741084098816 -0.6772725582122803 -0.04634758457541466 -0.0812370553612709 0.0 0.0 0.0 0.0
0.269 -0.6200433373451233 -0.6558669209480286 -0.03977261856198311 -0.08547548204660416 0.0 0.0 0.0 0.0
0.27 -0.6493846774101257 -0.6383552551269531 -0.03302470222115517 -0.09183160960674286 0.0 0.0 0.0 0.0
0.271 -0.6827666163444519 -0.6148449778556824 -0.027716772630810738 -0.09972163289785385 0.0 0.0 0.0 0.0
0.272 -0.7106999754905701 -0.5867442488670349 -0.023015867918729782 -0.10802553594112396 0.0 0.0 0.0 0.0
0.273 -0.7385582327842712 -0.5601863861083984 -0.02017863839864731 -0.11793301999568939 0.0 0.0 0.0 0.0
0.274 -0.7635226845741272 -0.52897047996521 -0.018029145896434784 -0.12786902487277985 0.0 0.0 0.0 0.0
0.275 -0.7915548086166382 -0.4987674057483673 -0.017745057120919228 -0.13956192135810852 0.0 0.0 0.0 0.0
0.276 -0.811858057975769 -0.4669313430786133 -0.020518304780125618 -0.15238425135612488 0.0 0.0 0.0 0.0
0.277 -0.8322184681892395 -0.42792391777038574 -0.024174321442842484 -0.16385872662067413 0.0 0.0 0.0 0.0
0.278 -0.8512447476387024 -0.39292141795158386 -0.0295576099306345 -0.17650356888771057 0.0 0.0 0.0 0.0
0.279 -0.8667317628860474 -0.35728296637535095 -0.036869365721940994 -0.18777167797088623 0.0 0.0 0.0 0.0
0.28 -0.8791048526763916 -0.31858715415000916 -0.045683544129133224 -0.19849874079227448 0.0 0.0 0.0 0.0
0.281 -0.8923224210739136 -0.27730703353881836 -0.057133667171001434 -0.20871423184871674 0.0 0.0 0.0 0.0
0.282 -0.8976725935935974 -0.23656412959098816 -0.06881029903888702 -0.21737203001976013 0.0 0.0 0.0 0.0
0.283 -0.9039546251296997 -0.19794227182865143 -0.08330792188644409 -0.22572943568229675 0.0 0.0 0.0 0.0
0.284 -0.9042127728462219 -0.1597403734922409 -0.09769396483898163 -0.23183873295783997 0.0 0.0 0.0 0.0
0.285 -0.9047989249229431 -0.11887487769126892 -0.11486843973398209 -0.23630063235759735 0.0 0.0 0.0 0.0
0.286 -0.8978809714317322 -0.08232194185256958 -0.13079515099525452 -0.23760415613651276 0.0 0.0 0.0 0.0
0.287 -0.8965853452682495 -0.04810440167784691 -0.1478830873966217 -0.23964211344718933 0.0 0.0 0.0 0.0
0.288 -0.889807403087616 -0.007520206272602081 -0.16606880724430084 -0.23866526782512665 0.0 0.0 0.0 0.0
0.289 -0.8811591863632202 0.02322865091264248 -0.18317723274230957 -0.23711353540420532 0.0 0.0 0.0 0.0
0.29 -0.8710131645202637 0.05879461020231247 -0.20113803446292877 -0.2337372601032257 0.0 0.0 0.0 0.0
0.291 -0.8578982353210449 0.08890005946159363 -0.21889853477478027 -0.22945639491081238 0.0 0.0 0.0 0.0
0.292 -0.8427144885063171 0.12516511976718903 -0.23816542327404022 -0.22126302123069763 0.0 0.0 0.0 0.0
0.293 -0.8254714608192444 0.1515459269285202 -0.2572070360183716 -0.214277446269989 0.0 0.0 0.0 0.0
0.294 -0.8047031164169312 0.18334025144577026 -0.27770620584487915 -0.20185686647891998 0.0 0.0 0.0 0.0
0.295 -0.7827606797218323 0.20686961710453033 -0.29672887921333313 -0.18696312606334686 0.0 0.0 0.0 0.0
0.296 -0.7613893747329712 0.22545954585075378 -0.31561142206192017 -0.1696336269378662 0.0 0.0 0.0 0.0
0.297 -0.7360132336616516 0.24176982045173645 -0.3299531042575836 -0.14658021926879883 0.0 0.0 0.0 0.0
0.298 -0.7151020765304565 0.2516210079193115 -0.3414320945739746 -0.1225486770272255 0.0 0.0 0.0 0.0
0.299 -0.6953732967376709 0.2638760805130005 -0.34900087118148804 -0.09717981517314911 0.0 0.0 0.0 0.0
0.3 -0.6810663938522339 0.2698383629322052 -0.3551354706287384 -0.07262581586837769 0.0 0.0 0.0 0.0
0.301 -0.6642805337905884 0.27691593766212463 -0.3564242124557495 -0.044957585632801056 0.0 0.0 0.0 0.0
0.302 -0.6505836844444275 0.2764677405357361 -0.3539610207080841 -0.01854320429265499 0.0 0.0 0.0 0.0
0.303 -0.6437698006629944 0.2759245038032532 -0.34506940841674805 0.009082932956516743 0.0 0.0 0.0 0.0
0.304 -0.6460811495780945 0.2779662609100342 -0.3303251266479492 0.030956745147705078 0.0 0.0 0.0 0.0
0.305 -0.6487886905670166 0.2897023558616638 -0.31606265902519226 0.04597710818052292 0.0 0.0 0.0 0.0
0.306 -0.6501515507698059 0.30068427324295044 -0.30324992537498474 0.05849776789546013 0.0 0.0 0.0 0.0
0.307 -0.6522831320762634 0.3156030476093292 -0.2912883460521698 0.0703524574637413 0.0 0.0 0.0 0.0
0.308 -0.6482939124107361 0.326861709356308 -0.2784554660320282 0.0817824974656105 0.0 0.0 0.0 0.0
0.309 -0.654358446598053 0.3386441767215729 -0.2620469629764557 0.09245117008686066 0.0 0.0 0.0 0.0
0.31 -0.6592811942100525 0.3576763868331909 -0.24125215411186218 0.09832008928060532 0.0 0.0 0.0 0.0
0.311 -0.6710519194602966 0.38027772307395935 -0.22251226007938385 0.09726647287607193 0.0 0.0 0.0 0.0
0.312 -0.6771500706672668 0.4128030240535736 -0.20659397542476654 0.08865758031606674 0.0 0.0 0.0 0.0
0.313 -0.6742892861366272 0.4499087929725647 -0.19900725781917572 0.07921303063631058 0.0 0.0 0.0 0.0
0.314 -0.6661421656608582 0.48736733198165894 -0.19596374034881592 0.0708899274468422 0.0 0.0 0.0 0.0
0.315 -0.6516783833503723 0.5221211910247803 -0.19609157741069794 0.06486368924379349 0.0 0.0 0.0 0.0
0.316 -0.6354315280914307 0.5562926530838013 -0.1974126547574997 0.0611417330801487 0.0 0.0 0.0 0.0
0.317 -0.6151009798049927 0.5851820111274719 -0.19985486567020416 0.05846733972430229 0.0 0.0 0.0 0.0
0.318 -0.5939129590988159 0.6143096685409546 -0.2021421492099762 0.05801868066191673 0.0 0.0 0.0 0.0
0.319 -0.5693306922912598 0.63982754945755 -0.20330072939395905 0.05794554948806763 0.0 0.0 0.0 0.0
0.32 -0.5468606352806091 0.6685048937797546 -0.20519565045833588 0.057842206209897995 0.0 0.0 0.0 0.0
0.321 -0.522389829158783 0.6973111033439636 -0.20793727040290833 0.05541606247425079 0.0 0.0 0.0 0.0
0.322 -0.4923536479473114 0.7246213555335999 -0.2154531180858612 0.055051449686288834 0.0 0.0 0.0 0.0
0.323 -0.45652762055397034 0.747500479221344 -0.22088339924812317 0.058465976268053055 0.0 0.0 0.0 0.0
0.324 -0.42555248737335205 0.7672964334487915 -0.22749580442905426 0.06227782741189003 0.0 0.0 0.0 0.0
0.325 -0.39005544781684875 0.7873393893241882 -0.23328274488449097 0.0683508887887001 0.0 0.0 0.0 0.0
0.326 -0.35635849833488464 0.8020803928375244 -0.23801416158676147 0.07429187744855881 0.0 0.0 0.0 0.0
0.327 -0.3210504949092865 0.817392110824585 -0.24289055168628693 0.08014514297246933 0.0 0.0 0.0 0.0
0.328 -0.2834227979183197 0.8301491141319275 -0.24914516508579254 0.08733553439378738 0.0 0.0 0.0 0.0
0.329 -0.24544821679592133 0.8400657773017883 -0.25356295704841614 0.09854083508253098 0.0 0.0 0.0 0.0
0.33 -0.2106177806854248 0.8446683287620544 -0.2561889588832855 0.10699546337127686 0.0 0.0 0.0 0.0
0.331 -0.1725672334432602 0.852104902267456 -0.2591189444065094 0.11862316727638245 0.0 0.0 0.0 0.0
0.332 -0.13356634974479675 0.8562345504760742 -0.2618677616119385 0.1288525015115738 0.0 0.0 0.0 0.0
0.333 -0.09465117007493973 0.8558107018470764 -0.2642480432987213 0.14247624576091766 0.0 0.0 0.0 0.0
0.334 -0.06091891601681709 0.8534923791885376 -0.2631358802318573 0.1550159752368927 0.0 0.0 0.0 0.0
0.335 -0.024501323699951172 0.8494380712509155 -0.26059773564338684 0.1687319427728653 0.0 0.0 0.0 0.0
0.336 0.009084607474505901 0.8471180200576782 -0.2574485242366791 0.18078820407390594 0.0 0.0 0.0 0.0
0.337 0.037627238780260086 0.8417758345603943 -0.2537549138069153 0.1902981400489807 0.0 0.0 0.0 0.0
0.338 0.0735839232802391 0.8388916850090027 -0.25011923909187317 0.20118814706802368 0.0 0.0 0.0 0.0
0.339 0.10550778359174728 0.8331950306892395 -0.24794164299964905 0.2116563618183136 0.0 0.0 0.0 0.0
0.34 0.13964663445949554 0.8269771337509155 -0.2432837039232254 0.22301359474658966 0.0 0.0 0.0 0.0
0.341 0.17100463807582855 0.8173019289970398 -0.239700585603714 0.23268406093120575 0.0 0.0 0.0 0.0
0.342 0.20645356178283691 0.8066554665565491 -0.2358468621969223 0.24540168046951294 0.0 0.0 0.0 0.0
0.343 0.23875100910663605 0.7930523753166199 -0.2314232736825943 0.2569248378276825 0.0 0.0 0.0 0.0
0.344 0.27135923504829407 0.7802075743675232 -0.22515404224395752 0.27223852276802063 0.0 0.0 0.0 0.0
0.345 0.3005255162715912 0.7615362405776978 -0.21609538793563843 0.2837846279144287 0.0 0.0 0.0 0.0
0.346 0.3269295394420624 0.7462196946144104 -0.20752236247062683 0.2964749336242676 0.0 0.0 0.0 0.0
0.347 0.35406437516212463 0.7269014716148376 -0.19672593474388123 0.3060026466846466 0.0 0.0 0.0 0.0
0.348 0.37978029251098633 0.7109760046005249 -0.18684090673923492 0.3170730173587799 0.0 0.0 0.0 0.0
0.349 0.40665942430496216 0.6919090747833252 -0.17440928518772125 0.32597100734710693 0.0 0.0 0.0 0.0
0.35 0.42809775471687317 0.6742340326309204 -0.16538186371326447 0.33510005474090576 0.0 0.0 0.0 0.0
0.351 0.4527471363544464 0.6554075479507446 -0.15280626714229584 0.34276628494262695 0.0 0.0 0.0 0.0
0.352 0.4770500361919403 0.633959174156189 -0.14224328100681305 0.35095834732055664 0.0 0.0 0.0 0.0
0.353 0.5000404715538025 0.6141963601112366 -0.13092711567878723 0.35984301567077637 0.0 0.0 0.0 0.0
0.354 0.5183958411216736 0.5913130044937134 -0.1194743663072586 0.366427481174469 0.0 0.0 0.0 0.0
0.355 0.5386490821838379 0.5721530318260193 -0.10744714736938477 0.3747728765010834 0.0 0.0 0.0 0.0
0.356 0.5595787167549133 0.545076310634613 -0.0926089659333229 0.3804669976234436 0.0 0.0 0.0 0.0
0.357 0.5776380300521851 0.521490752696991 -0.07832295447587967 0.387900710105896 0.0 0.0 0.0 0.0
0.358 0.593689501285553 0.4974876940250397 -0.0635068416595459 0.3917926549911499 0.0 0.0 0.0 0.0
0.359 0.6098867654800415 0.4761792719364166 -0.049554940313100815 0.39584794640541077 0.0 0.0 0.0 0.0
0.36 0.6249722242355347 0.4513210356235504 -0.035065993666648865 0.3987722396850586 0.0 0.0 0.0 0.0
0.361 0.6395515203475952 0.4271997809410095 -0.021832559257745743 0.40074408054351807 0.0 0.0 0.0 0.0
0.362 0.6561839580535889 0.40297773480415344 -0.008446249179542065 0.4042021930217743 0.0 0.0 0.0 0.0
0.363 0.6698594093322754 0.37766343355178833 0.0034211501479148865 0.4064072072505951 0.0 0.0 0.0 0.0
0.364 0.6853513121604919 0.34744858741760254 0.019527265802025795 0.41052916646003723 0.0 0.0 0.0 0.0
0.365 0.6944715976715088 0.32424309849739075 0.03252710402011871 0.41278335452079773 0.0 0.0 0.0 0.0
0.366 0.7040808200836182 0.29568976163864136 0.048664405941963196 0.41538864374160767 0.0 0.0 0.0 0.0
0.367 0.7136335372924805 0.26627349853515625 0.06480588018894196 0.4153866767883301 0.0 0.0 0.0 0.0
0.368 0.7221826910972595 0.23991082608699799 0.07991580665111542 0.4164825677871704 0.0 0.0 0.0 0.0
0.369 0.7285906076431274 0.21326738595962524 0.09511750936508179 0.41497036814689636 0.0 0.0 0.0 0.0
0.37 0.7361465096473694 0.18617992103099823 0.11080329865217209 0.41457173228263855 0.0 0.0 0.0 0.0
0.371 0.7413931488990784 0.15735368430614471 0.12617282569408417 0.4124305248260498 0.0 0.0 0.0 0.0
0.372 0.7448093295097351 0.1293502002954483 0.1412757784128189 0.411204069852829 0.0 0.0 0.0 0.0
0.373 0.7505373954772949 0.0999513790011406 0.15837588906288147 0.4092196822166443 0.0 0.0 0.0 0.0
0.374 0.749789297580719 0.07471957802772522 0.17204180359840393 0.4054045081138611 0.0 0.0 0.0 0.0
0.375 0.7527357935905457 0.04611441493034363 0.18924540281295776 0.40195369720458984 0.0 0.0 0.0 0.0
0.376 0.7533544898033142 0.015847882255911827 0.20477643609046936 0.3974253237247467 0.0 0.0 0.0 0.0
0.377 0.7513887286186218 -0.011107557453215122 0.22098781168460846 0.3929287791252136 0.0 0.0 0.0 0.0
0.378 0.7484736442565918 -0.040638267993927 0.2371545135974884 0.38633328676223755 0.0 0.0 0.0 0.0
0.379 0.7467906475067139 -0.06430231034755707 0.25185132026672363 0.38044804334640503 0.0 0.0 0.0 0.0
0.38 0.7422547936439514 -0.09169162064790726 0.2666507363319397 0.3729708194732666 0.0 0.0 0.0 0.0
0.381 0.739150881767273 -0.12096741795539856 0.28376510739326477 0.3670750856399536 0.0 0.0 0.0 0.0
0.382 0.7324482798576355 -0.1480684131383896 0.29878780245780945 0.35700899362564087 0.0 0.0 0.0 0.0
0.383 0.7259941101074219 -0.1720017045736313 0.3132866621017456 0.34898823499679565 0.0 0.0 0.0 0.0
0.384 0.7181863784790039 -0.20177006721496582 0.3297599256038666 0.3378702998161316 0.0 0.0 0.0 0.0
0.385 0.7100176215171814 -0.223898246884346 0.3431050181388855 0.32861679792404175 0.0 0.0 0.0 0.0
0.386 0.6990442276000977 -0.2517407238483429 0.35863229632377625 0.31572362780570984 0.0 0.0 0.0 0.0
0.387 0.690864622592926 -0.27324751019477844 0.3710795044898987 0.3060738146305084 0.0 0.0 0.0 0.0
0.388 0.6772465109825134 -0.30030587315559387 0.3866175413131714 0.29136061668395996 0.0 0.0 0.0 0.0
0.389 0.6648826003074646 -0.3230360746383667 0.3985801339149475 0.2784266471862793 0.0 0.0 0.0 0.0
0.39 0.65467369556427 -0.34528765082359314 0.4133044481277466 0.26494306325912476 0.0 0.0 0.0 0.0
0.391 0.6385087370872498 -0.36465030908584595 0.42300036549568176 0.24863146245479584 0.0 0.0 0.0 0.0
0.392 0.6273787617683411 -0.3855873644351959 0.4350283145904541 0.233888640999794 0.0 0.0 0.0 0.0
0.393 0.6126941442489624 -0.40795251727104187 0.4447275698184967 0.21770942211151123 0.0 0.0 0.0 0.0
0.394 0.5963461399078369 -0.4273418188095093 0.45605456829071045 0.20006360113620758 0.0 0.0 0.0 0.0
0.395 0.5829883813858032 -0.4450257420539856 0.46282872557640076 0.18494991958141327 0.0 0.0 0.0 0.0
0.396 0.5660907626152039 -0.4641866087913513 0.4717250466346741 0.16767257452011108 0.0 0.0 0.0 0.0
0.397 0.5504141449928284 -0.48514747619628906 0.48012104630470276 0.14930781722068787 0.0 0.0 0.0 0.0
0.398 0.5336522459983826 -0.4990789592266083 0.48552313446998596 0.13251960277557373 0.0 0.0 0.0 0.0
0.399 0.5145328640937805 -0.5171541571617126 0.4920389950275421 0.11341433972120285 0.0 0.0 0.0 0.0
0.4 0.4975496232509613 -0.5323716998100281 0.49666738510131836 0.0971488356590271 0.0 0.0 0.0 0.0
0.401 0.479709655046463 -0.550343930721283 0.5047265887260437 0.07774536311626434 0.0 0.0 0.0 0.0
0.402 0.45898255705833435 -0.5644795894622803 0.5061544179916382 0.05897896736860275 0.0 0.0 0.0 0.0
0.403 0.44296932220458984 -0.5787104964256287 0.5111204385757446 0.039948176592588425 0.0 0.0 0.0 0.0
0.404 0.42282557487487793 -0.5938599109649658 0.5164042711257935 0.01634305715560913 0.0 0.0 0.0 0.0
0.405 0.40260040760040283 -0.6049584746360779 0.5163973569869995 -0.0047503188252449036 0.0 0.0 0.0 0.0
0.406 0.38517534732818604 -0.6174756288528442 0.5191267132759094 -0.021521415561437607 0.0 0.0 0.0 0.0
0.407 0.36152923107147217 -0.6306663751602173 0.5184974074363708 -0.04253251850605011 0.0 0.0 0.0 0.0
0.408 0.34233561158180237 -0.6403101682662964 0.517839789390564 -0.059926390647888184 0.0 0.0 0.0 0.0
0.409 0.32378900051116943 -0.6550379991531372 0.519408643245697 -0.07928033918142319 0.0 0.0 0.0 0.0
0.41 0.3014485538005829 -0.6612234115600586 0.5164326429367065 -0.09614688903093338 0.0 0.0 0.0 0.0
0.411 0.2792736887931824 -0.6714686751365662 0.5145463943481445 -0.11782076209783554 0.0 0.0 0.0 0.0
0.412 0.2560786008834839 -0.6807779669761658 0.5120742321014404 -0.13686062395572662 0.0 0.0 0.0 0.0
0.413 0.23653417825698853 -0.6879757642745972 0.5082629919052124 -0.15609174966812134 0.0 0.0 0.0 0.0
0.414 0.2121930569410324 -0.6961604952812195 0.503730833530426 -0.17426390945911407 0.0 0.0 0.0 0.0
0.415 0.19055135548114777 -0.7014110684394836 0.4995689392089844 -0.19366857409477234 0.0 0.0 0.0 0.0
0.416 0.16626769304275513 -0.7083522081375122 0.49381762742996216 -0.21415239572525024 0.0 0.0 0.0 0.0
0.417 0.14684338867664337 -0.7098066210746765 0.48812827467918396 -0.2294604331254959 0.0 0.0 0.0 0.0
0.418 0.12134645879268646 -0.7116739153862 0.47785693407058716 -0.249746635556221 0.0 0.0 0.0 0.0
0.419 0.0987233966588974 -0.7172849774360657 0.47148817777633667 -0.26644793152809143 0.0 0.0 0.0 0.0
0.42 0.07524292916059494 -0.7182925343513489 0.46403321623802185 -0.2854807376861572 0.0 0.0 0.0 0.0
0.421 0.05249319225549698 -0.7197863459587097 0.45471397042274475 -0.30412763357162476 0.0 0.0 0.0 0.0
0.422 0.02777876891195774 -0.7212811708450317 0.44322729110717773 -0.32422322034835815 0.0 0.0 0.0 0.0
0.423 0.010281749069690704 -0.7191410660743713 0.43297260999679565 -0.33653944730758667 0.0 0.0 0.0 0.0
0.424 -0.013151376508176327 -0.7219589948654175 0.42364442348480225 -0.35397207736968994 0.0 0.0 0.0 0.0
0.425 -0.03737351670861244 -0.7165233492851257 0.4103541076183319 -0.368369460105896 0.0 0.0 0.0 0.0
0.426 -0.06379467993974686 -0.7174786925315857 0.40120023488998413 -0.38712263107299805 0.0 0.0 0.0 0.0
0.427 -0.08626075088977814 -0.7123138308525085 0.3879055678844452 -0.4015660583972931 0.0 0.0 0.0 0.0
0.428 -0.10770214349031448 -0.7101035714149475 0.37749895453453064 -0.4175461530685425 0.0 0.0 0.0 0.0
0.429 -0.13361689448356628 -0.7025759816169739 0.3620838224887848 -0.43407538533210754 0.0 0.0 0.0 0.0
0.43 -0.1560869961977005 -0.6962561011314392 0.3497585654258728 -0.45219799876213074 0.0 0.0 0.0 0.0
0.431 -0.1797705441713333 -0.6891881823539734 0.3328355848789215 -0.46964478492736816 0.0 0.0 0.0 0.0
0.432 -0.19904710352420807 -0.6767541766166687 0.31591612100601196 -0.4820687472820282 0.0 0.0 0.0 0.0
0.433 -0.21729730069637299 -0.6680729985237122 0.2974608242511749 -0.49753355979919434 0.0 0.0 0.0 0.0
0.434 -0.237893745303154 -0.6598880290985107 0.2796156704425812 -0.5092546939849854 0.0 0.0 0.0 0.0
0.435 -0.2605474293231964 -0.6496732234954834 0.26018136739730835 -0.5227934718132019 0.0 0.0 0.0 0.0
0.436 -0.27962249517440796 -0.63720703125 0.24362105131149292 -0.5334123373031616 0.0 0.0 0.0 0.0
0.437 -0.29901906847953796 -0.6271052360534668 0.22495748102664948 -0.5485949516296387 0.0 0.0 0.0 0.0
0.438 -0.31847095489501953 -0.6091516017913818 0.2030535340309143 -0.557565450668335 0.0 0.0 0.0 0.0
0.439 -0.3354954123497009 -0.5971714854240417 0.18382470309734344 -0.5715175271034241 0.0 0.0 0.0 0.0
0.44 -0.35164597630500793 -0.5827041864395142 0.1620349884033203 -0.5804128050804138 0.0 0.0 0.0 0.0
0.441 -0.3672134578227997 -0.5662626624107361 0.13887478411197662 -0.591196596622467 0.0 0.0 0.0 0.0
0.442 -0.3846389353275299 -0.5481485724449158 0.11255191266536713 -0.6001716256141663 0.0 0.0 0.0 0.0
0.443 -0.3937513530254364 -0.5321289896965027 0.09125645458698273 -0.6065729260444641 0.0 0.0 0.0 0.0
0.444 -0.4094991981983185 -0.5111283659934998 0.0604371540248394 -0.6130387783050537 0.0 0.0 0.0 0.0
0.445 -0.41467881202697754 -0.4962778687477112 0.039148587733507156 -0.6168597936630249 0.0 0.0 0.0 0.0
0.446 -0.42909708619117737 -0.47697192430496216 0.008763378486037254 -0.6207712888717651 0.0 0.0 0.0 0.0
0.447 -0.4363868832588196 -0.46277353167533875 -0.015022380277514458 -0.6221138834953308 0.0 0.0 0.0 0.0
0.448 -0.44461601972579956 -0.4424609839916229 -0.042487189173698425 -0.623511791229248 0.0 0.0 0.0 0.0
0.449 -0.4496186375617981 -0.4258362948894501 -0.07018241286277771 -0.6220591068267822 0.0 0.0 0.0 0.0
0.45 -0.4556633234024048 -0.4105202853679657 -0.09545475244522095 -0.6217243075370789 0.0 0.0 0.0 0.0
0.451 -0.45960894227027893 -0.3910994827747345 -0.1244778260588646 -0.6157815456390381 0.0 0.0 0.0 0.0
0.452 -0.4642130434513092 -0.3760344982147217 -0.15158821642398834 -0.6127784252166748 0.0 0.0 0.0 0.0
0.453 -0.4653477668762207 -0.3557908236980438 -0.18277578055858612 -0.6034796833992004 0.0 0.0 0.0 0.0
0.454 -0.46583792567253113 -0.34392592310905457 -0.20891423523426056 -0.5933176875114441 0.0 0.0 0.0 0.0
0.455 -0.46976056694984436 -0.33319997787475586 -0.23551927506923676 -0.5829730033874512 0.0 0.0 0.0 0.0
0.456 -0.46956518292427063 -0.31873419880867004 -0.25594446063041687 -0.5695043206214905 0.0 0.0 0.0 0.0
0.457 -0.4698047935962677 -0.30778828263282776 -0.2802049219608307 -0.5576538443565369 0.0 0.0 0.0 0.0
0.458 -0.4740048348903656 -0.29764819145202637 -0.30134716629981995 -0.5431351065635681 0.0 0.0 0.0 0.0
0.459 -0.4786899983882904 -0.28334006667137146 -0.32327911257743835 -0.5310883522033691 0.0 0.0 0.0 0.0
0.46 -0.48007917404174805 -0.26789629459381104 -0.3433283269405365 -0.5166199803352356 0.0 0.0 0.0 0.0
0.461 -0.47932952642440796 -0.2544291913509369 -0.3681015074253082 -0.5027568340301514 0.0 0.0 0.0 0.0
0.462 -0.4757537543773651 -0.245122030377388 -0.38593485951423645 -0.4827205538749695 0.0 0.0 0.0 0.0
0.463 -0.47755855321884155 -0.23599578440189362 -0.4044567346572876 -0.4656897187232971 0.0 0.0 0.0 0.0
0.464 -0.47878074645996094 -0.22439539432525635 -0.42140668630599976 -0.4479850232601166 0.0 0.0 0.0 0.0
0.465 -0.4776794910430908 -0.21145662665367126 -0.44045761227607727 -0.4298601746559143 0.0 0.0 0.0 0.0
0.466 -0.478069931268692 -0.20250782370567322 -0.46088340878486633 -0.40725135803222656 0.0 0.0 0.0 0.0
0.467 -0.47592854499816895 -0.19442690908908844 -0.4735652506351471 -0.3881208896636963 0.0 0.0 0.0 0.0
0.468 -0.4756239056587219 -0.18388725817203522 -0.4902067482471466 -0.36694392561912537 0.0 0.0 0.0 0.0
0.469 -0.4724016487598419 -0.1758696734905243 -0.5028287172317505 -0.3427899479866028 0.0 0.0 0.0 0.0
0.47 -0.47156357765197754 -0.16708527505397797 -0.5169165134429932 -0.3151550590991974 0.0 0.0 0.0 0.0
0.471 -0.47058549523353577 -0.16054576635360718 -0.5224663615226746 -0.2931371033191681 0.0 0.0 0.0 0.0
0.472 -0.47148704528808594 -0.1519162654876709 -0.5372022390365601 -0.2692537009716034 0.0 0.0 0.0 0.0
0.473 -0.4683941900730133 -0.1467188447713852 -0.5436446070671082 -0.2425689548254013 0.0 0.0 0.0 0.0
0.474 -0.46917176246643066 -0.14430703222751617 -0.5488855838775635 -0.21688470244407654 0.0 0.0 0.0 0.0
0.475 -0.4735160768032074 -0.14148792624473572 -0.5518590807914734 -0.18995685875415802 0.0 0.0 0.0 0.0
0.476 -0.47610434889793396 -0.13501450419425964 -0.5542861819267273 -0.16668376326560974 0.0 0.0 0.0 0.0
0.477 -0.47722873091697693 -0.12860172986984253 -0.5563987493515015 -0.13978281617164612 0.0 0.0 0.0 0.0
0.478 -0.4835566282272339 -0.1268996149301529 -0.5560042858123779 -0.11601125448942184 0.0 0.0 0.0 0.0
0.479 -0.4925069510936737 -0.12081500887870789 -0.5515775680541992 -0.08953418582677841 0.0 0.0 0.0 0.0
0.48 -0.49840739369392395 -0.11489879339933395 -0.5460774302482605 -0.0733005478978157 0.0 0.0 0.0 0.0
0.481 -0.5077031850814819 -0.10367466509342194 -0.5439729690551758 -0.04972352087497711 0.0 0.0 0.0 0.0
0.482 -0.5118222236633301 -0.09121884405612946 -0.5385369658470154 -0.033138617873191833 0.0 0.0 0.0 0.0
0.483 -0.5156710743904114 -0.0812879130244255 -0.5368914604187012 -0.01049475371837616 0.0 0.0 0.0 0.0
0.484 -0.518579363822937 -0.07177145034074783 -0.530430018901825 0.007432160899043083 0.0 0.0 0.0 0.0
0.485 -0.5257748365402222 -0.0639239177107811 -0.5255873203277588 0.030938681215047836 0.0 0.0 0.0 0.0
0.486 -0.5328937768936157 -0.05667445436120033 -0.51352459192276 0.04858943447470665 0.0 0.0 0.0 0.0
0.487 -0.5459089279174805 -0.0402812696993351 -0.5037211179733276 0.06351326406002045 0.0 0.0 0.0 0.0
0.488 -0.5526393055915833 -0.02167142555117607 -0.4953572452068329 0.07570754736661911 0.0 0.0 0.0 0.0
0.489 -0.5575974583625793 -0.006488163024187088 -0.49048173427581787 0.08808591216802597 0.0 0.0 0.0 0.0
0.49 -0.5572232007980347 0.01095373835414648 -0.48501157760620117 0.1036674827337265 0.0 0.0 0.0 0.0
0.491 -0.5609736442565918 0.025231899693608284 -0.47817856073379517 0.11952930688858032 0.0 0.0 0.0 0.0
0.492 -0.5637493133544922 0.043757468461990356 -0.47057780623435974 0.13425542414188385 0.0 0.0 0.0 0.0
0.493 -0.5642272233963013 0.06093718484044075 -0.4614700675010681 0.14812824130058289 0.0 0.0 0.0 0.0
0.494 -0.5653883814811707 0.07437875121831894 -0.4538275897502899 0.16567093133926392 0.0 0.0 0.0 0.0
0.495 -0.5666854977607727 0.08880891650915146 -0.4411381185054779 0.1776455044746399 0.0 0.0 0.0 0.0
0.496 -0.5712695121765137 0.10946014523506165 -0.42929062247276306 0.19126614928245544 0.0 0.0 0.0 0.0
0.497 -0.5744335651397705 0.12754188477993011 -0.4165351986885071 0.19940127432346344 0.0 0.0 0.0 0.0
0.498 -0.5760594606399536 0.14886686205863953 -0.4066608250141144 0.2082412838935852 0.0 0.0 0.0 0.0
0.499 -0.5748416185379028 0.17144663631916046 -0.39358559250831604 0.21517372131347656 0.0 0.0 0.0 0.0
0.5 -0.5754398703575134 0.194217249751091 -0.3878087103366852 0.21923507750034332 0.0 0.0 0.0 0.0
0.501 -0.5655127167701721 0.22211618721485138 -0.3806843161582947 0.2285705804824829 0.0 0.0 0.0 0.0
0.502 -0.5589761137962341 0.24257533252239227 -0.37561914324760437 0.23537978529930115 0.0 0.0 0.0 0.0
0.503 -0.5505744814872742 0.2652411460876465 -0.36877211928367615 0.24726521968841553 0.0 0.0 0.0 0.0
0.504 -0.5417067408561707 0.2848778963088989 -0.36133429408073425 0.2539762854576111 0.0 0.0 0.0 0.0
0.505 -0.5332426428794861 0.3098369538784027 -0.3533253073692322 0.26381418108940125 0.0 0.0 0.0 0.0
0.506 -0.5168207883834839 0.32765981554985046 -0.3478977680206299 0.2705545723438263 0.0 0.0 0.0 0.0
0.507 -0.5057482123374939 0.34610939025878906 -0.33806076645851135 0.28403955698013306 0.0 0.0 0.0 0.0
0.508 -0.4954468011856079 0.36620914936065674 -0.32836341857910156 0.28922605514526367 0.0 0.0 0.0 0.0
0.509 -0.48194634914398193 0.38950037956237793 -0.32261785864830017 0.295890212059021 0.0 0.0 0.0 0.0
0.51 -0.4578190743923187 0.40833374857902527 -0.319510281085968 0.3031751215457916 0.0 0.0 0.0 0.0
0.511 -0.4398198127746582 0.4264174699783325 -0.31536439061164856 0.3157969117164612 0.0 0.0 0.0 0.0
0.512 -0.41605156660079956 0.44083985686302185 -0.3071725070476532 0.3291182816028595 0.0 0.0 0.0 0.0
0.513 -0.39698612689971924 0.4508656859397888 -0.29873284697532654 0.34290811419487 0.0 0.0 0.0 0.0
0.514 -0.3772324025630951 0.4625551104545593 -0.2857873737812042 0.356435626745224 0.0 0.0 0.0 0.0
0.515 -0.3591752350330353 0.4715595841407776 -0.27493181824684143 0.3671185076236725 0.0 0.0 0.0 0.0
0.516 -0.339944064617157 0.4811153709888458 -0.2615864872932434 0.3788684606552124 0.0 0.0 0.0 0.0
0.517 -0.3187294900417328 0.4895428717136383 -0.24954722821712494 0.3885486423969269 0.0 0.0 0.0 0.0
0.518 -0.2984984219074249 0.4962596893310547 -0.23426608741283417 0.40189245343208313 0.0 0.0 0.0 0.0
0.519 -0.28118419647216797 0.4984479248523712 -0.21907992660999298 0.41023746132850647 0.0 0.0 0.0 0.0
0.52 -0.26614639163017273 0.5059888362884521 -0.19968588650226593 0.4206800162792206 0.0 0.0 0.0 0.0
0.521 -0.25131118297576904 0.512152373790741 -0.18076908588409424 0.4235527217388153 0.0 0.0 0.0 0.0
0.522 -0.23452328145503998 0.5204770565032959 -0.16389794647693634 0.4290108382701874 0.0 0.0 0.0 0.0
0.523 -0.21640223264694214 0.5267471671104431 -0.14671173691749573 0.43087440729141235 0.0 0.0 0.0 0.0
0.524 -0.19773687422275543 0.5364759564399719 -0.13282504677772522 0.4349662661552429 0.0 0.0 0.0 0.0
0.525 -0.17781086266040802 0.540353000164032 -0.11700354516506195 0.43919068574905396 0.0 0.0 0.0 0.0
0.526 -0.15857015550136566 0.5413662791252136 -0.10087578743696213 0.4432907998561859 0.0 0.0 0.0 0.0
0.527 -0.1370735466480255 0.5444271564483643 -0.08176124840974808 0.44813162088394165 0.0 0.0 0.0 0.0
0.528 -0.12194918841123581 0.5414503216743469 -0.06394537538290024 0.4502686858177185 0.0 0.0 0.0 0.0
0.529 -0.10588523000478745 0.5424516201019287 -0.03789849579334259 0.4522697925567627 0.0 0.0 0.0 0.0
0.53 -0.09460011124610901 0.543975293636322 -0.01848839968442917 0.4474366009235382 0.0 0.0 0.0 0.0
0.531 -0.08334026485681534 0.5520832538604736 0.0033902088180184364 0.4402148723602295 0.0 0.0 0.0 0.0
0.532 -0.06815338134765625 0.556533694267273 0.019689640030264854 0.42978760600090027 0.0 0.0 0.0 0.0
0.533 -0.049164365977048874 0.5633359551429749 0.03441530466079712 0.4246891438961029 0.0 0.0 0.0 0.0
0.534 -0.032135870307683945 0.5662243366241455 0.04851412773132324 0.4161737859249115 0.0 0.0 0.0 0.0
0.535 -0.01451050117611885 0.5704184174537659 0.06437543034553528 0.4081609547138214 0.0 0.0 0.0 0.0
0.536 0.0012906473129987717 0.5756610631942749 0.07921034097671509 0.39676594734191895 0.0 0.0 0.0 0.0
0.537 0.017238682135939598 0.5810345411300659 0.0913887694478035 0.3846787214279175 0.0 0.0 0.0 0.0
0.538 0.0345342643558979 0.5890119075775146 0.1000630110502243 0.37105807662010193 0.0 0.0 0.0 0.0
0.539 0.05895445868372917 0.595991313457489 0.1084895133972168 0.35395240783691406 0.0 0.0 0.0 0.0
0.54 0.08244821429252625 0.6055297255516052 0.1108967661857605 0.343235582113266 0.0 0.0 0.0 0.0
0.541 0.1103062853217125 0.6089819073677063 0.11161656677722931 0.332172155380249 0.0 0.0 0.0 0.0
0.542 0.1403106302022934 0.6122445464134216 0.1135435402393341 0.3255639970302582 0.0 0.0 0.0 0.0
0.543 0.16916537284851074 0.6111637353897095 0.11431795358657837 0.31740328669548035 0.0 0.0 0.0 0.0
0.544 0.19659331440925598 0.6094372868537903 0.11547902226448059 0.3130907714366913 0.0 0.0 0.0 0.0
0.545 0.22585566341876984 0.6037316918373108 0.11899518966674805 0.3079158067703247 0.0 0.0 0.0 0.0
0.546 0.25340133905410767 0.599094569683075 0.12042495608329773 0.30348846316337585 0.0 0.0 0.0 0.0
0.547 0.2837974727153778 0.5942664742469788 0.12108694016933441 0.2975386381149292 0.0 0.0 0.0 0.0
0.548 0.3110158145427704 0.5887264609336853 0.11765559017658234 0.2939217984676361 0.0 0.0 0.0 0.0
0.549 0.34783709049224854 0.5763745307922363 0.11842367053031921 0.29425865411758423 0.0 0.0 0.0 0.0
0.55 0.3768124282360077 0.5625020861625671 0.11696954816579819 0.29821550846099854 0.0 0.0 0.0 0.0
0.551 0.4063743054866791 0.5462918877601624 0.12199924886226654 0.3019249141216278 0.0 0.0 0.0 0.0
0.552 0.4320063591003418 0.5261220932006836 0.12566547095775604 0.3026637136936188 0.0 0.0 0.0 0.0
0.553 0.45928364992141724 0.509576678276062 0.12877504527568817 0.30578726530075073 0.0 0.0 0.0 0.0
0.554 0.48467904329299927 0.4848625063896179 0.1353447437286377 0.30867549777030945 0.0 0.0 0.0 0.0
0.555 0.5086338520050049 0.46604183316230774 0.14210312068462372 0.3119391202926636 0.0 0.0 0.0 0.0
0.556 0.5319997668266296 0.4399709701538086 0.15085634589195251 0.3136932849884033 0.0 0.0 0.0 0.0
0.557 0.5513895750045776 0.41588902473449707 0.15893712639808655 0.3182802200317383 0.0 0.0 0.0 0.0
0.558 0.572073757648468 0.38780662417411804 0.1686641126871109 0.3207460939884186 0.0 0.0 0.0 0.0
0.559 0.5881457924842834 0.3614332675933838 0.17987826466560364 0.32434985041618347 0.0 0.0 0.0 0.0
0.56 0.6022231578826904 0.3308309018611908 0.1948951780796051 0.32305169105529785 0.0 0.0 0.0 0.0
0.561 0.6144014000892639 0.30593594908714294 0.20703016221523285 0.3235124945640564 0.0 0.0 0.0 0.0
0.562 0.6254156827926636 0.27724340558052063 0.22294773161411285 0.31968748569488525 0.0 0.0 0.0 0.0
0.563 0.6327905058860779 0.25215476751327515 0.23468801379203796 0.3164098262786865 0.0 0.0 0.0 0.0
0.564 0.6451123952865601 0.22404058277606964 0.24945951998233795 0.3114805221557617 0.0 0.0 0.0 0.0
0.565 0.6503357291221619 0.2005102038383484 0.2586066424846649 0.3057263493537903 0.0 0.0 0.0 0.0
0.566 0.6587498784065247 0.17232701182365417 0.27385178208351135 0.2984037399291992 0.0 0.0 0.0 0.0
0.567 0.6653124690055847 0.14759205281734467 0.28186461329460144 0.2936520278453827 0.0 0.0 0.0 0.0
0.568 0.6704279780387878 0.12233101576566696 0.2946987748146057 0.2863139808177948 0.0 0.0 0.0 0.0
0.569 0.6759371161460876 0.0945727527141571 0.3056390881538391 0.27991366386413574 0.0 0.0 0.0 0.0
0.57 0.6787548065185547 0.07071732729673386 0.31633371114730835 0.27353668212890625 0.0 0.0 0.0 0.0
0.571 0.6824930310249329 0.04142189398407936 0.32740694284439087 0.26501643657684326 0.0 0.0 0.0 0.0
0.572 0.6840863227844238 0.01662522926926613 0.3375719487667084 0.2586234509944916 0.0 0.0 0.0 0.0
0.573 0.685344398021698 -0.013065221719443798 0.3503658175468445 0.24895575642585754 0.0 0.0 0.0 0.0
0.574 0.6821902990341187 -0.03904310241341591 0.3602380156517029 0.23997712135314941 0.0 0.0 0.0 0.0
0.575 0.6813445091247559 -0.06538599729537964 0.3719196915626526 0.22957894206047058 0.0 0.0 0.0 0.0
0.576 0.6798198223114014 -0.09097018092870712 0.3821090757846832 0.22327683866024017 0.0 0.0 0.0 0.0
0.577 0.674111008644104 -0.11776723712682724 0.39435523748397827 0.20913487672805786 0.0 0.0 0.0 0.0
0.578 0.6683252453804016 -0.1416318714618683 0.40429508686065674 0.1982785165309906 0.0 0.0 0.0 0.0
0.579 0.6632390022277832 -0.16900500655174255 0.41678357124328613 0.1844501793384552 0.0 0.0 0.0 0.0
0.58 0.6529284119606018 -0.1896524876356125 0.4230421781539917 0.1702813357114792 0.0 0.0 0.0 0.0
0.581 0.6474823355674744 -0.21337489783763885 0.43317553400993347 0.15700280666351318 0.0 0.0 0.0 0.0
0.582 0.6395218372344971 -0.23803985118865967 0.4416869878768921 0.14346632361412048 0.0 0.0 0.0 0.0
0.583 0.6285158395767212 -0.26000019907951355 0.44985100626945496 0.12735357880592346 0.0 0.0 0.0 0.0
0.584 0.619667649269104 -0.278838574886322 0.4572850167751312 0.1136399507522583 0.0 0.0 0.0 0.0
0.585 0.6072515845298767 -0.30391353368759155 0.46340006589889526 0.09694840013980865 0.0 0.0 0.0 0.0
0.586 0.5964673757553101 -0.3272418677806854 0.4719700813293457 0.07794222235679626 0.0 0.0 0.0 0.0
0.587 0.5828778743743896 -0.34443399310112 0.475295752286911 0.06337671726942062 0.0 0.0 0.0 0.0
0.588 0.567253053188324 -0.36211198568344116 0.4810367822647095 0.0427672304213047 0.0 0.0 0.0 0.0
0.589 0.5555935502052307 -0.3814249634742737 0.48376768827438354 0.025514820590615273 0.0 0.0 0.0 0.0
0.59 0.5440278649330139 -0.39460474252700806 0.48513439297676086 0.009045773185789585 0.0 0.0 0.0 0.0
0.591 0.528831422328949 -0.4135216176509857 0.48614609241485596 -0.009915690869092941 0.0 0.0 0.0 0.0
0.592 0.5169059634208679 -0.42915308475494385 0.4894450902938843 -0.02383226528763771 0.0 0.0 0.0 0.0
0.593 0.4993622601032257 -0.44977468252182007 0.49110308289527893 -0.046550311148166656 0.0 0.0 0.0 0.0
0.594 0.484693706035614 -0.4594760239124298 0.4917042553424835 -0.06227201968431473 0.0 0.0 0.0 0.0
0.595 0.46682679653167725 -0.4721206724643707 0.48754313588142395 -0.08486419916152954 0.0 0.0 0.0 0.0
0.596 0.4527241289615631 -0.48578208684921265 0.48545560240745544 -0.10252189636230469 0.0 0.0 0.0 0.0
0.597 0.438882052898407 -0.49829626083374023 0.48190250992774963 -0.12258190661668777 0.0 0.0 0.0 0.0
0.598 0.42514723539352417 -0.5073778033256531 0.47414547204971313 -0.13775278627872467 0.0 0.0 0.0 0.0
0.599 0.41424182057380676 -0.5214897394180298 0.47009772062301636 -0.1533258706331253 0.0 0.0 0.0 0.0
0.6 0.39555230736732483 -0.531665563583374 0.4630063474178314 -0.1691799759864807 0.0 0.0 0.0 0.0
0.601 0.3819834291934967 -0.5477928519248962 0.46123164892196655 -0.18767371773719788 0.0 0.0 0.0 0.0
0.602 0.3655652403831482 -0.5567403435707092 0.4543304741382599 -0.20249728858470917 0.0 0.0 0.0 0.0
0.603 0.3489074409008026 -0.5660159587860107 0.44717299938201904 -0.22124049067497253 0.0 0.0 0.0 0.0
0.604 0.3349003195762634 -0.5749942660331726 0.4384410083293915 -0.23483385145664215 0.0 0.0 0.0 0.0
0.605 0.32096701860427856 -0.5849339365959167 0.43068408966064453 -0.25008833408355713 0.0 0.0 0.0 0.0
0.606 0.30427712202072144 -0.592491626739502 0.41963160037994385 -0.2627292275428772 0.0 0.0 0.0 0.0
0.607 0.2864939570426941 -0.6035706996917725 0.4122665226459503 -0.27672910690307617 0.0 0.0 0.0 0.0
0.608 0.2673960030078888 -0.6111754775047302 0.4026101231575012 -0.2919655740261078 0.0 0.0 0.0 0.0
0.609 0.2529773414134979 -0.6172794699668884 0.3952324092388153 -0.30584627389907837 0.0 0.0 0.0 0.0
0.61 0.23541875183582306 -0.6233119368553162 0.3816928565502167 -0.32253679633140564 0.0 0.0 0.0 0.0
0.611 0.21999283134937286 -0.6299233436584473 0.36951732635498047 -0.3338778614997864 0.0 0.0 0.0 0.0
0.612 0.20488516986370087 -0.6369714736938477 0.356477290391922 -0.34729695320129395 0.0 0.0 0.0 0.0
0.613 0.1905994862318039 -0.6403504610061646 0.3439503312110901 -0.3533492088317871 0.0 0.0 0.0 0.0
0.614 0.17389239370822906 -0.6520428657531738 0.33124998211860657 -0.3672567307949066 0.0 0.0 0.0 0.0
0.615 0.15910078585147858 -0.6560940146446228 0.31955480575561523 -0.37233608961105347 0.0 0.0 0.0 0.0
0.616 0.14342214167118073 -0.6672088503837585 0.31109145283699036 -0.3825708329677582 0.0 0.0 0.0 0.0
0.617 0.12404005974531174 -0.6720941662788391 0.3002380430698395 -0.3905024230480194 0.0 0.0 0.0 0.0
0.618 0.10475537925958633 -0.677950382232666 0.2898048162460327 -0.40241408348083496 0.0 0.0 0.0 0.0
0.619 0.08811554312705994 -0.684110701084137 0.277255654335022 -0.4111800789833069 0.0 0.0 0.0 0.0
0.62 0.0684601366519928 -0.6875002980232239 0.26459038257598877 -0.420084685087204 0.0 0.0 0.0 0.0
0.621 0.05046241730451584 -0.6917566061019897 0.25160324573516846 -0.42711135745048523 0.0 0.0 0.0 0.0
0.622 0.029969751834869385 -0.6970999240875244 0.24347099661827087 -0.4348677694797516 0.0 0.0 0.0 0.0
0.623 0.005044565536081791 -0.7011520266532898 0.2277488112449646 -0.44768741726875305 0.0 0.0 0.0 0.0
0.624 -0.013289202004671097 -0.6995809674263 0.21673984825611115 -0.45433270931243896 0.0 0.0 0.0 0.0
0.625 -0.03616040199995041 -0.7012156248092651 0.20128165185451508 -0.4630512297153473 0.0 0.0 0.0 0.0
0.626 -0.05566917359828949 -0.7029393315315247 0.1905176043510437 -0.47004234790802 0.0 0.0 0.0 0.0
0.627 -0.07532786577939987 -0.7021203637123108 0.17531442642211914 -0.4787288308143616 0.0 0.0 0.0 0.0
0.628 -0.09875570237636566 -0.6991162300109863 0.16202852129936218 -0.4860198497772217 0.0 0.0 0.0 0.0
0.629 -0.12064550817012787 -0.6978745460510254 0.14858025312423706 -0.49619096517562866 0.0 0.0 0.0 0.0
0.63 -0.14114828407764435 -0.6956490278244019 0.1352023184299469 -0.5040042996406555 0.0 0.0 0.0 0.0
0.631 -0.16103699803352356 -0.6875160932540894 0.117189422249794 -0.5098060965538025 0.0 0.0 0.0 0.0
0.632 -0.18056176602840424 -0.6824752688407898 0.09852952510118484 -0.5164292454719543 0.0 0.0 0.0 0.0
0.633 -0.1998470276594162 -0.6805357933044434 0.08512257039546967 -0.5232802629470825 0.0 0.0 0.0 0.0
0.634 -0.2209676206111908 -0.6710944175720215 0.06590478122234344 -0.5287206768989563 0.0 0.0 0.0 0.0
0.635 -0.24220210313796997 -0.661166250705719 0.048463668674230576 -0.532554030418396 0.0 0.0 0.0 0.0
0.636 -0.2628411054611206 -0.6546710133552551 0.02747817523777485 -0.5391067266464233 0.0 0.0 0.0 0.0
0.637 -0.27741169929504395 -0.6446893811225891 0.00928595568984747 -0.5377662777900696 0.0 0.0 0.0 0.0
0.638 -0.29492247104644775 -0.6409798860549927 -0.00816505216062069 -0.5419607758522034 0.0 0.0 0.0 0.0
0.639 -0.31507372856140137 -0.6324109435081482 -0.02670467086136341 -0.5426732301712036 0.0 0.0 0.0 0.0
0.64 -0.3293236196041107 -0.622519850730896 -0.04414014890789986 -0.5434642434120178 0.0 0.0 0.0 0.0
0.641 -0.34810543060302734 -0.6119946241378784 -0.06160915642976761 -0.541083812713623 0.0 0.0 0.0 0.0
0.642 -0.36875057220458984 -0.6026383638381958 -0.07955002039670944 -0.5416745543479919 0.0 0.0 0.0 0.0
0.643 -0.39081963896751404 -0.5916495323181152 -0.09824790060520172 -0.5427350997924805 0.0 0.0 0.0 0.0
0.644 -0.407653272151947 -0.5805538892745972 -0.11265048384666443 -0.5436840057373047 0.0 0.0 0.0 0.0
0.645 -0.426635205745697 -0.5659772753715515 -0.13324898481369019 -0.5442783236503601 0.0 0.0 0.0 0.0
0.646 -0.44408324360847473 -0.553114116191864 -0.14965902268886566 -0.5451535582542419 0.0 0.0 0.0 0.0
0.647 -0.46163615584373474 -0.5332410931587219 -0.17374494671821594 -0.5444308519363403 0.0 0.0 0.0 0.0
0.648 -0.4756351709365845 -0.5189651846885681 -0.19047711789608002 -0.5423814058303833 0.0 0.0 0.0 0.0
0.649 -0.4889872074127197 -0.500429093837738 -0.2150624841451645 -0.5375241637229919 0.0 0.0 0.0 0.0
0.65 -0.5048314332962036 -0.4819173812866211 -0.23434318602085114 -0.5327132344245911 0.0 0.0 0.0 0.0
0.651 -0.5186010003089905 -0.46749091148376465 -0.2564657926559448 -0.5307201743125916 0.0 0.0 0.0 0.0
0.652 -0.5306013822555542 -0.44703835248947144 -0.2757461965084076 -0.5211204290390015 0.0 0.0 0.0 0.0
0.653 -0.5421125292778015 -0.43082571029663086 -0.2927774488925934 -0.5179508924484253 0.0 0.0 0.0 0.0
0.654 -0.5553411245346069 -0.40685468912124634 -0.3176276981830597 -0.5089336037635803 0.0 0.0 0.0 0.0
0.655 -0.5668556690216064 -0.38545727729797363 -0.3400077521800995 -0.5046073794364929 0.0 0.0 0.0 0.0
0.656 -0.5723899602890015 -0.3630152940750122 -0.3619210422039032 -0.49444109201431274 0.0 0.0 0.0 0.0
0.657 -0.5820659399032593 -0.3417966961860657 -0.3853192925453186 -0.4839649796485901 0.0 0.0 0.0 0.0
0.658 -0.5871527194976807 -0.3214411735534668 -0.409682959318161 -0.47068485617637634 0.0 0.0 0.0 0.0
0.659 -0.5907806754112244 -0.2978760302066803 -0.428110808134079 -0.4565272331237793 0.0 0.0 0.0 0.0
0.66 -0.5955567955970764 -0.27667146921157837 -0.45166170597076416 -0.4404292404651642 0.0 0.0 0.0 0.0
0.661 -0.6000921726226807 -0.2571120262145996 -0.4690253734588623 -0.4249325394630432 0.0 0.0 0.0 0.0
0.662 -0.6014533042907715 -0.2385619878768921 -0.48988133668899536 -0.40722790360450745 0.0 0.0 0.0 0.0
0.663 -0.6014617681503296 -0.2147778421640396 -0.5060301423072815 -0.38882800936698914 0.0 0.0 0.0 0.0
0.664 -0.6036227941513062 -0.19492964446544647 -0.5245413780212402 -0.371110737323761 0.0 0.0 0.0 0.0
0.665 -0.604877233505249 -0.17130541801452637 -0.5417095422744751 -0.34925973415374756 0.0 0.0 0.0 0.0
0.666 -0.6036635041236877 -0.15314379334449768 -0.5590400695800781 -0.3315715789794922 0.0 0.0 0.0 0.0
0.667 -0.6019895672798157 -0.13195064663887024 -0.5748061537742615 -0.3092992305755615 0.0 0.0 0.0 0.0
0.668 -0.5996984839439392 -0.1126728281378746 -0.5908563733100891 -0.2879774868488312 0.0 0.0 0.0 0.0
0.669 -0.5975732207298279 -0.0895763486623764 -0.607846200466156 -0.26207974553108215 0.0 0.0 0.0 0.0
0.67 -0.5898070335388184 -0.07154013961553574 -0.6176984310150146 -0.23960228264331818 0.0 0.0 0.0 0.0
0.671 -0.5863242149353027 -0.051150042563676834 -0.6339098215103149 -0.20891103148460388 0.0 0.0 0.0 0.0
0.672 -0.5779981017112732 -0.03539928048849106 -0.6413711309432983 -0.18642038106918335 0.0 0.0 0.0 0.0
0.673 -0.5731162428855896 -0.016084415838122368 -0.652368426322937 -0.15670154988765717 0.0 0.0 0.0 0.0
0.674 -0.5637406706809998 -0.00040400493890047073 -0.6596636772155762 -0.13182128965854645 0.0 0.0 0.0 0.0
0.675 -0.5544039607048035 0.017125774174928665 -0.6692829132080078 -0.09986323118209839 0.0 0.0 0.0 0.0
0.676 -0.5455154180526733 0.0330863893032074 -0.67298823595047 -0.06917516142129898 0.0 0.0 0.0 0.0
0.677 -0.5373254418373108 0.04810395836830139 -0.6799342036247253 -0.04209735989570618 0.0 0.0 0.0 0.0
0.678 -0.5244740843772888 0.06396806240081787 -0.6793103218078613 -0.008464984595775604 0.0 0.0 0.0 0.0
0.679 -0.51434326171875 0.07288346439599991 -0.6816228032112122 0.01943863369524479 0.0 0.0 0.0 0.0
0.68 -0.5045027732849121 0.08505323529243469 -0.6798079013824463 0.05369921401143074 0.0 0.0 0.0 0.0
0.681 -0.4937637150287628 0.09467541426420212 -0.676666796207428 0.0803118646144867 0.0 0.0 0.0 0.0
0.682 -0.48327377438545227 0.1080944612622261 -0.6709269285202026 0.11802646517753601 0.0 0.0 0.0 0.0
0.683 -0.4736821949481964 0.11450260877609253 -0.6633918285369873 0.14289136230945587 0.0 0.0 0.0 0.0
0.684 -0.46615853905677795 0.1249920055270195 -0.6552991271018982 0.17922109365463257 0.0 0.0 0.0 0.0
0.685 -0.4529096484184265 0.1295369565486908 -0.643545925617218 0.20313496887683868 0.0 0.0 0.0 0.0
0.686 -0.4474267065525055 0.13804925978183746 -0.6337031126022339 0.23219804465770721 0.0 0.0 0.0 0.0
0.687 -0.43367329239845276 0.14676247537136078 -0.6182030439376831 0.2604863941669464 0.0 0.0 0.0 0.0
0.688 -0.4261191189289093 0.1503061205148697 -0.6057155132293701 0.28942805528640747 0.0 0.0 0.0 0.0
0.689 -0.4176062345504761 0.15266868472099304 -0.5892708897590637 0.31459131836891174 0.0 0.0 0.0 0.0
0.69 -0.40704724192619324 0.15892921388149261 -0.5669775605201721 0.34353312849998474 0.0 0.0 0.0 0.0
0.691 -0.4006322920322418 0.16191136837005615 -0.5487425923347473 0.3649880290031433 0.0 0.0 0.0 0.0
0.692 -0.3934260904788971 0.16794410347938538 -0.526607871055603 0.39087748527526855 0.0 0.0 0.0 0.0
0.693 -0.38945865631103516 0.16806413233280182 -0.5072528719902039 0.4069562256336212 0.0 0.0 0.0 0.0
0.694 -0.3832241892814636 0.17259134352207184 -0.4804728329181671 0.4303279519081116 0.0 0.0 0.0 0.0
0.695 -0.3787555396556854 0.17656652629375458 -0.45717841386795044 0.44386160373687744 0.0 0.0 0.0 0.0
0.696 -0.3750748336315155 0.18142876029014587 -0.42763596773147583 0.4647054374217987 0.0 0.0 0.0 0.0
0.697 -0.3719574213027954 0.18490473926067352 -0.4020240604877472 0.4766223728656769 0.0 0.0 0.0 0.0
0.698 -0.37006261944770813 0.18897266685962677 -0.3722090423107147 0.4923666715621948 0.0 0.0 0.0 0.0
0.699 -0.37046366930007935 0.1939137876033783 -0.34533455967903137 0.49747735261917114 0.0 0.0 0.0 0.0
0.7 -0.3715958893299103 0.20149187743663788 -0.31557750701904297 0.5036094784736633 0.0 0.0 0.0 0.0
0.701 -0.3724585771560669 0.20982253551483154 -0.28716081380844116 0.5058222413063049 0.0 0.0 0.0 0.0
0.702 -0.3726270794868469 0.22024798393249512 -0.26296254992485046 0.5085494518280029 0.0 0.0 0.0 0.0
0.703 -0.37161633372306824 0.2331370711326599 -0.2374788522720337 0.5097488760948181 0.0 0.0 0.0 0.0
0.704 -0.3681688606739044 0.24439559876918793 -0.21172252297401428 0.5108098983764648 0.0 0.0 0.0 0.0
0.705 -0.36776700615882874 0.2563770115375519 -0.18868112564086914 0.5058770775794983 0.0 0.0 0.0 0.0
0.706 -0.3686661720275879 0.2710748612880707 -0.16766595840454102 0.5003868937492371 0.0 0.0 0.0 0.0
0.707 -0.36436524987220764 0.28930822014808655 -0.14542622864246368 0.494700163602829 0.0 0.0 0.0 0.0
0.708 -0.3599316477775574 0.30361616611480713 -0.12967953085899353 0.48877838253974915 0.0 0.0 0.0 0.0
0.709 -0.35387930274009705 0.322887659072876 -0.1082906723022461 0.48120877146720886 0.0 0.0 0.0 0.0
0.71 -0.3463895916938782 0.34099170565605164 -0.095122329890728 0.4724750518798828 0.0 0.0 0.0 0.0
0.711 -0.3340444564819336 0.3620683252811432 -0.07804282009601593 0.4665912687778473 0.0 0.0 0.0 0.0
0.712 -0.321831077337265 0.37607893347740173 -0.069886215031147 0.4601058065891266 0.0 0.0 0.0 0.0
0.713 -0.30864807963371277 0.39441078901290894 -0.05357838794589043 0.45548689365386963 0.0 0.0 0.0 0.0
0.714 -0.29391956329345703 0.4072785973548889 -0.04497845470905304 0.4474070966243744 0.0 0.0 0.0 0.0
0.715 -0.2804134488105774 0.4233170449733734 -0.0335828922688961 0.442646324634552 0.0 0.0 0.0 0.0
0.716 -0.2641872465610504 0.4395030736923218 -0.020874863490462303 0.4342920780181885 0.0 0.0 0.0 0.0
0.717 -0.24759192764759064 0.4539538323879242 -0.012299714609980583 0.42789706587791443 0.0 0.0 0.0 0.0
0.718 -0.22683580219745636 0.4693000018596649 -0.004332730546593666 0.4209948480129242 0.0 0.0 0.0 0.0
0.719 -0.20696382224559784 0.48333653807640076 0.0016726506873965263 0.41591018438339233 0.0 0.0 0.0 0.0
0.72 -0.1862209141254425 0.49763262271881104 0.007070021703839302 0.4113646447658539 0.0 0.0 0.0 0.0
0.721 -0.15544907748699188 0.5098925232887268 0.016151627525687218 0.40842556953430176 0.0 0.0 0.0 0.0
0.722 -0.13402807712554932 0.518157958984375 0.020437117666006088 0.40597066283226013 0.0 0.0 0.0 0.0
0.723 -0.10997475683689117 0.5232727527618408 0.02454446069896221 0.40371593832969666 0.0 0.0 0.0 0.0
0.724 -0.08342606574296951 0.5291446447372437 0.03415685147047043 0.4043225347995758 0.0 0.0 0.0 0.0
0.725 -0.055568017065525055 0.5313852429389954 0.042132455855607986 0.402835875749588 0.0 0.0 0.0 0.0
0.726 -0.03276301175355911 0.5325140357017517 0.051857758313417435 0.403338223695755 0.0 0.0 0.0 0.0
0.727 -0.007662652060389519 0.5334552526473999 0.06147049367427826 0.3998048007488251 0.0 0.0 0.0 0.0
0.728 0.011634028516709805 0.5331832766532898 0.07009302079677582 0.3977966010570526 0.0 0.0 0.0 0.0
0.729 0.04028823599219322 0.5344815254211426 0.08094897866249084 0.3931015133857727 0.0 0.0 0.0 0.0
0.73 0.06155506521463394 0.5336323976516724 0.08378797769546509 0.39203235507011414 0.0 0.0 0.0 0.0
0.731 0.0885738730430603 0.5316776633262634 0.09610006213188171 0.3892817795276642 0.0 0.0 0.0 0.0
0.732 0.11179792135953903 0.5286849141120911 0.1003156527876854 0.38755133748054504 0.0 0.0 0.0 0.0
0.733 0.13995911180973053 0.5207210183143616 0.11262758076190948 0.38626331090927124 0.0 0.0 0.0 0.0
0.734 0.16169437766075134 0.5137529969215393 0.11917537450790405 0.3854621946811676 0.0 0.0 0.0 0.0
0.735 0.18472334742546082 0.5060725808143616 0.13191121816635132 0.3821583688259125 0.0 0.0 0.0 0.0
0.736 0.20746971666812897 0.4981004595756531 0.13923397660255432 0.37900662422180176 0.0 0.0 0.0 0.0
0.737 0.22843971848487854 0.4910399615764618 0.14917989075183868 0.37742000818252563 0.0 0.0 0.0 0.0
0.738 0.2509462237358093 0.48050954937934875 0.15882059931755066 0.37028491497039795 0.0 0.0 0.0 0.0
0.739 0.26969459652900696 0.4719448983669281 0.16538095474243164 0.36929744482040405 0.0 0.0 0.0 0.0
0.74 0.29449331760406494 0.45855242013931274 0.1756487488746643 0.36424073576927185 0.0 0.0 0.0 0.0
0.741 0.31234243512153625 0.44746649265289307 0.18314453959465027 0.36369574069976807 0.0 0.0 0.0 0.0
0.742 0.3347218334674835 0.4342542886734009 0.1944255530834198 0.3595612645149231 0.0 0.0 0.0 0.0
0.743 0.3530721366405487 0.4196341037750244 0.20323902368545532 0.35683876276016235 0.0 0.0 0.0 0.0
0.744 0.37162861227989197 0.4045933783054352 0.21440941095352173 0.3528635501861572 0.0 0.0 0.0 0.0
0.745 0.38823044300079346 0.3876400589942932 0.2231886088848114 0.3480552136898041 0.0 0.0 0.0 0.0
0.746 0.4062024652957916 0.37159547209739685 0.2361377328634262 0.3411256968975067 0.0 0.0 0.0 0.0
0.747 0.41977399587631226 0.35826927423477173 0.2401455193758011 0.33707040548324585 0.0 0.0 0.0 0.0
0.748 0.4399759769439697 0.3433050215244293 0.25108233094215393 0.334252268075943 0.0 0.0 0.0 0.0
0.749 0.45634207129478455 0.32501956820487976 0.25906118750572205 0.3285794258117676 0.0 0.0 0.0 0.0
0.75 0.4717431366443634 0.30734890699386597 0.2695925831794739 0.32626643776893616 0.0 0.0 0.0 0.0
0.751 0.4866607189178467 0.2862629294395447 0.27969053387641907 0.3195274770259857 0.0 0.0 0.0 0.0
0.752 0.49895748496055603 0.2666868567466736 0.28949272632598877 0.3177085518836975 0.0 0.0 0.0 0.0
0.753 0.5119807124137878 0.2435765415430069 0.3020593523979187 0.3109907805919647 0.0 0.0 0.0 0.0
0.754 0.5222504734992981 0.22339755296707153 0.31189554929733276 0.3042609393596649 0.0 0.0 0.0 0.0
0.755 0.5328612923622131 0.2020075023174286 0.32497140765190125 0.2971147894859314 0.0 0.0 0.0 0.0
0.756 0.537692666053772 0.1801059991121292 0.33356159925460815 0.28939008712768555 0.0 0.0 0.0 0.0
0.757 0.5485667586326599 0.1603248119354248 0.34617137908935547 0.2804070711135864 0.0 0.0 0.0 0.0
0.758 0.5545135736465454 0.13942985236644745 0.35420799255371094 0.27223968505859375 0.0 0.0 0.0 0.0
0.759 0.5617241859436035 0.11832047998905182 0.3655511438846588 0.26070648431777954 0.0 0.0 0.0 0.0
0.76 0.5666791796684265 0.09671859443187714 0.3732196092605591 0.2522309422492981 0.0 0.0 0.0 0.0
0.761 0.5749491453170776 0.07586417347192764 0.38445061445236206 0.2455565184354782 0.0 0.0 0.0 0.0
0.762 0.5783883929252625 0.05350511521100998 0.39196401834487915 0.23503905534744263 0.0 0.0 0.0 0.0
0.763 0.5827136635780334 0.02916228584945202 0.40376830101013184 0.22729112207889557 0.0 0.0 0.0 0.0
0.764 0.5834969282150269 0.0036629503592848778 0.4148278832435608 0.21506012976169586 0.0 0.0 0.0 0.0
0.765 0.585349977016449 -0.015210846439003944 0.4261658489704132 0.20605087280273438 0.0 0.0 0.0 0.0
0.766 0.5847614407539368 -0.04057523235678673 0.43786072731018066 0.19312287867069244 0.0 0.0 0.0 0.0
0.767 0.5832328200340271 -0.06348590552806854 0.4464907646179199 0.18374156951904297 0.0 0.0 0.0 0.0
0.768 0.5790417194366455 -0.0848713293671608 0.45692336559295654 0.16475380957126617 0.0 0.0 0.0 0.0
0.769 0.5752488374710083 -0.10609536617994308 0.46701353788375854 0.15079419314861298 0.0 0.0 0.0 0.0
0.77 0.5707159638404846 -0.12494413554668427 0.4751804769039154 0.13393594324588776 0.0 0.0 0.0 0.0
0.771 0.5664872527122498 -0.14678999781608582 0.4838205575942993 0.11865697801113129 0.0 0.0 0.0 0.0
0.772 0.5608947277069092 -0.16297949850559235 0.49079030752182007 0.10291657596826553 0.0 0.0 0.0 0.0
0.773 0.5540454387664795 -0.18518732488155365 0.4986758530139923 0.08409164100885391 0.0 0.0 0.0 0.0
0.774 0.5472472310066223 -0.1990097612142563 0.5047013759613037 0.06894684582948685 0.0 0.0 0.0 0.0
0.775 0.5385432839393616 -0.21963325142860413 0.5103706121444702 0.044771626591682434 0.0 0.0 0.0 0.0
0.776 0.52952641248703 -0.23408310115337372 0.5117582082748413 0.027516847476363182 0.0 0.0 0.0 0.0
0.777 0.52549809217453 -0.24954219162464142 0.5167784690856934 0.008091623894870281 0.0 0.0 0.0 0.0
0.778 0.5164531469345093 -0.2647179067134857 0.5160432457923889 -0.00867659691721201 0.0 0.0 0.0 0.0
0.779 0.5093315243721008 -0.2833273112773895 0.5206713080406189 -0.028146330267190933 0.0 0.0 0.0 0.0
0.78 0.498659610748291 -0.2989402413368225 0.5202414989471436 -0.04596394672989845 0.0 0.0 0.0 0.0
0.781 0.48955467343330383 -0.3128536343574524 0.5231165289878845 -0.06708873063325882 0.0 0.0 0.0 0.0
0.782 0.47664937376976013 -0.32577985525131226 0.5201287269592285 -0.08815805613994598 0.0 0.0 0.0 0.0
0.783 0.4692956209182739 -0.33803942799568176 0.5209003686904907 -0.10802613198757172 0.0 0.0 0.0 0.0
0.784 0.45627233386039734 -0.35309818387031555 0.51845383644104 -0.13158123195171356 0.0 0.0 0.0 0.0
0.785 0.4460155963897705 -0.36146143078804016 0.5145648121833801 -0.1525726169347763 0.0 0.0 0.0 0.0
0.786 0.43491804599761963 -0.3728233873844147 0.5070587992668152 -0.17800933122634888 0.0 0.0 0.0 0.0
0.787 0.4258323311805725 -0.3781622648239136 0.5006504058837891 -0.19194376468658447 0.0 0.0 0.0 0.0
0.788 0.4166725277900696 -0.38837185502052307 0.4891848564147949 -0.21514327824115753 0.0 0.0 0.0 0.0
0.789 0.40938499569892883 -0.39886239171028137 0.4813916087150574 -0.22956916689872742 0.0 0.0 0.0 0.0
0.79 0.40010106563568115 -0.4084302484989166 0.4701464772224426 -0.251239538192749 0.0 0.0 0.0 0.0
0.791 0.3919486999511719 -0.41786888241767883 0.46157217025756836 -0.2658807635307312 0.0 0.0 0.0 0.0
0.792 0.3799220323562622 -0.42962634563446045 0.4512714445590973 -0.2885754704475403 0.0 0.0 0.0 0.0
0.793 0.37338119745254517 -0.435433566570282 0.43805214762687683 -0.30303263664245605 0.0 0.0 0.0 0.0
0.794 0.36594298481941223 -0.4425047039985657 0.4246131479740143 -0.31958144903182983 0.0 0.0 0.0 0.0
0.795 0.35623469948768616 -0.4524599015712738 0.40929871797561646 -0.33432304859161377 0.0 0.0 0.0 0.0
0.796 0.3495432436466217 -0.4592374563217163 0.3965708911418915 -0.3477526307106018 0.0 0.0 0.0 0.0
0.797 0.34129801392555237 -0.46679073572158813 0.3798598349094391 -0.361819863319397 0.0 0.0 0.0 0.0
0.798 0.3331773281097412 -0.4757341146469116 0.3657580018043518 -0.3758249878883362 0.0 0.0 0.0 0.0
0.799 0.3256438672542572 -0.48237326741218567 0.3464370667934418 -0.38782936334609985 0.0 0.0 0.0 0.0
0.8 0.31969553232192993 -0.488178551197052 0.3291945457458496 -0.3959845006465912 0.0 0.0 0.0 0.0
0.801 0.3158976137638092 -0.49887779355049133 0.31125587224960327 -0.40407294034957886 0.0 0.0 0.0 0.0
0.802 0.3085204064846039 -0.5079282522201538 0.2948891520500183 -0.40738651156425476 0.0 0.0 0.0 0.0
0.803 0.29877087473869324 -0.5247688889503479 0.2774173617362976 -0.4195133149623871 0.0 0.0 0.0 0.0
0.804 0.29508647322654724 -0.5324364304542542 0.2684893310070038 -0.41938361525535583 0.0 0.0 0.0 0.0
0.805 0.28401511907577515 -0.5458675026893616 0.2503892779350281 -0.42889609932899475 0.0 0.0 0.0 0.0
0.806 0.2723277807235718 -0.5544528961181641 0.23414508998394012 -0.432028204202652 0.0 0.0 0.0 0.0
0.807 0.2652114927768707 -0.5671308636665344 0.2181045264005661 -0.43805384635925293 0.0 0.0 0.0 0.0
0.808 0.25592562556266785 -0.5782154202461243 0.20367135107517242 -0.43829405307769775 0.0 0.0 0.0 0.0
0.809 0.2459740936756134 -0.5905475616455078 0.18961763381958008 -0.4424310326576233 0.0 0.0 0.0 0.0
0.81 0.23112602531909943 -0.6046328544616699 0.17506539821624756 -0.4426363706588745 0.0 0.0 0.0 0.0
0.811 0.22091726958751678 -0.616921067237854 0.16705656051635742 -0.44499850273132324 0.0 0.0 0.0 0.0
0.812 0.20212717354297638 -0.6288837194442749 0.1514192521572113 -0.4499886929988861 0.0 0.0 0.0 0.0
0.813 0.1916101723909378 -0.6395995616912842 0.145472913980484 -0.4523352384567261 0.0 0.0 0.0 0.0
0.814 0.17289182543754578 -0.651584267616272 0.1277409940958023 -0.4588783085346222 0.0 0.0 0.0 0.0
0.815 0.1575784683227539 -0.6576913595199585 0.1152210608124733 -0.45892632007598877 0.0 0.0 0.0 0.0
0.816 0.13961733877658844 -0.66872638463974 0.10128407925367355 -0.4621414542198181 0.0 0.0 0.0 0.0
0.817 0.12247607111930847 -0.6775690913200378 0.08762772381305695 -0.4635274410247803 0.0 0.0 0.0 0.0
0.818 0.10806840658187866 -0.6868857145309448 0.07754338532686234 -0.4661404490470886 0.0 0.0 0.0 0.0
0.819 0.09059498459100723 -0.6947812438011169 0.06397442519664764 -0.46601247787475586 0.0 0.0 0.0 0.0
0.82 0.07305797189474106 -0.7020561695098877 0.05101344361901283 -0.4699459969997406 0.0 0.0 0.0 0.0
0.821 0.04938807711005211 -0.707790732383728 0.035025257617235184 -0.46812140941619873 0.0 0.0 0.0 0.0
0.822 0.0347524918615818 -0.7155794501304626 0.026549475267529488 -0.4715118408203125 0.0 0.0 0.0 0.0
0.823 0.006277741864323616 -0.7213900089263916 0.009295979514718056 -0.4726084768772125 0.0 0.0 0.0 0.0
0.824 -0.009162332862615585 -0.7246732711791992 -0.0005191620439291 -0.4736567735671997 0.0 0.0 0.0 0.0
0.825 -0.03160175681114197 -0.7290375232696533 -0.017155993729829788 -0.4739459753036499 0.0 0.0 0.0 0.0
0.826 -0.0495951808989048 -0.7324770092964172 -0.026106946170330048 -0.473336786031723 0.0 0.0 0.0 0.0
0.827 -0.07702334225177765 -0.7341496348381042 -0.043410398066043854 -0.4728021025657654 0.0 0.0 0.0 0.0
0.828 -0.09740389883518219 -0.7373504042625427 -0.05153028666973114 -0.47253847122192383 0.0 0.0 0.0 0.0
0.829 -0.11888766288757324 -0.7388632893562317 -0.06748165190219879 -0.4727267324924469 0.0 0.0 0.0 0.0
0.83 -0.14293988049030304 -0.7380200624465942 -0.07849837839603424 -0.47148483991622925 0.0 0.0 0.0 0.0
0.831 -0.16990156471729279 -0.7366282939910889 -0.09261663258075714 -0.4743053615093231 0.0 0.0 0.0 0.0
0.832 -0.19624358415603638 -0.7300755381584167 -0.11066056042909622 -0.47347062826156616 0.0 0.0 0.0 0.0
0.833 -0.21580597758293152 -0.7272066473960876 -0.1230492815375328 -0.4738941490650177 0.0 0.0 0.0 0.0
0.834 -0.24267376959323883 -0.7203651070594788 -0.13965356349945068 -0.4740869402885437 0.0 0.0 0.0 0.0
0.835 -0.2603996694087982 -0.7151934504508972 -0.15412983298301697 -0.4723004400730133 0.0 0.0 0.0 0.0
0.836 -0.28618207573890686 -0.7047678828239441 -0.17379412055015564 -0.4650445282459259 0.0 0.0 0.0 0.0
0.837 -0.3039667010307312 -0.6985415816307068 -0.18355782330036163 -0.46350038051605225 0.0 0.0 0.0 0.0
0.838 -0.3308875858783722 -0.6880388855934143 -0.2042713165283203 -0.4567264914512634 0.0 0.0 0.0 0.0
0.839 -0.34828677773475647 -0.6796879768371582 -0.21367423236370087 -0.45367226004600525 0.0 0.0 0.0 0.0
0.84 -0.371784508228302 -0.6705721616744995 -0.23229028284549713 -0.44957882165908813 0.0 0.0 0.0 0.0
0.841 -0.3929082155227661 -0.6545408368110657 -0.24732980132102966 -0.4430513381958008 0.0 0.0 0.0 0.0
0.842 -0.41782888770103455 -0.6408637166023254 -0.26886504888534546 -0.4367251694202423 0.0 0.0 0.0 0.0
0.843 -0.4323109984397888 -0.6261422634124756 -0.2788552939891815 -0.4295279383659363 0.0 0.0 0.0 0.0
0.844 -0.45531654357910156 -0.6140370965003967 -0.2993125319480896 -0.42174839973449707 0.0 0.0 0.0 0.0
0.845 -0.4741801619529724 -0.597332775592804 -0.3113953471183777 -0.4126858115196228 0.0 0.0 0.0 0.0
0.846 -0.4884827136993408 -0.5868788361549377 -0.32513928413391113 -0.4058046340942383 0.0 0.0 0.0 0.0
0.847 -0.5061301589012146 -0.5653001070022583 -0.3397979736328125 -0.3932284414768219 0.0 0.0 0.0 0.0
0.848 -0.5242331624031067 -0.546444296836853 -0.35795000195503235 -0.3838401734828949 0.0 0.0 0.0 0.0
0.849 -0.540876030921936 -0.5256210565567017 -0.37216049432754517 -0.37079042196273804 0.0 0.0 0.0 0.0
0.85 -0.5534915328025818 -0.5107143521308899 -0.3838003873825073 -0.36056551337242126 0.0 0.0 0.0 0.0
0.851 -0.572107195854187 -0.48997926712036133 -0.400652676820755 -0.345500111579895 0.0 0.0 0.0 0.0
0.852 -0.582110583782196 -0.46938517689704895 -0.4104551672935486 -0.3334987163543701 0.0 0.0 0.0 0.0
0.853 -0.5952574014663696 -0.4483543634414673 -0.42269816994667053 -0.31854140758514404 0.0 0.0 0.0 0.0
0.854 -0.60529625415802 -0.43025749921798706 -0.432464063167572 -0.3067018687725067 0.0 0.0 0.0 0.0
0.855 -0.6225005388259888 -0.41000720858573914 -0.4475001096725464 -0.29076024889945984 0.0 0.0 0.0 0.0
0.856 -0.6295084953308105 -0.38607344031333923 -0.45481055974960327 -0.27772077918052673 0.0 0.0 0.0 0.0
0.857 -0.6432639360427856 -0.36182650923728943 -0.47017109394073486 -0.26079776883125305 0.0 0.0 0.0 0.0
0.858 -0.6498658061027527 -0.3391796052455902 -0.4768954813480377 -0.24528343975543976 0.0 0.0 0.0 0.0
0.859 -0.6538735628128052 -0.32330819964408875 -0.4871375858783722 -0.23305046558380127 0.0 0.0 0.0 0.0
0.86 -0.6615280508995056 -0.29140251874923706 -0.49538546800613403 -0.21025428175926208 0.0 0.0 0.0 0.0
0.861 -0.66719651222229 -0.27057185769081116 -0.5046038031578064 -0.19334544241428375 0.0 0.0 0.0 0.0
0.862 -0.6743766665458679 -0.24651041626930237 -0.5106929540634155 -0.17618516087532043 0.0 0.0 0.0 0.0
0.863 -0.6754184365272522 -0.2246488332748413 -0.5162313580513 -0.16176067292690277 0.0 0.0 0.0 0.0
0.864 -0.6781710982322693 -0.19440537691116333 -0.5235089659690857 -0.13810640573501587 0.0 0.0 0.0 0.0
0.865 -0.6802813410758972 -0.17646348476409912 -0.5281738638877869 -0.12553203105926514 0.0 0.0 0.0 0.0
0.866 -0.6810628175735474 -0.14861731231212616 -0.5332406759262085 -0.10150057822465897 0.0 0.0 0.0 0.0
0.867 -0.6794880628585815 -0.12694665789604187 -0.5346589684486389 -0.08670558035373688 0.0 0.0 0.0 0.0
0.868 -0.6797454953193665 -0.103425994515419 -0.5398685336112976 -0.06401161849498749 0.0 0.0 0.0 0.0
0.869 -0.6779122948646545 -0.07887260615825653 -0.5401362180709839 -0.04672268033027649 0.0 0.0 0.0 0.0
0.87 -0.6755902171134949 -0.058437470346689224 -0.5440236330032349 -0.028124868869781494 0.0 0.0 0.0 0.0
0.871 -0.6717889904975891 -0.03172706440091133 -0.5431289672851562 -0.009176421910524368 0.0 0.0 0.0 0.0
0.872 -0.6654415130615234 -0.011559100821614265 -0.542138397693634 0.011076691560447216 0.0 0.0 0.0 0.0
0.873 -0.6622871160507202 0.013963436707854271 -0.5413816571235657 0.029832158237695694 0.0 0.0 0.0 0.0
0.874 -0.654769778251648 0.03367026895284653 -0.5395238995552063 0.04645024985074997 0.0 0.0 0.0 0.0
0.875 -0.6472362279891968 0.05658315122127533 -0.5369147062301636 0.06664559990167618 0.0 0.0 0.0 0.0
0.876 -0.6402735710144043 0.07938320189714432 -0.535072922706604 0.08362259715795517 0.0 0.0 0.0 0.0
0.877 -0.633468508720398 0.09876195341348648 -0.5307477712631226 0.10404827445745468 0.0 0.0 0.0 0.0
0.878 -0.6229871511459351 0.11883684992790222 -0.5249072909355164 0.1187303364276886 0.0 0.0 0.0 0.0
0.879 -0.6156045794487 0.1387462466955185 -0.5214321613311768 0.1394854635000229 0.0 0.0 0.0 0.0
0.88 -0.6026600003242493 0.1599191278219223 -0.5151590704917908 0.15145665407180786 0.0 0.0 0.0 0.0
0.881 -0.5930123925209045 0.18110089004039764 -0.5104848146438599 0.17293155193328857 0.0 0.0 0.0 0.0
0.882 -0.5810304284095764 0.19895973801612854 -0.502428412437439 0.18838641047477722 0.0 0.0 0.0 0.0
0.883 -0.5707540512084961 0.2160048931837082 -0.4963213801383972 0.20427368581295013 0.0 0.0 0.0 0.0
0.884 -0.5557534098625183 0.23663431406021118 -0.4866793155670166 0.2187577188014984 0.0 0.0 0.0 0.0
0.885 -0.5441989302635193 0.25228044390678406 -0.4819963276386261 0.23278316855430603 0.0 0.0 0.0 0.0
0.886 -0.5305156707763672 0.272856205701828 -0.4726048707962036 0.24813486635684967 0.0 0.0 0.0 0.0
0.887 -0.5170914530754089 0.28783974051475525 -0.46685081720352173 0.2607940435409546 0.0 0.0 0.0 0.0
0.888 -0.49777424335479736 0.3104749321937561 -0.4536816477775574 0.27928709983825684 0.0 0.0 0.0 0.0
0.889 -0.4844592213630676 0.31884345412254333 -0.4464276432991028 0.287834107875824 0.0 0.0 0.0 0.0
0.89 -0.46722832322120667 0.33906760811805725 -0.4360569417476654 0.30548253655433655 0.0 0.0 0.0 0.0
0.891 -0.45288509130477905 0.3494117259979248 -0.43094757199287415 0.31343138217926025 0.0 0.0 0.0 0.0
0.892 -0.43261951208114624 0.36734285950660706 -0.41887369751930237 0.3318961560726166 0.0 0.0 0.0 0.0
0.893 -0.4154703915119171 0.3811338543891907 -0.40955424308776855 0.3416428565979004 0.0 0.0 0.0 0.0
0.894 -0.3971862494945526 0.39486321806907654 -0.3996478319168091 0.35825616121292114 0.0 0.0 0.0 0.0
0.895 -0.37453320622444153 0.4081473648548126 -0.3899255692958832 0.3680741786956787 0.0 0.0 0.0 0.0
0.896 -0.3521948754787445 0.41825318336486816 -0.3783978819847107 0.3844703435897827 0.0 0.0 0.0 0.0
0.897 -0.3304453492164612 0.42958584427833557 -0.3648388385772705 0.39624494314193726 0.0 0.0 0.0 0.0
0.898 -0.3104749023914337 0.4365992248058319 -0.3536131978034973 0.40986326336860657 0.0 0.0 0.0 0.0
0.899 -0.2904394567012787 0.44519856572151184 -0.3411034345626831 0.420038104057312 0.0 0.0 0.0 0.0
0.9 -0.26617130637168884 0.4512118399143219 -0.32656046748161316 0.43192046880722046 0.0 0.0 0.0 0.0
0.901 -0.24565283954143524 0.4590330719947815 -0.3117179870605469 0.44424518942832947 0.0 0.0 0.0 0.0
0.902 -0.22634747624397278 0.4619613289833069 -0.299823522567749 0.45206138491630554 0.0 0.0 0.0 0.0
0.903 -0.20456118881702423 0.46945786476135254 -0.2857692539691925 0.4624043405056 0.0 0.0 0.0 0.0
0.904 -0.18436583876609802 0.4713435173034668 -0.27225735783576965 0.4716477394104004 0.0 0.0 0.0 0.0
0.905 -0.16490855813026428 0.47568005323410034 -0.25889575481414795 0.4808095097541809 0.0 0.0 0.0 0.0
0.906 -0.13931970298290253 0.47740471363067627 -0.24256464838981628 0.48902398347854614 0.0 0.0 0.0 0.0
0.907 -0.11890990287065506 0.47941628098487854 -0.22899854183197021 0.49893447756767273 0.0 0.0 0.0 0.0
0.908 -0.09640196710824966 0.48035165667533875 -0.2096700668334961 0.507276713848114 0.0 0.0 0.0 0.0
0.909 -0.07603428512811661 0.47965049743652344 -0.1972789764404297 0.5155324339866638 0.0 0.0 0.0 0.0
0.91 -0.051608793437480927 0.4775844216346741 -0.17567379772663116 0.5225839018821716 0.0 0.0 0.0 0.0
0.911 -0.03387722745537758 0.4750693738460541 -0.16384601593017578 0.5274444222450256 0.0 0.0 0.0 0.0
0.912 -0.01246481854468584 0.4731869101524353 -0.1406133472919464 0.5356635451316833 0.0 0.0 0.0 0.0
0.913 0.006910011172294617 0.4694238007068634 -0.12878823280334473 0.538081705570221 0.0 0.0 0.0 0.0
0.914 0.028278792276978493 0.4665292501449585 -0.10893791168928146 0.5458415150642395 0.0 0.0 0.0 0.0
0.915 0.04700338467955589 0.46270763874053955 -0.09549601376056671 0.5476826429367065 0.0 0.0 0.0 0.0
0.916 0.06852341443300247 0.4583643972873688 -0.07510878890752792 0.5536037683486938 0.0 0.0 0.0 0.0
0.917 0.08821950852870941 0.452446311712265 -0.060114793479442596 0.5548677444458008 0.0 0.0 0.0 0.0
0.918 0.10831297934055328 0.4462401866912842 -0.04193892329931259 0.5609773397445679 0.0 0.0 0.0 0.0
0.919 0.12842026352882385 0.43898382782936096 -0.02277880348265171 0.5626097321510315 0.0 0.0 0.0 0.0
0.92 0.14667734503746033 0.4297325909137726 -0.006838114932179451 0.5659102201461792 0.0 0.0 0.0 0.0
0.921 0.16764336824417114 0.4213249981403351 0.014615196734666824 0.5692062973976135 0.0 0.0 0.0 0.0
0.922 0.18353495001792908 0.4111673831939697 0.028155634179711342 0.5704501867294312 0.0 0.0 0.0 0.0
0.923 0.20378273725509644 0.3987630605697632 0.05290163308382034 0.5718124508857727 0.0 0.0 0.0 0.0
0.924 0.21750909090042114 0.38838890194892883 0.06627904623746872 0.5700050592422485 0.0 0.0 0.0 0.0
0.925 0.23367594182491302 0.3785865902900696 0.0871734470129013 0.5710392594337463 0.0 0.0 0.0 0.0
0.926 0.25064799189567566 0.3647203743457794 0.10634884983301163 0.5697206258773804 0.0 0.0 0.0 0.0
0.927 0.2664908468723297 0.3525507152080536 0.13008685410022736 0.5705705881118774 0.0 0.0 0.0 0.0
0.928 0.2799207270145416 0.3369888961315155 0.14818070828914642 0.565754234790802 0.0 0.0 0.0 0.0
0.929 0.29311102628707886 0.32388463616371155 0.1697610467672348 0.5631445646286011 0.0 0.0 0.0 0.0
0.93 0.30548757314682007 0.3094193637371063 0.19205565750598907 0.5588597655296326 0.0 0.0 0.0 0.0
0.931 0.31520986557006836 0.2968440651893616 0.2095193862915039 0.5541646480560303 0.0 0.0 0.0 0.0
0.932 0.3280872404575348 0.2800595164299011 0.23525945842266083 0.5449777245521545 0.0 0.0 0.0 0.0
0.933 0.33666425943374634 0.2688082754611969 0.24730607867240906 0.5412487387657166 0.0 0.0 0.0 0.0
0.934 0.3472631573677063 0.25488796830177307 0.2711799442768097 0.5311134457588196 0.0 0.0 0.0 0.0
0.935 0.3571370840072632 0.2410023957490921 0.285910964012146 0.5262168049812317 0.0 0.0 0.0 0.0
0.936 0.36684995889663696 0.22488535940647125 0.31038251519203186 0.5144326686859131 0.0 0.0 0.0 0.0
0.937 0.3743163049221039 0.21080948412418365 0.3237930238246918 0.5070340633392334 0.0 0.0 0.0 0.0
0.938 0.3845844566822052 0.19427134096622467 0.3498411178588867 0.49496161937713623 0.0 0.0 0.0 0.0
0.939 0.39034295082092285 0.17706157267093658 0.3645628094673157 0.4849875271320343 0.0 0.0 0.0 0.0
0.94 0.3965965509414673 0.1632658839225769 0.3845784366130829 0.47257205843925476 0.0 0.0 0.0 0.0
0.941 0.40273433923721313 0.14767731726169586 0.40148913860321045 0.4604632556438446 0.0 0.0 0.0 0.0
0.942 0.4069271981716156 0.13301187753677368 0.41935616731643677 0.4468638002872467 0.0 0.0 0.0 0.0
0.943 0.4132584035396576 0.11715590208768845 0.4369347393512726 0.43233779072761536 0.0 0.0 0.0 0.0
0.944 0.4168068766593933 0.10439865291118622 0.45176997780799866 0.41966867446899414 0.0 0.0 0.0 0.0
0.945 0.42090651392936707 0.0863189622759819 0.47087880969047546 0.3990975618362427 0.0 0.0 0.0 0.0
0.946 0.42437729239463806 0.07344577461481094 0.485150545835495 0.387658953666687 0.0 0.0 0.0 0.0
0.947 0.42644160985946655 0.058809440582990646 0.49998244643211365 0.36854758858680725 0.0 0.0 0.0 0.0
0.948 0.4284551441669464 0.044508278369903564 0.513762354850769 0.3534032702445984 0.0 0.0 0.0 0.0
0.949 0.4306620955467224 0.029235990718007088 0.5300222039222717 0.3299106955528259 0.0 0.0 0.0 0.0
0.95 0.4306286573410034 0.015582761727273464 0.5390945672988892 0.31416651606559753 0.0 0.0 0.0 0.0
0.951 0.4302419126033783 -0.00011332612484693527 0.5574313402175903 0.28946322202682495 0.0 0.0 0.0 0.0
0.952 0.43043357133865356 -0.01273819524794817 0.5642097592353821 0.2710597813129425 0.0 0.0 0.0 0.0
0.953 0.4297245144844055 -0.023727841675281525 0.5753064751625061 0.24999065697193146 0.0 0.0 0.0 0.0
0.954 0.42947494983673096 -0.037983328104019165 0.5840824842453003 0.22308573126792908 0.0 0.0 0.0 0.0
0.955 0.4314951002597809 -0.04622643440961838 0.5900092720985413 0.20943765342235565 0.0 0.0 0.0 0.0
0.956 0.43292585015296936 -0.062429215759038925 0.5983080863952637 0.18096286058425903 0.0 0.0 0.0 0.0
0.957 0.4325556457042694 -0.07367733865976334 0.6039309501647949 0.16530756652355194 0.0 0.0 0.0 0.0
0.958 0.4333289861679077 -0.08732005208730698 0.6110538840293884 0.14090202748775482 0.0 0.0 0.0 0.0
0.959 0.43064752221107483 -0.09818385541439056 0.6136802434921265 0.12328928709030151 0.0 0.0 0.0 0.0
0.96 0.431497722864151 -0.11302146315574646 0.6226270198822021 0.09639374166727066 0.0 0.0 0.0 0.0
0.961 0.42868176102638245 -0.12507449090480804 0.6238793730735779 0.07857313752174377 0.0 0.0 0.0 0.0
0.962 0.4256272315979004 -0.13789454102516174 0.6279007792472839 0.04886343702673912 0.0 0.0 0.0 0.0
0.963 0.42570608854293823 -0.1494634747505188 0.6276292204856873 0.029362032189965248 0.0 0.0 0.0 0.0
0.964 0.4230741858482361 -0.16157570481300354 0.6291841268539429 0.006057305261492729 0.0 0.0 0.0 0.0
0.965 0.41850778460502625 -0.17453451454639435 0.6267640590667725 -0.021198472008109093 0.0 0.0 0.0 0.0
0.966 0.4177131950855255 -0.18433307111263275 0.627759575843811 -0.03892219811677933 0.0 0.0 0.0 0.0
0.967 0.4138306975364685 -0.19797958433628082 0.6255932450294495 -0.06667228043079376 0.0 0.0 0.0 0.0
0.968 0.41246548295021057 -0.20693840086460114 0.623100221157074 -0.08343286067247391 0.0 0.0 0.0 0.0
0.969 0.4079553186893463 -0.22249533236026764 0.6200825572013855 -0.11457351595163345 0.0 0.0 0.0 0.0
0.97 0.40346676111221313 -0.22979764640331268 0.6127799153327942 -0.13115374743938446 0.0 0.0 0.0 0.0
0.971 0.40301772952079773 -0.24285084009170532 0.6091265678405762 -0.15628139674663544 0.0 0.0 0.0 0.0
0.972 0.39757248759269714 -0.25394105911254883 0.6015247702598572 -0.17790599167346954 0.0 0.0 0.0 0.0
0.973 0.3957238495349884 -0.26224392652511597 0.5928273797035217 -0.19688774645328522 0.0 0.0 0.0 0.0
0.974 0.3904198408126831 -0.2744726538658142 0.5816742777824402 -0.22041141986846924 0.0 0.0 0.0 0.0
0.975 0.3887712061405182 -0.2872341275215149 0.5748971700668335 -0.24000172317028046 0.0 0.0 0.0 0.0
0.976 0.38448387384414673 -0.2991408407688141 0.5656481385231018 -0.2572694420814514 0.0 0.0 0.0 0.0
0.977 0.38097482919692993 -0.3093596398830414 0.5569039583206177 -0.27782538533210754 0.0 0.0 0.0 0.0
0.978 0.37277597188949585 -0.3228779137134552 0.5431117415428162 -0.29929932951927185 0.0 0.0 0.0 0.0
0.979 0.36953118443489075 -0.3315904438495636 0.5349478125572205 -0.3141767382621765 0.0 0.0 0.0 0.0
0.98 0.361198365688324 -0.3470281958580017 0.5191710591316223 -0.3403734564781189 0.0 0.0 0.0 0.0
0.981 0.3573096990585327 -0.35360977053642273 0.5076912641525269 -0.3514249920845032 0.0 0.0 0.0 0.0
0.982 0.3525208830833435 -0.367241233587265 0.4930407702922821 -0.37219902873039246 0.0 0.0 0.0 0.0
0.983 0.344973087310791 -0.3763654828071594 0.4807693064212799 -0.3858517110347748 0.0 0.0 0.0 0.0
0.984 0.33844202756881714 -0.3892417252063751 0.46377700567245483 -0.40539202094078064 0.0 0.0 0.0 0.0
0.985 0.3297458589076996 -0.39967283606529236 0.44961264729499817 -0.4174177646636963 0.0 0.0 0.0 0.0
0.986 0.3205468952655792 -0.41412216424942017 0.4328460991382599 -0.44063955545425415 0.0 0.0 0.0 0.0
0.987 0.31491217017173767 -0.42327597737312317 0.4198473393917084 -0.44955816864967346 0.0 0.0 0.0 0.0
0.988 0.30552947521209717 -0.43227508664131165 0.3998258411884308 -0.4651834964752197 0.0 0.0 0.0 0.0
0.989 0.2958626449108124 -0.44268664717674255 0.3817569315433502 -0.47690051794052124 0.0 0.0 0.0 0.0
0.99 0.28734448552131653 -0.4523320198059082 0.36455774307250977 -0.49250704050064087 0.0 0.0 0.0 0.0
0.991 0.2769981622695923 -0.46451905369758606 0.3449896275997162 -0.5057039260864258 0.0 0.0 0.0 0.0
0.992 0.26948651671409607 -0.47151052951812744 0.32916706800460815 -0.513326108455658 0.0 0.0 0.0 0.0
0.993 0.258576899766922 -0.48237136006355286 0.3064906895160675 -0.5258349776268005 0.0 0.0 0.0 0.0
0.994 0.251070499420166 -0.4902897775173187 0.29218804836273193 -0.5328810214996338 0.0 0.0 0.0 0.0
0.995 0.2369977831840515 -0.502180814743042 0.2664588987827301 -0.5450699925422668 0.0 0.0 0.0 0.0
0.996 0.22903911769390106 -0.5074522495269775 0.25166434049606323 -0.547881543636322 0.0 0.0 0.0 0.0
0.997 0.21566148102283478 -0.5210408568382263 0.22897969186306 -0.5596221685409546 0.0 0.0 0.0 0.0
0.998 0.20302584767341614 -0.5260066390037537 0.20777124166488647 -0.5619257688522339 0.0 0.0 0.0 0.0
0.999 0.19089411199092865 -0.5341699123382568 0.188517227768898 -0.5724412798881531 0.0 0.0 0.0 0.0
1.0 0.17691005766391754 -0.543051540851593 0.16738039255142212 -0.5756861567497253 0.0 0.0 0.0 0.0
1.001 0.16543133556842804 -0.5501739382743835 0.13644391298294067 -0.5857668519020081 0.0 0.0 0.0 0.0
1.002 0.1540384590625763 -0.5577463507652283 0.11782506853342056 -0.5886120200157166 0.0 0.0 0.0 0.0
1.003 0.13326288759708405 -0.5636215806007385 0.08878273516893387 -0.5912336707115173 0.0 0.0 0.0 0.0
1.004 0.12359084188938141 -0.5671603679656982 0.07364534586668015 -0.5907590985298157 0.0 0.0 0.0 0.0
1.005 0.1067129448056221 -0.575400710105896 0.048263609409332275 -0.594851016998291 0.0 0.0 0.0 0.0
1.006 0.0960615798830986 -0.5781942009925842 0.029923245310783386 -0.5900502800941467 0.0 0.0 0.0 0.0
1.007 0.0818491280078888 -0.5852115750312805 0.009952372871339321 -0.5902124047279358 0.0 0.0 0.0 0.0
1.008 0.061683639883995056 -0.5914427638053894 -0.011368860490620136 -0.5885828733444214 0.0 0.0 0.0 0.0
1.009 0.05257902666926384 -0.5938658714294434 -0.029074477031826973 -0.5882143974304199 0.0 0.0 0.0 0.0
1.01 0.03169182315468788 -0.5966153144836426 -0.05485057085752487 -0.5837236046791077 0.0 0.0 0.0 0.0
1.011 0.020536530762910843 -0.5995804071426392 -0.06859701871871948 -0.5815880298614502 0.0 0.0 0.0 0.0
1.012 -0.00028464943170547485 -0.6017632484436035 -0.09273121505975723 -0.5782510638237 0.0 0.0 0.0 0.0
1.013 -0.01548786647617817 -0.601399838924408 -0.1092989444732666 -0.5713052749633789 0.0 0.0 0.0 0.0
1.014 -0.026952287182211876 -0.6050535440444946 -0.12566137313842773 -0.5694714784622192 0.0 0.0 0.0 0.0
1.015 -0.04424717649817467 -0.6024739742279053 -0.14481300115585327 -0.5609588027000427 0.0 0.0 0.0 0.0
1.016 -0.05944239720702171 -0.6001959443092346 -0.16887935996055603 -0.5555983185768127 0.0 0.0 0.0 0.0
1.017 -0.07700567692518234 -0.6015735864639282 -0.18360914289951324 -0.5457742214202881 0.0 0.0 0.0 0.0
1.018 -0.0900515541434288 -0.5989574193954468 -0.2014026939868927 -0.5408515930175781 0.0 0.0 0.0 0.0
1.019 -0.1057448461651802 -0.5940526723861694 -0.22169728577136993 -0.5255386829376221 0.0 0.0 0.0 0.0
1.02 -0.1216232180595398 -0.5913852453231812 -0.23816929757595062 -0.5159916877746582 0.0 0.0 0.0 0.0
1.021 -0.1370394378900528 -0.5928694009780884 -0.2571115791797638 -0.507849931716919 0.0 0.0 0.0 0.0
1.022 -0.14938217401504517 -0.5896597504615784 -0.2683526873588562 -0.4978889226913452 0.0 0.0 0.0 0.0
1.023 -0.16872230172157288 -0.583243191242218 -0.2874223589897156 -0.4825257360935211 0.0 0.0 0.0 0.0
1.024 -0.18054625391960144 -0.5823599100112915 -0.29756173491477966 -0.473890483379364 0.0 0.0 0.0 0.0
1.025 -0.2009756863117218 -0.5749050974845886 -0.3178033232688904 -0.45972731709480286 0.0 0.0 0.0 0.0
1.026 -0.2096383273601532 -0.5706038475036621 -0.32450559735298157 -0.4495600759983063 0.0 0.0 0.0 0.0
1.027 -0.22686558961868286 -0.5654343962669373 -0.3419401943683624 -0.43365928530693054 0.0 0.0 0.0 0.0
1.028 -0.24273300170898438 -0.5568119287490845 -0.35233965516090393 -0.42199763655662537 0.0 0.0 0.0 0.0
1.029 -0.2579434812068939 -0.5544301867485046 -0.363743394613266 -0.4131665527820587 0.0 0.0 0.0 0.0
1.03 -0.2739024758338928 -0.5444282293319702 -0.3746965825557709 -0.39802029728889465 0.0 0.0 0.0 0.0
1.031 -0.2840578258037567 -0.5382668375968933 -0.3853813409805298 -0.384827196598053 0.0 0.0 0.0 0.0
1.032 -0.30352044105529785 -0.5292828679084778 -0.3973267674446106 -0.37207695841789246 0.0 0.0 0.0 0.0
1.033 -0.3140833377838135 -0.5206195116043091 -0.40670982003211975 -0.36122649908065796 0.0 0.0 0.0 0.0
1.034 -0.3284936845302582 -0.5100187659263611 -0.4182746410369873 -0.34430745244026184 0.0 0.0 0.0 0.0
1.035 -0.34207549691200256 -0.4980691075325012 -0.4280272126197815 -0.3308775722980499 0.0 0.0 0.0 0.0
1.036 -0.3570893406867981 -0.4885927736759186 -0.4377549886703491 -0.3149692714214325 0.0 0.0 0.0 0.0
1.037 -0.36836960911750793 -0.4773847460746765 -0.444803923368454 -0.30188629031181335 0.0 0.0 0.0 0.0
1.038 -0.37733954191207886 -0.46596986055374146 -0.45431074500083923 -0.28422975540161133 0.0 0.0 0.0 0.0
1.039 -0.3883496820926666 -0.4511891305446625 -0.45780301094055176 -0.2707139551639557 0.0 0.0 0.0 0.0
1.04 -0.40329861640930176 -0.4383702278137207 -0.46951913833618164 -0.25494658946990967 0.0 0.0 0.0 0.0
1.041 -0.4134100675582886 -0.42628127336502075 -0.4710823893547058 -0.24044200778007507 0.0 0.0 0.0 0.0
1.042 -0.42482128739356995 -0.4157763719558716 -0.4790138602256775 -0.2288125604391098 0.0 0.0 0.0 0.0
1.043 -0.43547362089157104 -0.3993336856365204 -0.48320305347442627 -0.2122693955898285 0.0 0.0 0.0 0.0
1.044 -0.4431825578212738 -0.3879828155040741 -0.4893622398376465 -0.2008029818534851 0.0 0.0 0.0 0.0
1.045 -0.4532730281352997 -0.3674789071083069 -0.4947284460067749 -0.1803799867630005 0.0 0.0 0.0 0.0
1.046 -0.4601043164730072 -0.3551807999610901 -0.49968016147613525 -0.170771062374115 0.0 0.0 0.0 0.0
1.047 -0.47218215465545654 -0.33460327982902527 -0.5066146850585938 -0.1495681256055832 0.0 0.0 0.0 0.0
1.048 -0.47480320930480957 -0.3230244815349579 -0.5098534226417542 -0.13926945626735687 0.0 0.0 0.0 0.0
1.049 -0.4785250127315521 -0.30649033188819885 -0.5140479207038879 -0.11730136722326279 0.0 0.0 0.0 0.0
1.05 -0.4825320541858673 -0.28896060585975647 -0.5152803659439087 -0.10553685575723648 0.0 0.0 0.0 0.0
1.051 -0.4896629750728607 -0.27089598774909973 -0.5213078260421753 -0.08407657593488693 0.0 0.0 0.0 0.0
1.052 -0.49103859066963196 -0.25529852509498596 -0.5195846557617188 -0.07124368846416473 0.0 0.0 0.0 0.0
1.053 -0.49726545810699463 -0.2420557588338852 -0.5239104628562927 -0.052272919565439224 0.0 0.0 0.0 0.0
1.054 -0.4983445405960083 -0.21930162608623505 -0.5238730311393738 -0.03375423327088356 0.0 0.0 0.0 0.0
1.055 -0.5000039339065552 -0.20780174434185028 -0.5260972380638123 -0.0214537363499403 0.0 0.0 0.0 0.0
1.056 -0.5013560652732849 -0.187479630112648 -0.5241782665252686 -0.0012536458671092987 0.0 0.0 0.0 0.0
1.057 -0.5009243488311768 -0.17497999966144562 -0.5235810279846191 0.012179311364889145 0.0 0.0 0.0 0.0
1.058 -0.5032848715782166 -0.1552654206752777 -0.5247093439102173 0.03399873524904251 0.0 0.0 0.0 0.0
1.059 -0.5001587271690369 -0.14547671377658844 -0.5209531188011169 0.04296701028943062 0.0 0.0 0.0 0.0
1.06 -0.5020641088485718 -0.12484879046678543 -0.5202799439430237 0.06600385159254074 0.0 0.0 0.0 0.0
1.061 -0.4982428252696991 -0.11054335534572601 -0.5154025554656982 0.07626966387033463 0.0 0.0 0.0 0.0
1.062 -0.49742650985717773 -0.09810301661491394 -0.512834370136261 0.09671352803707123 0.0 0.0 0.0 0.0
1.063 -0.4931171238422394 -0.07961801439523697 -0.5083010196685791 0.11353269964456558 0.0 0.0 0.0 0.0
1.064 -0.4906836152076721 -0.06523419171571732 -0.5062732100486755 0.12899810075759888 0.0 0.0 0.0 0.0
1.065 -0.49077901244163513 -0.052630145102739334 -0.4989425539970398 0.1432272046804428 0.0 0.0 0.0 0.0
1.066 -0.48501312732696533 -0.03795228153467178 -0.49579355120658875 0.1593896448612213 0.0 0.0 0.0 0.0
1.067 -0.4797251522541046 -0.02193760871887207 -0.4868033230304718 0.17666494846343994 0.0 0.0 0.0 0.0
1.068 -0.47611358761787415 -0.012955259531736374 -0.4836249351501465 0.18543797731399536 0.0 0.0 0.0 0.0
1.069 -0.47302207350730896 0.002436641603708267 -0.4732179641723633 0.20487770438194275 0.0 0.0 0.0 0.0
1.07 -0.46873438358306885 0.014013169333338737 -0.46819832921028137 0.21643304824829102 0.0 0.0 0.0 0.0
1.071 -0.4626259505748749 0.025659479200839996 -0.4588795304298401 0.2314303070306778 0.0 0.0 0.0 0.0
1.072 -0.45733872056007385 0.03812800347805023 -0.45080286264419556 0.2464544177055359 0.0 0.0 0.0 0.0
1.073 -0.45297789573669434 0.05084827542304993 -0.4427559971809387 0.25548505783081055 0.0 0.0 0.0 0.0
1.074 -0.4468284547328949 0.06599880009889603 -0.4355398714542389 0.2704199254512787 0.0 0.0 0.0 0.0
1.075 -0.4418816566467285 0.07894384115934372 -0.42586076259613037 0.2793245017528534 0.0 0.0 0.0 0.0
1.076 -0.43519291281700134 0.0904870331287384 -0.4191322326660156 0.2938237488269806 0.0 0.0 0.0 0.0
1.077 -0.42815831303596497 0.10641810297966003 -0.40750619769096375 0.3058294355869293 0.0 0.0 0.0 0.0
1.078 -0.4192967712879181 0.11722271144390106 -0.4015365540981293 0.31852981448173523 0.0 0.0 0.0 0.0
1.079 -0.4106239974498749 0.13029888272285461 -0.388510525226593 0.33137786388397217 0.0 0.0 0.0 0.0
1.08 -0.40355321764945984 0.14113810658454895 -0.3814171850681305 0.34005007147789 0.0 0.0 0.0 0.0
1.081 -0.3950170874595642 0.15441182255744934 -0.3684729039669037 0.35516995191574097 0.0 0.0 0.0 0.0
1.082 -0.38502204418182373 0.16359493136405945 -0.35896623134613037 0.36093807220458984 0.0 0.0 0.0 0.0
1.083 -0.3770909011363983 0.17701901495456696 -0.34675371646881104 0.3755962550640106 0.0 0.0 0.0 0.0
1.084 -0.3667297065258026 0.18690501153469086 -0.33856311440467834 0.38216739892959595 0.0 0.0 0.0 0.0
1.085 -0.3585384488105774 0.1981246918439865 -0.32529065012931824 0.39624983072280884 0.0 0.0 0.0 0.0
1.086 -0.34734249114990234 0.20752552151679993 -0.31722283363342285 0.4022734761238098 0.0 0.0 0.0 0.0
1.087 -0.3368053734302521 0.22140851616859436 -0.30143633484840393 0.4159998595714569 0.0 0.0 0.0 0.0
1.088 -0.3230387568473816 0.22999149560928345 -0.2925066351890564 0.42274972796440125 0.0 0.0 0.0 0.0
1.089 -0.312838077545166 0.23943579196929932 -0.2812918722629547 0.43452247977256775 0.0 0.0 0.0 0.0
1.09 -0.2987964451313019 0.24942943453788757 -0.26764926314353943 0.44220826029777527 0.0 0.0 0.0 0.0
1.091 -0.28887224197387695 0.25399869680404663 -0.2536572217941284 0.45080307126045227 0.0 0.0 0.0 0.0
1.092 -0.2752420902252197 0.2642275094985962 -0.2377195507287979 0.4607465863227844 0.0 0.0 0.0 0.0
1.093 -0.2674158811569214 0.2701410949230194 -0.22707945108413696 0.467010498046875 0.0 0.0 0.0 0.0
1.094 -0.25326117873191833 0.27897894382476807 -0.20984932780265808 0.4734683036804199 0.0 0.0 0.0 0.0
1.095 -0.24129998683929443 0.28590887784957886 -0.20198114216327667 0.4786679744720459 0.0 0.0 0.0 0.0
1.096 -0.225762277841568 0.29599952697753906 -0.18074475228786469 0.4904768466949463 0.0 0.0 0.0 0.0
1.097 -0.21478790044784546 0.2995651364326477 -0.1724870353937149 0.49130943417549133 0.0 0.0 0.0 0.0
1.098 -0.20149877667427063 0.3081354796886444 -0.15488223731517792 0.5008670687675476 0.0 0.0 0.0 0.0
1.099 -0.1873248964548111 0.31458863615989685 -0.1439817100763321 0.504955530166626 0.0 0.0 0.0 0.0
1.1 -0.17295806109905243 0.3206751346588135 -0.12931948900222778 0.5116029381752014 0.0 0.0 0.0 0.0
1.101 -0.1573754847049713 0.3269561231136322 -0.1121414303779602 0.5150935053825378 0.0 0.0 0.0 0.0
1.102 -0.144391730427742 0.32947206497192383 -0.1023063138127327 0.521500825881958 0.0 0.0 0.0 0.0
1.103 -0.12576976418495178 0.33559685945510864 -0.08114080131053925 0.5262613892555237 0.0 0.0 0.0 0.0
1.104 -0.11108428239822388 0.3380213677883148 -0.06984416395425797 0.531555712223053 0.0 0.0 0.0 0.0
1.105 -0.09539953619241714 0.3416106402873993 -0.05003966763615608 0.5369817614555359 0.0 0.0 0.0 0.0
1.106 -0.07965930551290512 0.342814177274704 -0.03776583820581436 0.539750874042511 0.0 0.0 0.0 0.0
1.107 -0.06233445927500725 0.34481173753738403 -0.01843073219060898 0.546857476234436 0.0 0.0 0.0 0.0
1.108 -0.04689092934131622 0.34511399269104004 -0.003907756879925728 0.5464779734611511 0.0 0.0 0.0 0.0
1.109 -0.03024083375930786 0.345399409532547 0.01694260910153389 0.5526108741760254 0.0 0.0 0.0 0.0
1.11 -0.01223081536591053 0.34310829639434814 0.03837689384818077 0.5525631308555603 0.0 0.0 0.0 0.0
1.111 -0.0004885178059339523 0.3409622013568878 0.05501367151737213 0.5563659071922302 0.0 0.0 0.0 0.0
1.112 0.016939586028456688 0.33907487988471985 0.07876871526241302 0.5549740195274353 0.0 0.0 0.0 0.0
1.113 0.030699703842401505 0.3358634412288666 0.09538883715867996 0.5564716458320618 0.0 0.0 0.0 0.0
1.114 0.04598284140229225 0.3335041403770447 0.11659695208072662 0.5529221892356873 0.0 0.0 0.0 0.0
1.115 0.0574486143887043 0.3300207555294037 0.12876887619495392 0.5533749461174011 0.0 0.0 0.0 0.0
1.116 0.0756295695900917 0.3264978229999542 0.15659864246845245 0.5493976473808289 0.0 0.0 0.0 0.0
1.117 0.08840224891901016 0.3222882151603699 0.17194974422454834 0.5471504926681519 0.0 0.0 0.0 0.0
1.118 0.10299281775951385 0.31706002354621887 0.19656766951084137 0.5411802530288696 0.0 0.0 0.0 0.0
1.119 0.11571693420410156 0.3113780617713928 0.21096770465373993 0.5377225279808044 0.0 0.0 0.0 0.0
1.12 0.13046987354755402 0.3053034543991089 0.23696312308311462 0.5295855402946472 0.0 0.0 0.0 0.0
1.121 0.14125804603099823 0.2999175786972046 0.2518860101699829 0.5239129066467285 0.0 0.0 0.0 0.0
1.122 0.15604770183563232 0.294941782951355 0.27740466594696045 0.5161715149879456 0.0 0.0 0.0 0.0
1.123 0.16611385345458984 0.28717470169067383 0.2899262011051178 0.5073909759521484 0.0 0.0 0.0 0.0
1.124 0.17890018224716187 0.2816240191459656 0.3118959367275238 0.49869054555892944 0.0 0.0 0.0 0.0
1.125 0.1903611272573471 0.2757769823074341 0.3280255198478699 0.48541268706321716 0.0 0.0 0.0 0.0
1.126 0.2028122842311859 0.2691614627838135 0.3448530435562134 0.47674432396888733 0.0 0.0 0.0 0.0
1.127 0.21472376585006714 0.26132264733314514 0.3606450855731964 0.4659225642681122 0.0 0.0 0.0 0.0
1.128 0.22846023738384247 0.25214287638664246 0.38029909133911133 0.4539710283279419 0.0 0.0 0.0 0.0
1.129 0.23966270685195923 0.24430899322032928 0.3982365131378174 0.44103142619132996 0.0 0.0 0.0 0.0
1.13 0.24910153448581696 0.23612068593502045 0.4124073088169098 0.4307003915309906 0.0 0.0 0.0 0.0
1.131 0.2619103193283081 0.2267492711544037 0.4336389899253845 0.41264405846595764 0.0 0.0 0.0 0.0
1.132 0.2698655128479004 0.2178484946489334 0.445151150226593 0.40021347999572754 0.0 0.0 0.0 0.0
1.133 0.2803814113140106 0.2073238641023636 0.461334228515625 0.38102278113365173 0.0 0.0 0.0 0.0
1.134 0.2904300391674042 0.19711266458034515 0.4756107032299042 0.3668690621852875 0.0 0.0 0.0 0.0
1.135 0.2992593050003052 0.18846586346626282 0.48950904607772827 0.3480913043022156 0.0 0.0 0.0 0.0
1.136 0.30980658531188965 0.17774446308612823 0.5017416477203369 0.3337204158306122 0.0 0.0 0.0 0.0
1.137 0.3187946081161499 0.16808663308620453 0.5126742124557495 0.3163343369960785 0.0 0.0 0.0 0.0
1.138 0.32795801758766174 0.15602973103523254 0.5237778425216675 0.2965484857559204 0.0 0.0 0.0 0.0
1.139 0.33730125427246094 0.14499832689762115 0.537437379360199 0.280735582113266 0.0 0.0 0.0 0.0
1.14 0.34503307938575745 0.13137586414813995 0.5483216643333435 0.259988009929657 0.0 0.0 0.0 0.0
1.141 0.3513029217720032 0.12167254090309143 0.5587722659111023 0.24153739213943481 0.0 0.0 0.0 0.0
1.142 0.35980701446533203 0.1076272651553154 0.5696399211883545 0.2149353176355362 0.0 0.0 0.0 0.0
1.143 0.3656783998012543 0.096317820250988 0.5757408738136292 0.20048964023590088 0.0 0.0 0.0 0.0
1.144 0.37286004424095154 0.08226561546325684 0.5854005217552185 0.17510206997394562 0.0 0.0 0.0 0.0
1.145 0.3766618072986603 0.07248832285404205 0.5881085395812988 0.1593414843082428 0.0 0.0 0.0 0.0
1.146 0.3838840425014496 0.05706218257546425 0.5977773666381836 0.13131099939346313 0.0 0.0 0.0 0.0
1.147 0.38788318634033203 0.04474295303225517 0.5989504456520081 0.10942471772432327 0.0 0.0 0.0 0.0
1.148 0.3950236141681671 0.033039432018995285 0.6031317114830017 0.09233132749795914 0.0 0.0 0.0 0.0
1.149 0.398508220911026 0.017668068408966064 0.6074491143226624 0.06815231591463089 0.0 0.0 0.0 0.0
1.15 0.4036165773868561 0.005894899368286133 0.607700526714325 0.05006008595228195 0.0 0.0 0.0 0.0
1.151 0.4083916246891022 -0.010300302878022194 0.6115445494651794 0.02367021143436432 0.0 0.0 0.0 0.0
1.152 0.41083240509033203 -0.02402656525373459 0.6105323433876038 0.008446455001831055 0.0 0.0 0.0 0.0
1.153 0.41437065601348877 -0.03830470144748688 0.6139950156211853 -0.01969083398580551 0.0 0.0 0.0 0.0
1.154 0.4143364429473877 -0.05035242438316345 0.6105135679244995 -0.03697292134165764 0.0 0.0 0.0 0.0
1.155 0.41677626967430115 -0.0672384649515152 0.6070191264152527 -0.0668700784444809 0.0 0.0 0.0 0.0
1.156 0.4184243679046631 -0.08067553490400314 0.6053525805473328 -0.08288716524839401 0.0 0.0 0.0 0.0
1.157 0.41903987526893616 -0.0979524552822113 0.6052598357200623 -0.10935195535421371 0.0 0.0 0.0 0.0
1.158 0.41899973154067993 -0.11074946075677872 0.5984134078025818 -0.1267787516117096 0.0 0.0 0.0 0.0
1.159 0.41832032799720764 -0.12627246975898743 0.5940113663673401 -0.15085957944393158 0.0 0.0 0.0 0.0
1.16 0.41731032729148865 -0.14236965775489807 0.588361918926239 -0.1694951057434082 0.0 0.0 0.0 0.0
1.161 0.41527241468429565 -0.1567687690258026 0.5835414528846741 -0.19538281857967377 0.0 0.0 0.0 0.0
1.162 0.41137370467185974 -0.1719597727060318 0.5734900832176208 -0.21587000787258148 0.0 0.0 0.0 0.0
1.163 0.4067654311656952 -0.18632212281227112 0.5653191804885864 -0.23852252960205078 0.0 0.0 0.0 0.0
1.164 0.40334945917129517 -0.19947902858257294 0.555281400680542 -0.2563377320766449 0.0 0.0 0.0 0.0
1.165 0.40054062008857727 -0.21263861656188965 0.5456680655479431 -0.2789689898490906 0.0 0.0 0.0 0.0
1.166 0.396004319190979 -0.22744326293468475 0.5339462161064148 -0.3002803325653076 0.0 0.0 0.0 0.0
1.167 0.3918563723564148 -0.23639880120754242 0.5241508483886719 -0.31195536255836487 0.0 0.0 0.0 0.0
1.168 0.38550230860710144 -0.25537723302841187 0.5079877972602844 -0.3395186960697174 0.0 0.0 0.0 0.0
1.169 0.3801499903202057 -0.2666042149066925 0.49623021483421326 -0.3521016836166382 0.0 0.0 0.0 0.0
1.17 0.3741794228553772 -0.28083091974258423 0.4820789098739624 -0.37209638953208923 0.0 0.0 0.0 0.0
1.171 0.3655671775341034 -0.2905223071575165 0.46611297130584717 -0.3867235779762268 0.0 0.0 0.0 0.0
1.172 0.35945793986320496 -0.3038041293621063 0.4522576928138733 -0.40502047538757324 0.0 0.0 0.0 0.0
1.173 0.3503161668777466 -0.31617245078086853 0.4351990520954132 -0.4185553193092346 0.0 0.0 0.0 0.0
1.174 0.3427753746509552 -0.3259609341621399 0.4201193153858185 -0.4320812523365021 0.0 0.0 0.0 0.0
1.175 0.3322887420654297 -0.3368641138076782 0.39824461936950684 -0.4470371603965759 0.0 0.0 0.0 0.0
1.176 0.32281196117401123 -0.3480074405670166 0.38242778182029724 -0.4607706069946289 0.0 0.0 0.0 0.0
1.177 0.31540971994400024 -0.3558517098426819 0.36303824186325073 -0.47455912828445435 0.0 0.0 0.0 0.0
1.178 0.30589136481285095 -0.36468973755836487 0.3444157540798187 -0.4845973253250122 0.0 0.0 0.0 0.0
1.179 0.2949831187725067 -0.37580057978630066 0.32123276591300964 -0.4996223449707031 0.0 0.0 0.0 0.0
1.18 0.2901717722415924 -0.3792252838611603 0.30825942754745483 -0.5022966861724854 0.0 0.0 0.0 0.0
1.181 0.27897703647613525 -0.3929766118526459 0.2820831537246704 -0.5179889798164368 0.0 0.0 0.0 0.0
1.182 0.2744825482368469 -0.3973517417907715 0.26971888542175293 -0.518965482711792 0.0 0.0 0.0 0.0
1.183 0.2607954144477844 -0.4091215431690216 0.24450743198394775 -0.5321651101112366 0.0 0.0 0.0 0.0
1.184 0.2519772946834564 -0.4134500026702881 0.22961288690567017 -0.5303027629852295 0.0 0.0 0.0 0.0
1.185 0.24209554493427277 -0.4242458641529083 0.20591121912002563 -0.542390763759613 0.0 0.0 0.0 0.0
1.186 0.23078486323356628 -0.4293680191040039 0.18894268572330475 -0.5426215529441833 0.0 0.0 0.0 0.0
1.187 0.22163477540016174 -0.43782082200050354 0.16865921020507812 -0.5487817525863647 0.0 0.0 0.0 0.0
1.188 0.20881308615207672 -0.4439694285392761 0.14761313796043396 -0.5492462515830994 0.0 0.0 0.0 0.0
1.189 0.2029891312122345 -0.4487069547176361 0.12913253903388977 -0.5511059165000916 0.0 0.0 0.0 0.0
1.19 0.18691588938236237 -0.4565959870815277 0.10450220853090286 -0.5544182062149048 0.0 0.0 0.0 0.0
1.191 0.18342462182044983 -0.4586065411567688 0.09612488001585007 -0.5531929731369019 0.0 0.0 0.0 0.0
1.192 0.16862677037715912 -0.4663589894771576 0.06998179852962494 -0.5527372360229492 0.0 0.0 0.0 0.0
1.193 0.15744781494140625 -0.47216540575027466 0.05460844933986664 -0.552111029624939 0.0 0.0 0.0 0.0
1.194 0.14230267703533173 -0.4777706563472748 0.03163084760308266 -0.5534079074859619 0.0 0.0 0.0 0.0
1.195 0.13337688148021698 -0.4800293445587158 0.018605753779411316 -0.5473659634590149 0.0 0.0 0.0 0.0
1.196 0.11930619925260544 -0.4876993000507355 -0.002025218680500984 -0.5498237609863281 0.0 0.0 0.0 0.0
1.197 0.10823904722929001 -0.4900130331516266 -0.018464040011167526 -0.5436665415763855 0.0 0.0 0.0 0.0
1.198 0.09766735881567001 -0.4954461455345154 -0.035517267882823944 -0.5440030097961426 0.0 0.0 0.0 0.0
1.199 0.08255930244922638 -0.49872925877571106 -0.052263543009757996 -0.5391213297843933 0.0 0.0 0.0 0.0
1.2 0.06782758235931396 -0.5012754201889038 -0.06944046914577484 -0.5373316407203674 0.0 0.0 0.0 0.0
1.201 0.05791974440217018 -0.50264573097229 -0.08726020157337189 -0.5286170244216919 0.0 0.0 0.0 0.0
1.202 0.04467657208442688 -0.504041850566864 -0.10259106755256653 -0.5244776606559753 0.0 0.0 0.0 0.0
1.203 0.02802371047437191 -0.5082794427871704 -0.12204442173242569 -0.5227189064025879 0.0 0.0 0.0 0.0
1.204 0.01906832866370678 -0.5063807964324951 -0.13223272562026978 -0.514988362789154 0.0 0.0 0.0 0.0
1.205 0.0063681453466415405 -0.508915364742279 -0.1516936868429184 -0.5100014805793762 0.0 0.0 0.0 0.0
1.206 -0.006882196292281151 -0.5058068037033081 -0.1628299206495285 -0.5023484826087952 0.0 0.0 0.0 0.0
1.207 -0.018643083050847054 -0.5087867975234985 -0.18099136650562286 -0.4973549544811249 0.0 0.0 0.0 0.0
1.208 -0.03179432451725006 -0.5036429762840271 -0.19173485040664673 -0.48842382431030273 0.0 0.0 0.0 0.0
1.209 -0.04662403091788292 -0.5028602480888367 -0.21231622993946075 -0.4806458055973053 0.0 0.0 0.0 0.0
1.21 -0.05884742736816406 -0.5031930804252625 -0.22038628160953522 -0.4729079008102417 0.0 0.0 0.0 0.0
1.211 -0.07014653831720352 -0.5021635890007019 -0.23575924336910248 -0.4642564058303833 0.0 0.0 0.0 0.0
1.212 -0.08377768099308014 -0.49687686562538147 -0.2477647215127945 -0.4542222321033478 0.0 0.0 0.0 0.0
1.213 -0.09722204506397247 -0.49773380160331726 -0.2607520818710327 -0.44910624623298645 0.0 0.0 0.0 0.0
1.214 -0.11177331209182739 -0.49367043375968933 -0.27387914061546326 -0.4387790262699127 0.0 0.0 0.0 0.0
1.215 -0.12180236726999283 -0.4881998896598816 -0.28812313079833984 -0.4288952648639679 0.0 0.0 0.0 0.0
1.216 -0.13928718864917755 -0.4844968318939209 -0.30160239338874817 -0.4206034243106842 0.0 0.0 0.0 0.0
1.217 -0.1473364233970642 -0.4789441227912903 -0.3118877708911896 -0.41136011481285095 0.0 0.0 0.0 0.0
1.218 -0.16311942040920258 -0.4728570580482483 -0.32462167739868164 -0.39916643500328064 0.0 0.0 0.0 0.0
1.219 -0.1737963706254959 -0.4668196737766266 -0.33292850852012634 -0.3919498026371002 0.0 0.0 0.0 0.0
1.22 -0.18979103863239288 -0.45955461263656616 -0.35097917914390564 -0.38165050745010376 0.0 0.0 0.0 0.0
1.221 -0.1995094120502472 -0.4513649046421051 -0.35813450813293457 -0.3719269335269928 0.0 0.0 0.0 0.0
1.222 -0.20878584682941437 -0.4440266788005829 -0.37180858850479126 -0.35978543758392334 0.0 0.0 0.0 0.0
1.223 -0.22154346108436584 -0.4360710680484772 -0.38214489817619324 -0.3501393795013428 0.0 0.0 0.0 0.0
1.224 -0.23215429484844208 -0.42558228969573975 -0.3946370482444763 -0.33631035685539246 0.0 0.0 0.0 0.0
1.225 -0.2416108101606369 -0.41735976934432983 -0.4013471007347107 -0.3271718919277191 0.0 0.0 0.0 0.0
1.226 -0.2502567172050476 -0.40901196002960205 -0.41598203778266907 -0.3110276162624359 0.0 0.0 0.0 0.0
1.227 -0.25964459776878357 -0.39735081791877747 -0.42455145716667175 -0.2973833680152893 0.0 0.0 0.0 0.0
1.228 -0.26626822352409363 -0.3897697925567627 -0.4357624650001526 -0.2857666611671448 0.0 0.0 0.0 0.0
1.229 -0.27406519651412964 -0.3786599338054657 -0.44401419162750244 -0.2712937295436859 0.0 0.0 0.0 0.0
1.23 -0.27736711502075195 -0.3716285228729248 -0.4538971781730652 -0.2567124366760254 0.0 0.0 0.0 0.0
1.231 -0.28856584429740906 -0.3604869246482849 -0.46052682399749756 -0.2412029355764389 0.0 0.0 0.0 0.0
1.232 -0.2928807735443115 -0.35003459453582764 -0.46705034375190735 -0.22775211930274963 0.0 0.0 0.0 0.0
1.233 -0.30198004841804504 -0.3389216363430023 -0.475885272026062 -0.2112891525030136 0.0 0.0 0.0 0.0
1.234 -0.3039962351322174 -0.32877859473228455 -0.48241645097732544 -0.19674627482891083 0.0 0.0 0.0 0.0
1.235 -0.3110792338848114 -0.31880757212638855 -0.4902516007423401 -0.17870543897151947 0.0 0.0 0.0 0.0
1.236 -0.31435245275497437 -0.3086432218551636 -0.4935467541217804 -0.16806426644325256 0.0 0.0 0.0 0.0
1.237 -0.3200525939464569 -0.2951676845550537 -0.5033888220787048 -0.14165623486042023 0.0 0.0 0.0 0.0
1.238 -0.32071584463119507 -0.28932034969329834 -0.5023775100708008 -0.13439762592315674 0.0 0.0 0.0 0.0
1.239 -0.3260890543460846 -0.2759237289428711 -0.5107879638671875 -0.11060621589422226 0.0 0.0 0.0 0.0
1.24 -0.32809117436408997 -0.2670133709907532 -0.51140296459198 -0.09499480575323105 0.0 0.0 0.0 0.0
1.241 -0.32995614409446716 -0.26085013151168823 -0.5138092041015625 -0.0782802551984787 0.0 0.0 0.0 0.0
1.242 -0.3339865207672119 -0.24878711998462677 -0.5151559710502625 -0.057628728449344635 0.0 0.0 0.0 0.0
1.243 -0.33725252747535706 -0.24274009466171265 -0.5168890357017517 -0.046708133071660995 0.0 0.0 0.0 0.0
1.244 -0.3409654200077057 -0.2305467426776886 -0.5160449147224426 -0.024426676332950592 0.0 0.0 0.0 0.0
1.245 -0.3424142599105835 -0.22361649572849274 -0.516938328742981 -0.015049419365823269 0.0 0.0 0.0 0.0
1.246 -0.34628137946128845 -0.21228431165218353 -0.5149233341217041 0.009597282856702805 0.0 0.0 0.0 0.0
1.247 -0.3477279245853424 -0.2049599438905716 -0.5155818462371826 0.018994929268956184 0.0 0.0 0.0 0.0
1.248 -0.3500683009624481 -0.19134224951267242 -0.5131869912147522 0.04039562866091728 0.0 0.0 0.0 0.0
1.249 -0.3521634638309479 -0.18282178044319153 -0.5099109411239624 0.05542566999793053 0.0 0.0 0.0 0.0
1.25 -0.35542356967926025 -0.17595848441123962 -0.5092896223068237 0.07180632650852203 0.0 0.0 0.0 0.0
1.251 -0.3558845818042755 -0.1648477464914322 -0.5040405988693237 0.08780223876237869 0.0 0.0 0.0 0.0
1.252 -0.3568270802497864 -0.15813472867012024 -0.5032958388328552 0.1040513888001442 0.0 0.0 0.0 0.0
1.253 -0.3577403128147125 -0.1447039395570755 -0.4974747896194458 0.12155307084321976 0.0 0.0 0.0 0.0
1.254 -0.3572445809841156 -0.13858383893966675 -0.49399128556251526 0.13632941246032715 0.0 0.0 0.0 0.0
1.255 -0.35984063148498535 -0.12935863435268402 -0.4865148663520813 0.15361367166042328 0.0 0.0 0.0 0.0
1.256 -0.35980501770973206 -0.12057896703481674 -0.48040103912353516 0.16719283163547516 0.0 0.0 0.0 0.0
1.257 -0.36072173714637756 -0.10958515107631683 -0.473711222410202 0.18447914719581604 0.0 0.0 0.0 0.0
1.258 -0.36138424277305603 -0.10195717215538025 -0.4687693119049072 0.19413267076015472 0.0 0.0 0.0 0.0
1.259 -0.3641698658466339 -0.0918738842010498 -0.45973339676856995 0.2150808870792389 0.0 0.0 0.0 0.0
1.26 -0.36330339312553406 -0.08335141837596893 -0.4547789394855499 0.22182151675224304 0.0 0.0 0.0 0.0
1.261 -0.36501815915107727 -0.07054653018712997 -0.4448012113571167 0.24104668200016022 0.0 0.0 0.0 0.0
1.262 -0.36469027400016785 -0.06140710413455963 -0.43816235661506653 0.2487422525882721 0.0 0.0 0.0 0.0
1.263 -0.365068644285202 -0.04779655113816261 -0.43080583214759827 0.26728227734565735 0.0 0.0 0.0 0.0
1.264 -0.36324143409729004 -0.04022300988435745 -0.4236535429954529 0.27455195784568787 0.0 0.0 0.0 0.0
1.265 -0.3642255961894989 -0.02875840663909912 -0.4143228232860565 0.29247432947158813 0.0 0.0 0.0 0.0
1.266 -0.36117640137672424 -0.017566116526722908 -0.4046308994293213 0.3026163578033447 0.0 0.0 0.0 0.0
1.267 -0.3575509190559387 -0.007201921194791794 -0.39511576294898987 0.31963735818862915 0.0 0.0 0.0 0.0
1.268 -0.3560275435447693 0.0025113746523857117 -0.38612431287765503 0.3288666009902954 0.0 0.0 0.0 0.0
1.269 -0.35435810685157776 0.012443581596016884 -0.3763207197189331 0.3420170843601227 0.0 0.0 0.0 0.0
1.27 -0.3503127098083496 0.025680389255285263 -0.3605751097202301 0.3561510145664215 0.0 0.0 0.0 0.0
1.271 -0.3491506576538086 0.031118208542466164 -0.35242924094200134 0.3611924648284912 0.0 0.0 0.0 0.0
1.272 -0.34494221210479736 0.04630899429321289 -0.3380410075187683 0.37565258145332336 0.0 0.0 0.0 0.0
1.273 -0.343059778213501 0.052688516676425934 -0.3313269317150116 0.38330399990081787 0.0 0.0 0.0 0.0
1.274 -0.3382311761379242 0.06671012192964554 -0.3140266239643097 0.3989235460758209 0.0 0.0 0.0 0.0
1.275 -0.3351653814315796 0.0766400694847107 -0.3055865466594696 0.4066793620586395 0.0 0.0 0.0 0.0
1.276 -0.33094462752342224 0.08656422793865204 -0.2905542552471161 0.41730183362960815 0.0 0.0 0.0 0.0
1.277 -0.32554975152015686 0.09710317850112915 -0.28015145659446716 0.42394155263900757 0.0 0.0 0.0 0.0
1.278 -0.32077929377555847 0.10531488806009293 -0.26369598507881165 0.43735989928245544 0.0 0.0 0.0 0.0
1.279 -0.31414493918418884 0.1172606572508812 -0.2510015666484833 0.44233763217926025 0.0 0.0 0.0 0.0
1.28 -0.3106336295604706 0.1251031756401062 -0.2347046285867691 0.4534015655517578 0.0 0.0 0.0 0.0
1.281 -0.303814560174942 0.13711793720722198 -0.22049814462661743 0.4582009017467499 0.0 0.0 0.0 0.0
1.282 -0.2966621220111847 0.14524473249912262 -0.20627586543560028 0.4691413938999176 0.0 0.0 0.0 0.0
1.283 -0.28958243131637573 0.15688219666481018 -0.1891026794910431 0.47409164905548096 0.0 0.0 0.0 0.0
1.284 -0.28511226177215576 0.16363723576068878 -0.17912694811820984 0.47744569182395935 0.0 0.0 0.0 0.0
1.285 -0.2778291404247284 0.1748586893081665 -0.15761199593544006 0.4847366511821747 0.0 0.0 0.0 0.0
1.286 -0.2703916132450104 0.18317197263240814 -0.14592626690864563 0.48768478631973267 0.0 0.0 0.0 0.0
1.287 -0.26417869329452515 0.19273315370082855 -0.13176500797271729 0.4925367832183838 0.0 0.0 0.0 0.0
1.288 -0.255525141954422 0.20369262993335724 -0.11484681814908981 0.49537646770477295 0.0 0.0 0.0 0.0
1.289 -0.24741005897521973 0.21236468851566315 -0.10068121552467346 0.5003626942634583 0.0 0.0 0.0 0.0
1.29 -0.23655661940574646 0.22033913433551788 -0.08334574103355408 0.5036206841468811 0.0 0.0 0.0 0.0
1.291 -0.22771523892879486 0.22851736843585968 -0.06683794409036636 0.5081589221954346 0.0 0.0 0.0 0.0
1.292 -0.21909527480602264 0.23766466975212097 -0.04924170672893524 0.5098279118537903 0.0 0.0 0.0 0.0
1.293 -0.21001769602298737 0.24487322568893433 -0.03447439894080162 0.510503888130188 0.0 0.0 0.0 0.0
1.294 -0.1979314535856247 0.25405585765838623 -0.01508365198969841 0.5119983553886414 0.0 0.0 0.0 0.0
1.295 -0.18889373540878296 0.2597328722476959 -0.0010762549936771393 0.5123582482337952 0.0 0.0 0.0 0.0
1.296 -0.17613129317760468 0.2691844403743744 0.01902982033789158 0.5118406414985657 0.0 0.0 0.0 0.0
1.297 -0.16818250715732574 0.27490708231925964 0.028564488515257835 0.5128055810928345 0.0 0.0 0.0 0.0
1.298 -0.1546914279460907 0.28208982944488525 0.053544748574495316 0.512248158454895 0.0 0.0 0.0 0.0
1.299 -0.14326412975788116 0.2882021963596344 0.06533478200435638 0.5085877776145935 0.0 0.0 0.0 0.0
1.3 -0.131901353597641 0.2948252260684967 0.08265820890665054 0.5077194571495056 0.0 0.0 0.0 0.0
1.301 -0.11940203607082367 0.300677627325058 0.09652554988861084 0.5041006207466125 0.0 0.0 0.0 0.0
1.302 -0.10532743483781815 0.3061262369155884 0.11749416589736938 0.5045309662818909 0.0 0.0 0.0 0.0
1.303 -0.09116543084383011 0.3104259967803955 0.1325470507144928 0.49671462178230286 0.0 0.0 0.0 0.0
1.304 -0.0810282900929451 0.31502586603164673 0.14477777481079102 0.4967907965183258 0.0 0.0 0.0 0.0
1.305 -0.0647863820195198 0.32141539454460144 0.16874265670776367 0.48668938875198364 0.0 0.0 0.0 0.0
1.306 -0.056196440011262894 0.32233038544654846 0.17472143471240997 0.4871775805950165 0.0 0.0 0.0 0.0
1.307 -0.03711539879441261 0.3275824785232544 0.19763079285621643 0.47757425904273987 0.0 0.0 0.0 0.0
1.308 -0.025535548105835915 0.32985061407089233 0.20714378356933594 0.4731789231300354 0.0 0.0 0.0 0.0
1.309 -0.00940700899809599 0.3324219584465027 0.22945146262645721 0.4648474156856537 0.0 0.0 0.0 0.0
1.31 0.0037435470148921013 0.3342522084712982 0.23966310918331146 0.46023112535476685 0.0 0.0 0.0 0.0
1.311 0.02065938524901867 0.33528220653533936 0.26048198342323303 0.4513686001300812 0.0 0.0 0.0 0.0
1.312 0.03353846073150635 0.3347584009170532 0.2699785530567169 0.44590818881988525 0.0 0.0 0.0 0.0
1.313 0.05001440644264221 0.33475184440612793 0.29027122259140015 0.4361194372177124 0.0 0.0 0.0 0.0
1.314 0.06350306421518326 0.3341924548149109 0.302016019821167 0.42632046341896057 0.0 0.0 0.0 0.0
1.315 0.07900437712669373 0.3331831991672516 0.32001492381095886 0.41557979583740234 0.0 0.0 0.0 0.0
1.316 0.09393908083438873 0.33076757192611694 0.33068954944610596 0.4041935205459595 0.0 0.0 0.0 0.0
1.317 0.10949169099330902 0.32814279198646545 0.3463621437549591 0.39602306485176086 0.0 0.0 0.0 0.0
1.318 0.12408220022916794 0.3249819874763489 0.3564837872982025 0.38150107860565186 0.0 0.0 0.0 0.0
1.319 0.136836975812912 0.3225134015083313 0.3703632652759552 0.3727293312549591 0.0 0.0 0.0 0.0
1.32 0.1531263291835785 0.3194490671157837 0.38443219661712646 0.35671624541282654 0.0 0.0 0.0 0.0
1.321 0.16664308309555054 0.31553834676742554 0.3939586281776428 0.3490709662437439 0.0 0.0 0.0 0.0
1.322 0.18483640253543854 0.30920445919036865 0.40775808691978455 0.330356240272522 0.0 0.0 0.0 0.0
1.323 0.19566024839878082 0.3042871654033661 0.4167979955673218 0.32058072090148926 0.0 0.0 0.0 0.0
1.324 0.2132090926170349 0.2970939576625824 0.42974239587783813 0.30412179231643677 0.0 0.0 0.0 0.0
1.325 0.22447709739208221 0.29076245427131653 0.4363965094089508 0.2952099144458771 0.0 0.0 0.0 0.0
1.326 0.24160268902778625 0.2816252112388611 0.45194822549819946 0.27427786588668823 0.0 0.0 0.0 0.0
1.327 0.25174495577812195 0.27492672204971313 0.45599597692489624 0.265653520822525 0.0 0.0 0.0 0.0
1.328 0.2670191824436188 0.26521119475364685 0.4696919918060303 0.2445531040430069 0.0 0.0 0.0 0.0
1.329 0.28038498759269714 0.25504645705223083 0.47704100608825684 0.22547659277915955 0.0 0.0 0.0 0.0
1.33 0.29108843207359314 0.2466149479150772 0.48221316933631897 0.21698009967803955 0.0 0.0 0.0 0.0
1.331 0.30480992794036865 0.23639582097530365 0.48884618282318115 0.19533011317253113 0.0 0.0 0.0 0.0
1.332 0.31627339124679565 0.22592765092849731 0.49617698788642883 0.1820119023323059 0.0 0.0 0.0 0.0
1.333 0.3299639821052551 0.21272683143615723 0.5053241848945618 0.15855838358402252 0.0 0.0 0.0 0.0
1.334 0.33755818009376526 0.20383356511592865 0.5065388679504395 0.14983633160591125 0.0 0.0 0.0 0.0
1.335 0.3481349050998688 0.19088730216026306 0.5128629803657532 0.1253274530172348 0.0 0.0 0.0 0.0
1.336 0.35873571038246155 0.17924752831459045 0.5155431032180786 0.11473970860242844 0.0 0.0 0.0 0.0
1.337 0.3676038682460785 0.1670428216457367 0.5186365842819214 0.09178038686513901 0.0 0.0 0.0 0.0
1.338 0.3764859437942505 0.1545785665512085 0.5187397599220276 0.07847906649112701 0.0 0.0 0.0 0.0
1.339 0.38663697242736816 0.1411435902118683 0.5230785012245178 0.05954524502158165 0.0 0.0 0.0 0.0
1.34 0.3958473801612854 0.12373990565538406 0.5252276062965393 0.03974927216768265 0.0 0.0 0.0 0.0
1.341 0.40350306034088135 0.11223547160625458 0.5255060195922852 0.022918809205293655 0.0 0.0 0.0 0.0
1.342 0.4105081260204315 0.09546785056591034 0.5258387923240662 0.00447291973978281 0.0 0.0 0.0 0.0
1.343 0.4171639680862427 0.08252063393592834 0.5274589657783508 -0.00969506986439228 0.0 0.0 0.0 0.0
1.344 0.4239504337310791 0.0644342452287674 0.5262881517410278 -0.027964219450950623 0.0 0.0 0.0 0.0
1.345 0.42829999327659607 0.051628630608320236 0.5257055163383484 -0.043940410017967224 0.0 0.0 0.0 0.0
1.346 0.4336605966091156 0.03578103333711624 0.5237937569618225 -0.0647527277469635 0.0 0.0 0.0 0.0
1.347 0.4361124634742737 0.020583821460604668 0.5178681015968323 -0.07744953036308289 0.0 0.0 0.0 0.0
1.348 0.44157829880714417 0.003395039588212967 0.5167689919471741 -0.09831506758928299 0.0 0.0 0.0 0.0
1.349 0.44428470730781555 -0.013793665915727615 0.5125121474266052 -0.11192966252565384 0.0 0.0 0.0 0.0
1.35 0.4463895857334137 -0.02980436198413372 0.5082822442054749 -0.13214357197284698 0.0 0.0 0.0 0.0
1.351 0.4467923939228058 -0.04485199600458145 0.5038829445838928 -0.14405952394008636 0.0 0.0 0.0 0.0
1.352 0.44711631536483765 -0.06383384019136429 0.5021805167198181 -0.1661994308233261 0.0 0.0 0.0 0.0
1.353 0.446684330701828 -0.0807558223605156 0.49604687094688416 -0.18001526594161987 0.0 0.0 0.0 0.0
1.354 0.4458063244819641 -0.09657358378171921 0.48919907212257385 -0.1979374885559082 0.0 0.0 0.0 0.0
1.355 0.44477030634880066 -0.11516813933849335 0.48135659098625183 -0.2141011506319046 0.0 0.0 0.0 0.0
1.356 0.4427259564399719 -0.12843158841133118 0.47712743282318115 -0.22678206861019135 0.0 0.0 0.0 0.0
1.357 0.4373897314071655 -0.1465918868780136 0.46604663133621216 -0.24635069072246552 0.0 0.0 0.0 0.0
1.358 0.43514490127563477 -0.15927746891975403 0.460497111082077 -0.2602335512638092 0.0 0.0 0.0 0.0
1.359 0.42761048674583435 -0.17883560061454773 0.4481566548347473 -0.2800652086734772 0.0 0.0 0.0 0.0
1.36 0.42401623725891113 -0.19030936062335968 0.4418092966079712 -0.28920602798461914 0.0 0.0 0.0 0.0
1.361 0.4188854992389679 -0.20776565372943878 0.4298161566257477 -0.3089430332183838 0.0 0.0 0.0 0.0
1.362 0.4116276204586029 -0.22015096247196198 0.4200083613395691 -0.3208702802658081 0.0 0.0 0.0 0.0
1.363 0.40423211455345154 -0.23706550896167755 0.40763261914253235 -0.3386708199977875 0.0 0.0 0.0 0.0
1.364 0.3973974287509918 -0.24681520462036133 0.3956499993801117 -0.3462980389595032 0.0 0.0 0.0 0.0
1.365 0.38921037316322327 -0.2650335431098938 0.3817000985145569 -0.3666429817676544 0.0 0.0 0.0 0.0
1.366 0.3823012709617615 -0.2732419967651367 0.372398316860199 -0.37085649371147156 0.0 0.0 0.0 0.0
1.367 0.37314218282699585 -0.2868826985359192 0.35636040568351746 -0.3865242302417755 0.0 0.0 0.0 0.0
1.368 0.3628072738647461 -0.298377126455307 0.34676995873451233 -0.394807368516922 0.0 0.0 0.0 0.0
1.369 0.35559597611427307 -0.3077331483364105 0.3345770835876465 -0.40606483817100525 0.0 0.0 0.0 0.0
1.37 0.3427005112171173 -0.3201330602169037 0.31485116481781006 -0.41755595803260803 0.0 0.0 0.0 0.0
1.371 0.3321508765220642 -0.33205461502075195 0.30021196603775024 -0.4305266737937927 0.0 0.0 0.0 0.0
1.372 0.32205745577812195 -0.3425418436527252 0.28775256872177124 -0.43988925218582153 0.0 0.0 0.0 0.0
1.373 0.31275486946105957 -0.34944942593574524 0.27532821893692017 -0.444973349571228 0.0 0.0 0.0 0.0
1.374 0.2995680868625641 -0.3586612045764923 0.25234362483024597 -0.4561270773410797 0.0 0.0 0.0 0.0
1.375 0.2888004183769226 -0.3661646544933319 0.24350407719612122 -0.46033671498298645 0.0 0.0 0.0 0.0
1.376 0.2782381474971771 -0.3753415048122406 0.2254108190536499 -0.47037601470947266 0.0 0.0 0.0 0.0
1.377 0.2654266655445099 -0.3818146884441376 0.21153758466243744 -0.4756350815296173 0.0 0.0 0.0 0.0
1.378 0.25507351756095886 -0.3901708424091339 0.1953912079334259 -0.4840545654296875 0.0 0.0 0.0 0.0
1.379 0.2432263195514679 -0.39573395252227783 0.179619699716568 -0.4849422574043274 0.0 0.0 0.0 0.0
1.38 0.2289135605096817 -0.40199777483940125 0.16172544658184052 -0.49399545788764954 0.0 0.0 0.0 0.0
1.381 0.22049231827259064 -0.4067848026752472 0.14775270223617554 -0.49615344405174255 0.0 0.0 0.0 0.0
1.382 0.20712020993232727 -0.41204676032066345 0.12600402534008026 -0.50126713514328 0.0 0.0 0.0 0.0
1.383 0.19243672490119934 -0.4185985028743744 0.10908661782741547 -0.5053718686103821 0.0 0.0 0.0 0.0
1.384 0.18600963056087494 -0.42083725333213806 0.10394372045993805 -0.5080505609512329 0.0 0.0 0.0 0.0
1.385 0.16916117072105408 -0.42551878094673157 0.07790422439575195 -0.5108130574226379 0.0 0.0 0.0 0.0
1.386 0.1591070592403412 -0.4271773397922516 0.06847130507230759 -0.5090301036834717 0.0 0.0 0.0 0.0
1.387 0.1456039696931839 -0.4323245584964752 0.04600614681839943 -0.5140955448150635 0.0 0.0 0.0 0.0
1.388 0.1340438425540924 -0.43401849269866943 0.03565748780965805 -0.5128904581069946 0.0 0.0 0.0 0.0
1.389 0.1208617240190506 -0.43975862860679626 0.018087873235344887 -0.5178341269493103 0.0 0.0 0.0 0.0
1.39 0.10388015955686569 -0.4388112425804138 -0.000167197547852993 -0.5161581039428711 0.0 0.0 0.0 0.0
1.391 0.09461022168397903 -0.4394378662109375 -0.015201657079160213 -0.517185628414154 0.0 0.0 0.0 0.0
1.392 0.07796014100313187 -0.44009000062942505 -0.03466126322746277 -0.5163703560829163 0.0 0.0 0.0 0.0
1.393 0.07084255665540695 -0.4378894865512848 -0.05100860074162483 -0.5141693353652954 0.0 0.0 0.0 0.0
1.394 0.05363064259290695 -0.4391976296901703 -0.07414665818214417 -0.511283278465271 0.0 0.0 0.0 0.0
1.395 0.04636768251657486 -0.43681541085243225 -0.0827762559056282 -0.5080049633979797 0.0 0.0 0.0 0.0
1.396 0.03369399160146713 -0.435566782951355 -0.10462594777345657 -0.5030729174613953 0.0 0.0 0.0 0.0
1.397 0.026021799072623253 -0.4354057013988495 -0.11000213772058487 -0.5037610530853271 0.0 0.0 0.0 0.0
1.398 0.011255028657615185 -0.4343032240867615 -0.13579072058200836 -0.49750345945358276 0.0 0.0 0.0 0.0
1.399 0.0031629344448447227 -0.4324498176574707 -0.1440410166978836 -0.4932698905467987 0.0 0.0 0.0 0.0
1.4 -0.010601352900266647 -0.42843982577323914 -0.16841024160385132 -0.4872526228427887 0.0 0.0 0.0 0.0
1.401 -0.019695153459906578 -0.4261292815208435 -0.1783793568611145 -0.4808970093727112 0.0 0.0 0.0 0.0
1.402 -0.03131764009594917 -0.42521053552627563 -0.19438596069812775 -0.4783417582511902 0.0 0.0 0.0 0.0
1.403 -0.04333643615245819 -0.42163097858428955 -0.20947636663913727 -0.46913638710975647 0.0 0.0 0.0 0.0
1.404 -0.053181324154138565 -0.4193408787250519 -0.22237834334373474 -0.46687397360801697 0.0 0.0 0.0 0.0
1.405 -0.06583690643310547 -0.4162343144416809 -0.23744982481002808 -0.4568447470664978 0.0 0.0 0.0 0.0
1.406 -0.07312077283859253 -0.41040295362472534 -0.25142717361450195 -0.450659841299057 0.0 0.0 0.0 0.0
1.407 -0.08765744417905807 -0.4051336944103241 -0.27097001671791077 -0.44014570116996765 0.0 0.0 0.0 0.0
1.408 -0.09137564897537231 -0.4016043543815613 -0.2776212990283966 -0.43812620639801025 0.0 0.0 0.0 0.0
1.409 -0.10548446327447891 -0.39418110251426697 -0.3006073534488678 -0.4222201704978943 0.0 0.0 0.0 0.0
1.41 -0.1104419082403183 -0.38929983973503113 -0.30623140931129456 -0.4166164994239807 0.0 0.0 0.0 0.0
1.411 -0.12086733430624008 -0.3856698274612427 -0.3260265588760376 -0.4044937193393707 0.0 0.0 0.0 0.0
1.412 -0.1308869868516922 -0.37915152311325073 -0.33537453413009644 -0.3963586390018463 0.0 0.0 0.0 0.0
1.413 -0.1395958811044693 -0.37571606040000916 -0.3522094786167145 -0.38434988260269165 0.0 0.0 0.0 0.0
1.414 -0.14687715470790863 -0.3666817545890808 -0.36159685254096985 -0.37282705307006836 0.0 0.0 0.0 0.0
1.415 -0.1568571925163269 -0.3625093102455139 -0.37472015619277954 -0.35958418250083923 0.0 0.0 0.0 0.0
1.416 -0.16622795164585114 -0.35516321659088135 -0.38340163230895996 -0.34990978240966797 0.0 0.0 0.0 0.0
1.417 -0.1715705841779709 -0.34841087460517883 -0.3983604311943054 -0.34043970704078674 0.0 0.0 0.0 0.0
1.418 -0.1810455322265625 -0.33929580450057983 -0.41084927320480347 -0.32484713196754456 0.0 0.0 0.0 0.0
1.419 -0.18557599186897278 -0.33273276686668396 -0.42082712054252625 -0.3135198950767517 0.0 0.0 0.0 0.0
1.42 -0.1963764727115631 -0.3248409628868103 -0.4355720579624176 -0.29376277327537537 0.0 0.0 0.0 0.0
1.421 -0.20116780698299408 -0.3183048665523529 -0.4397832155227661 -0.2896541357040405 0.0 0.0 0.0 0.0
1.422 -0.2083485871553421 -0.31099873781204224 -0.4544774293899536 -0.27047982811927795 0.0 0.0 0.0 0.0
1.423 -0.21187004446983337 -0.3017178475856781 -0.46107274293899536 -0.25773757696151733 0.0 0.0 0.0 0.0
1.424 -0.22075602412223816 -0.2922796308994293 -0.47378745675086975 -0.23976334929466248 0.0 0.0 0.0 0.0
1.425 -0.2240624576807022 -0.2859359085559845 -0.4765397310256958 -0.22760780155658722 0.0 0.0 0.0 0.0
1.426 -0.23089957237243652 -0.2769564688205719 -0.4895296096801758 -0.20645369589328766 0.0 0.0 0.0 0.0
1.427 -0.23324500024318695 -0.2709972858428955 -0.49372875690460205 -0.19459517300128937 0.0 0.0 0.0 0.0
1.428 -0.23718440532684326 -0.2633804380893707 -0.5014752745628357 -0.18094125390052795 0.0 0.0 0.0 0.0
1.429 -0.24350222945213318 -0.25499969720840454 -0.5085871815681458 -0.15813493728637695 0.0 0.0 0.0 0.0
1.43 -0.2464502602815628 -0.24803702533245087 -0.5146591067314148 -0.14644719660282135 0.0 0.0 0.0 0.0
1.431 -0.25321024656295776 -0.23729810118675232 -0.5189698338508606 -0.12118780612945557 0.0 0.0 0.0 0.0
1.432 -0.2533687651157379 -0.23160730302333832 -0.5198863744735718 -0.11240140348672867 0.0 0.0 0.0 0.0
1.433 -0.26164546608924866 -0.22326798737049103 -0.5276326537132263 -0.08619114011526108 0.0 0.0 0.0 0.0
1.434 -0.2629425823688507 -0.2148115485906601 -0.5269730091094971 -0.07514495402574539 0.0 0.0 0.0 0.0
1.435 -0.26908794045448303 -0.20651033520698547 -0.5326675772666931 -0.053986556828022 0.0 0.0 0.0 0.0
1.436 -0.2724377512931824 -0.1965000033378601 -0.5334164500236511 -0.04059401527047157 0.0 0.0 0.0 0.0
1.437 -0.27533528208732605 -0.18701107800006866 -0.5380339622497559 -0.019216343760490417 0.0 0.0 0.0 0.0
1.438 -0.2780226469039917 -0.1785125583410263 -0.5362371206283569 0.00048395339399576187 0.0 0.0 0.0 0.0
1.439 -0.2789558172225952 -0.17002558708190918 -0.5387927293777466 0.01911487616598606 0.0 0.0 0.0 0.0
1.44 -0.28167054057121277 -0.16078075766563416 -0.5377253890037537 0.039814818650484085 0.0 0.0 0.0 0.0
1.441 -0.2832867503166199 -0.15218019485473633 -0.5372039675712585 0.05653038248419762 0.0 0.0 0.0 0.0
1.442 -0.28500762581825256 -0.14304594695568085 -0.5341060161590576 0.07615575939416885 0.0 0.0 0.0 0.0
1.443 -0.2866365313529968 -0.1364690214395523 -0.5332185626029968 0.09106335043907166 0.0 0.0 0.0 0.0
1.444 -0.2883989214897156 -0.12481126934289932 -0.5268906354904175 0.117535799741745 0.0 0.0 0.0 0.0
1.445 -0.2881019711494446 -0.12056752294301987 -0.5252644419670105 0.12150635570287704 0.0 0.0 0.0 0.0
1.446 -0.2904219627380371 -0.10988546907901764 -0.5186297297477722 0.15143930912017822 0.0 0.0 0.0 0.0
1.447 -0.29017359018325806 -0.10197246819734573 -0.5139337778091431 0.16400571167469025 0.0 0.0 0.0 0.0
1.448 -0.2919609248638153 -0.09173229336738586 -0.5074820518493652 0.18567781150341034 0.0 0.0 0.0 0.0
1.449 -0.2903381586074829 -0.08361727744340897 -0.49970126152038574 0.1991146057844162 0.0 0.0 0.0 0.0
1.45 -0.2930314838886261 -0.074341781437397 -0.49312835931777954 0.21885310113430023 0.0 0.0 0.0 0.0
1.451 -0.292068213224411 -0.06714162230491638 -0.4833948016166687 0.23637822270393372 0.0 0.0 0.0 0.0
1.452 -0.2924197316169739 -0.057559218257665634 -0.4757024049758911 0.25313594937324524 0.0 0.0 0.0 0.0
1.453 -0.29355084896087646 -0.04858008399605751 -0.4648313522338867 0.27029067277908325 0.0 0.0 0.0 0.0
1.454 -0.2924620509147644 -0.0422012023627758 -0.4565070569515228 0.2832717001438141 0.0 0.0 0.0 0.0
1.455 -0.29198166728019714 -0.03027745522558689 -0.4425709843635559 0.3030948042869568 0.0 0.0 0.0 0.0
1.456 -0.29215937852859497 -0.02629193663597107 -0.436028391122818 0.3104505240917206 0.0 0.0 0.0 0.0
1.457 -0.29254642128944397 -0.014461283572018147 -0.41996049880981445 0.33148321509361267 0.0 0.0 0.0 0.0
1.458 -0.2903594672679901 -0.007420452311635017 -0.4098514914512634 0.3393448293209076 0.0 0.0 0.0 0.0
1.459 -0.2914142310619354 0.0029713409021496773 -0.3977457880973816 0.3563329875469208 0.0 0.0 0.0 0.0
1.46 -0.290237694978714 0.0119303148239851 -0.38435128331184387 0.3662581741809845 0.0 0.0 0.0 0.0
1.461 -0.2885275185108185 0.02175288461148739 -0.3721611499786377 0.37935927510261536 0.0 0.0 0.0 0.0
1.462 -0.2860885262489319 0.031596794724464417 -0.35923469066619873 0.38891109824180603 0.0 0.0 0.0 0.0
1.463 -0.28454017639160156 0.040664464235305786 -0.3436901569366455 0.4055326581001282 0.0 0.0 0.0 0.0
1.464 -0.28240257501602173 0.05044766515493393 -0.3321288526058197 0.4106349050998688 0.0 0.0 0.0 0.0
1.465 -0.28177085518836975 0.05995362251996994 -0.3132336437702179 0.4233984053134918 0.0 0.0 0.0 0.0
1.466 -0.2770676016807556 0.07183106243610382 -0.2947039306163788 0.43571412563323975 0.0 0.0 0.0 0.0
1.467 -0.275442898273468 0.07916484028100967 -0.29055437445640564 0.44056835770606995 0.0 0.0 0.0 0.0
1.468 -0.27182820439338684 0.0899469181895256 -0.26895958185195923 0.4517701268196106 0.0 0.0 0.0 0.0
1.469 -0.26762133836746216 0.09873182326555252 -0.2555447816848755 0.4564312994480133 0.0 0.0 0.0 0.0
1.47 -0.2655603885650635 0.10883922129869461 -0.2383175641298294 0.4685666859149933 0.0 0.0 0.0 0.0
1.471 -0.2587360441684723 0.11747586727142334 -0.2254277467727661 0.47180449962615967 0.0 0.0 0.0 0.0
1.472 -0.25392797589302063 0.12912163138389587 -0.20749574899673462 0.48205265402793884 0.0 0.0 0.0 0.0
1.473 -0.25007307529449463 0.13803963363170624 -0.18953312933444977 0.48505404591560364 0.0 0.0 0.0 0.0
1.474 -0.24566446244716644 0.14496570825576782 -0.17776422202587128 0.4899328649044037 0.0 0.0 0.0 0.0
1.475 -0.2387039214372635 0.15681354701519012 -0.1578616350889206 0.4951505959033966 0.0 0.0 0.0 0.0
1.476 -0.23329125344753265 0.1651538610458374 -0.14329500496387482 0.49936461448669434 0.0 0.0 0.0 0.0
1.477 -0.22585958242416382 0.17580470442771912 -0.12631168961524963 0.5036836266517639 0.0 0.0 0.0 0.0
1.478 -0.22017322480678558 0.18389470875263214 -0.1133531853556633 0.5080387592315674 0.0 0.0 0.0 0.0
1.479 -0.2114337980747223 0.1938389241695404 -0.09045365452766418 0.5120034217834473 0.0 0.0 0.0 0.0
1.48 -0.20433098077774048 0.2009577602148056 -0.07961440086364746 0.5124347805976868 0.0 0.0 0.0 0.0
1.481 -0.19516514241695404 0.21071678400039673 -0.05722639709711075 0.5172826051712036 0.0 0.0 0.0 0.0
1.482 -0.1882893443107605 0.21761783957481384 -0.045815128833055496 0.515339195728302 0.0 0.0 0.0 0.0
1.483 -0.17965257167816162 0.22666016221046448 -0.024418724700808525 0.5166438221931458 0.0 0.0 0.0 0.0
1.484 -0.16964124143123627 0.23409520089626312 -0.0098775839433074 0.5151207447052002 0.0 0.0 0.0 0.0
1.485 -0.162699356675148 0.2409607321023941 0.009161782450973988 0.5161863565444946 0.0 0.0 0.0 0.0
1.486 -0.15073326230049133 0.24834468960762024 0.025074655190110207 0.5142402052879333 0.0 0.0 0.0 0.0
1.487 -0.14216113090515137 0.25464069843292236 0.03974370285868645 0.5147454738616943 0.0 0.0 0.0 0.0
1.488 -0.13188529014587402 0.26030436158180237 0.06323444843292236 0.510453462600708 0.0 0.0 0.0 0.0
1.489 -0.12173693627119064 0.2663063108921051 0.07649275660514832 0.5082662105560303 0.0 0.0 0.0 0.0
1.49 -0.11008203774690628 0.27366793155670166 0.09206540882587433 0.506181538105011 0.0 0.0 0.0 0.0
1.491 -0.10270765423774719 0.27674177289009094 0.1028403490781784 0.5020911693572998 0.0 0.0 0.0 0.0
1.492 -0.08660081773996353 0.2849011719226837 0.1297028809785843 0.4971824586391449 0.0 0.0 0.0 0.0
1.493 -0.0798492431640625 0.2879844307899475 0.13637861609458923 0.49350786209106445 0.0 0.0 0.0 0.0
1.494 -0.06494781374931335 0.2937683165073395 0.1626720279455185 0.48722997307777405 0.0 0.0 0.0 0.0
1.495 -0.05572107434272766 0.2957421541213989 0.16799408197402954 0.48144063353538513 0.0 0.0 0.0 0.0
1.496 -0.04376203566789627 0.3005326986312866 0.18679143488407135 0.4773678481578827 0.0 0.0 0.0 0.0
1.497 -0.031137553974986076 0.30322685837745667 0.19744189083576202 0.4702949523925781 0.0 0.0 0.0 0.0
1.498 -0.017982682213187218 0.3073268532752991 0.2181287705898285 0.4622752368450165 0.0 0.0 0.0 0.0
1.499 -0.005005792714655399 0.30917850136756897 0.2294040322303772 0.4529370963573456 0.0 0.0 0.0 0.0
1.5 0.004367615096271038 0.3103411793708801 0.24581032991409302 0.44514232873916626 0.0 0.0 0.0 0.0
1.501 0.019496556371450424 0.3123558759689331 0.25937461853027344 0.43609818816185 0.0 0.0 0.0 0.0
1.502 0.02776443585753441 0.3138347566127777 0.27311161160469055 0.4272134304046631 0.0 0.0 0.0 0.0
1.503 0.043924763798713684 0.31473976373672485 0.2861461341381073 0.41793906688690186 0.0 0.0 0.0 0.0
1.504 0.054578281939029694 0.31606990098953247 0.2938769459724426 0.41194260120391846 0.0 0.0 0.0 0.0
1.505 0.06804105639457703 0.31620410084724426 0.31108611822128296 0.39730772376060486 0.0 0.0 0.0 0.0
1.506 0.08184806257486343 0.31530821323394775 0.3211386501789093 0.3907473087310791 0.0 0.0 0.0 0.0
1.507 0.09619126468896866 0.3151179850101471 0.3374554514884949 0.37757018208503723 0.0 0.0 0.0 0.0
1.508 0.10786967724561691 0.31366631388664246 0.3427962064743042 0.37077945470809937 0.0 0.0 0.0 0.0
1.509 0.12265539169311523 0.31137484312057495 0.36136960983276367 0.35599285364151 0.0 0.0 0.0 0.0
1.51 0.13300536572933197 0.30962058901786804 0.36447256803512573 0.3497296869754791 0.0 0.0 0.0 0.0
1.511 0.15082283318042755 0.30608129501342773 0.3832685351371765 0.3301487863063812 0.0 0.0 0.0 0.0
1.512 0.16720841825008392 0.2991601228713989 0.39744991064071655 0.3169378638267517 0.0 0.0 0.0 0.0
1.513 0.1715412586927414 0.2991620600223541 0.3960716128349304 0.31629273295402527 0.0 0.0 0.0 0.0
1.514 0.18782193958759308 0.2932334542274475 0.4085098206996918 0.295554518699646 0.0 0.0 0.0 0.0
1.515 0.19850146770477295 0.289169579744339 0.4185580015182495 0.2869216203689575 0.0 0.0 0.0 0.0
1.516 0.21244385838508606 0.2823534607887268 0.4299529492855072 0.26802393794059753 0.0 0.0 0.0 0.0
1.517 0.22321590781211853 0.27721360325813293 0.43316230177879333 0.25833114981651306 0.0 0.0 0.0 0.0
1.518 0.23724554479122162 0.2694559693336487 0.4463827311992645 0.24291034042835236 0.0 0.0 0.0 0.0
1.519 0.24737469851970673 0.2633706331253052 0.44992896914482117 0.2309272438287735 0.0 0.0 0.0 0.0
1.52 0.26069557666778564 0.25661465525627136 0.46250346302986145 0.21502217650413513 0.0 0.0 0.0 0.0
1.521 0.2719258666038513 0.24620668590068817 0.46520617604255676 0.2015182226896286 0.0 0.0 0.0 0.0
1.522 0.28169047832489014 0.24056659638881683 0.4725196063518524 0.18478451669216156 0.0 0.0 0.0 0.0
1.523 0.29272112250328064 0.23049139976501465 0.4783917963504791 0.17071552574634552 0.0 0.0 0.0 0.0
1.524 0.30417850613594055 0.22217337787151337 0.48450323939323425 0.1592053472995758 0.0 0.0 0.0 0.0
1.525 0.3127453923225403 0.21233995258808136 0.4886578321456909 0.13998126983642578 0.0 0.0 0.0 0.0
1.526 0.3216780126094818 0.20286725461483002 0.4931739866733551 0.12868405878543854 0.0 0.0 0.0 0.0
1.527 0.33404624462127686 0.1896989345550537 0.5013595223426819 0.10661927610635757 0.0 0.0 0.0 0.0
1.528 0.33926475048065186 0.18125881254673004 0.5012649893760681 0.09781335294246674 0.0 0.0 0.0 0.0
1.529 0.34995561838150024 0.16691064834594727 0.5073196291923523 0.0738825872540474 0.0 0.0 0.0 0.0
1.53 0.3560936152935028 0.15595144033432007 0.5082101821899414 0.06513920426368713 0.0 0.0 0.0 0.0
1.531 0.36371222138404846 0.1463305503129959 0.5128900408744812 0.04545089229941368 0.0 0.0 0.0 0.0
1.532 0.36850661039352417 0.1341264396905899 0.5103492140769958 0.033128559589385986 0.0 0.0 0.0 0.0
1.533 0.3766928017139435 0.1219196692109108 0.517147421836853 0.011333952657878399 0.0 0.0 0.0 0.0
1.534 0.3799362778663635 0.1091441735625267 0.5133811831474304 -0.003421974368393421 0.0 0.0 0.0 0.0
1.535 0.3866754472255707 0.09546256810426712 0.516633927822113 -0.021057475358247757 0.0 0.0 0.0 0.0
1.536 0.3920305371284485 0.07814846932888031 0.5102441310882568 -0.04379679262638092 0.0 0.0 0.0 0.0
1.537 0.39448317885398865 0.07104538381099701 0.5142123699188232 -0.054716806858778 0.0 0.0 0.0 0.0
1.538 0.3978285491466522 0.055364180356264114 0.5099439024925232 -0.07369017601013184 0.0 0.0 0.0 0.0
1.539 0.40125778317451477 0.045795708894729614 0.5114536881446838 -0.08700555562973022 0.0 0.0 0.0 0.0
1.54 0.40289944410324097 0.029379431158304214 0.5053330063819885 -0.1094173863530159 0.0 0.0 0.0 0.0
1.541 0.4044989049434662 0.018550105392932892 0.5037057995796204 -0.11944268643856049 0.0 0.0 0.0 0.0
1.542 0.40758460760116577 0.0038690147921442986 0.49821698665618896 -0.14436034858226776 0.0 0.0 0.0 0.0
1.543 0.4078849256038666 -0.00715631153434515 0.49640974402427673 -0.15229588747024536 0.0 0.0 0.0 0.0
1.544 0.4091233015060425 -0.021641403436660767 0.49092018604278564 -0.1741056740283966 0.0 0.0 0.0 0.0
1.545 0.40826645493507385 -0.033606432378292084 0.48603707551956177 -0.18499702215194702 0.0 0.0 0.0 0.0
1.546 0.4068070948123932 -0.04722033813595772 0.47834643721580505 -0.2076415717601776 0.0 0.0 0.0 0.0
1.547 0.406488299369812 -0.06004439294338226 0.4737536907196045 -0.21784114837646484 0.0 0.0 0.0 0.0
1.548 0.40632981061935425 -0.07051551342010498 0.4684741497039795 -0.23401586711406708 0.0 0.0 0.0 0.0
1.549 0.4029521644115448 -0.08688759803771973 0.4574500620365143 -0.25224584341049194 0.0 0.0 0.0 0.0
1.55 0.4024606943130493 -0.09698847681283951 0.45385313034057617 -0.2632986903190613 0.0 0.0 0.0 0.0
1.551 0.3990246057510376 -0.11245276033878326 0.4436016380786896 -0.28092169761657715 0.0 0.0 0.0 0.0
1.552 0.3946555256843567 -0.12159807980060577 0.434479296207428 -0.2933903932571411 0.0 0.0 0.0 0.0
1.553 0.38950735330581665 -0.13748674094676971 0.4207350015640259 -0.3157287538051605 0.0 0.0 0.0 0.0
1.554 0.3881922960281372 -0.14237956702709198 0.4182112514972687 -0.3218831419944763 0.0 0.0 0.0 0.0
1.555 0.37959983944892883 -0.16090141236782074 0.3994266986846924 -0.34215983748435974 0.0 0.0 0.0 0.0
1.556 0.3769454061985016 -0.1682756394147873 0.39597398042678833 -0.35012662410736084 0.0 0.0 0.0 0.0
1.557 0.3706442415714264 -0.18431347608566284 0.37910568714141846 -0.36959877610206604 0.0 0.0 0.0 0.0
1.558 0.36620858311653137 -0.19025255739688873 0.37316393852233887 -0.37727612257003784 0.0 0.0 0.0 0.0
1.559 0.36029231548309326 -0.20078985393047333 0.35846781730651855 -0.3922003507614136 0.0 0.0 0.0 0.0
1.56 0.3518828749656677 -0.2133975774049759 0.34021157026290894 -0.40638741850852966 0.0 0.0 0.0 0.0
1.561 0.348544180393219 -0.21809062361717224 0.33571237325668335 -0.4131193459033966 0.0 0.0 0.0 0.0
1.562 0.33901187777519226 -0.23273546993732452 0.3132624328136444 -0.43025726079940796 0.0 0.0 0.0 0.0
1.563 0.33507397770881653 -0.23708373308181763 0.3100146949291229 -0.4347914755344391 0.0 0.0 0.0 0.0
1.564 0.3251990079879761 -0.25213760137557983 0.28765830397605896 -0.45210108160972595 0.0 0.0 0.0 0.0
1.565 0.3183564245700836 -0.25734812021255493 0.2778281569480896 -0.45744526386260986 0.0 0.0 0.0 0.0
1.566 0.31103962659835815 -0.2652539908885956 0.2607952356338501 -0.46898093819618225 0.0 0.0 0.0 0.0
1.567 0.3021696209907532 -0.27298489212989807 0.2458040863275528 -0.47528529167175293 0.0 0.0 0.0 0.0
1.568 0.2909137010574341 -0.28167086839675903 0.22666895389556885 -0.48826009035110474 0.0 0.0 0.0 0.0
1.569 0.2817111015319824 -0.2894918918609619 0.21207866072654724 -0.4917091727256775 0.0 0.0 0.0 0.0
1.57 0.2753394544124603 -0.29374051094055176 0.194664865732193 -0.49923163652420044 0.0 0.0 0.0 0.0
1.571 0.26636433601379395 -0.3015647828578949 0.17970654368400574 -0.5072013139724731 0.0 0.0 0.0 0.0
1.572 0.2618568539619446 -0.3031744360923767 0.16216327250003815 -0.5146787762641907 0.0 0.0 0.0 0.0
1.573 0.24751004576683044 -0.31278929114341736 0.1414228081703186 -0.520107090473175 0.0 0.0 0.0 0.0
1.574 0.2405395209789276 -0.3179825246334076 0.12758022546768188 -0.5264003276824951 0.0 0.0 0.0 0.0
1.575 0.2298177033662796 -0.323534220457077 0.10683631896972656 -0.528197705745697 0.0 0.0 0.0 0.0
1.576 0.22177764773368835 -0.3259807229042053 0.09226275980472565 -0.5316863656044006 0.0 0.0 0.0 0.0
1.577 0.2107318788766861 -0.33200937509536743 0.06978748738765717 -0.5374498963356018 0.0 0.0 0.0 0.0
1.578 0.203082874417305 -0.333535760641098 0.057689376175403595 -0.5372569561004639 0.0 0.0 0.0 0.0
1.579 0.19396691024303436 -0.3392179310321808 0.0316610261797905 -0.5410997271537781 0.0 0.0 0.0 0.0
1.58 0.18464723229408264 -0.34221652150154114 0.021874530240893364 -0.5423076152801514 0.0 0.0 0.0 0.0
1.581 0.17639847099781036 -0.3451884984970093 -0.003564237616956234 -0.544295072555542 0.0 0.0 0.0 0.0
1.582 0.16361479461193085 -0.3486485779285431 -0.022148264572024345 -0.5439435839653015 0.0 0.0 0.0 0.0
1.583 0.15409961342811584 -0.35004815459251404 -0.04332811385393143 -0.5437451601028442 0.0 0.0 0.0 0.0
1.584 0.14813445508480072 -0.3540891408920288 -0.05687141790986061 -0.5438541173934937 0.0 0.0 0.0 0.0
1.585 0.13618211448192596 -0.35539326071739197 -0.07686001062393188 -0.5387259125709534 0.0 0.0 0.0 0.0
1.586 0.12583662569522858 -0.3580600917339325 -0.09898136556148529 -0.5359523296356201 0.0 0.0 0.0 0.0
1.587 0.11971274763345718 -0.35761478543281555 -0.11014633625745773 -0.531188428401947 0.0 0.0 0.0 0.0
1.588 0.10813687741756439 -0.3589231073856354 -0.13717740774154663 -0.5231257081031799 0.0 0.0 0.0 0.0
1.589 0.10130457580089569 -0.361400306224823 -0.14694680273532867 -0.5237156748771667 0.0 0.0 0.0 0.0
1.59 0.08871188014745712 -0.3623429238796234 -0.1700296401977539 -0.5153860449790955 0.0 0.0 0.0 0.0
1.591 0.08102645725011826 -0.36087119579315186 -0.1834682673215866 -0.5092970132827759 0.0 0.0 0.0 0.0
1.592 0.07240556925535202 -0.3646126091480255 -0.20695406198501587 -0.5034554600715637 0.0 0.0 0.0 0.0
1.593 0.06177561730146408 -0.3646200895309448 -0.220075324177742 -0.49477341771125793 0.0 0.0 0.0 0.0
1.594 0.055215466767549515 -0.36349979043006897 -0.24089547991752625 -0.48570841550827026 0.0 0.0 0.0 0.0
1.595 0.04470521956682205 -0.3645597994327545 -0.2555388808250427 -0.47845691442489624 0.0 0.0 0.0 0.0
1.596 0.03733557090163231 -0.36514341831207275 -0.27763745188713074 -0.46651506423950195 0.0 0.0 0.0 0.0
1.597 0.028072569519281387 -0.36166325211524963 -0.28509005904197693 -0.4550310969352722 0.0 0.0 0.0 0.0
1.598 0.02159861847758293 -0.36324232816696167 -0.30288559198379517 -0.4471076428890228 0.0 0.0 0.0 0.0
1.599 0.00907276663929224 -0.36326098442077637 -0.3210965096950531 -0.4329501688480377 0.0 0.0 0.0 0.0
1.6 0.003679404966533184 -0.3613532781600952 -0.32621392607688904 -0.4256284832954407 0.0 0.0 0.0 0.0
1.601 -0.011490545235574245 -0.3615459203720093 -0.35029709339141846 -0.4112778902053833 0.0 0.0 0.0 0.0
1.602 -0.010924385860562325 -0.36025330424308777 -0.35374659299850464 -0.4039894640445709 0.0 0.0 0.0 0.0
1.603 -0.028346501290798187 -0.35871604084968567 -0.3751335144042969 -0.38636699318885803 0.0 0.0 0.0 0.0
1.604 -0.03500738367438316 -0.3583589792251587 -0.377246230840683 -0.38066479563713074 0.0 0.0 0.0 0.0
1.605 -0.04772093519568443 -0.3555159270763397 -0.3974916338920593 -0.3605843782424927 0.0 0.0 0.0 0.0
1.606 -0.05494220554828644 -0.3540448248386383 -0.4062501788139343 -0.3475586771965027 0.0 0.0 0.0 0.0
1.607 -0.06285897642374039 -0.35170096158981323 -0.4158693253993988 -0.33513060212135315 0.0 0.0 0.0 0.0
1.608 -0.07447678595781326 -0.35126423835754395 -0.42738714814186096 -0.32003894448280334 0.0 0.0 0.0 0.0
1.609 -0.08185561746358871 -0.34659162163734436 -0.43743228912353516 -0.304749071598053 0.0 0.0 0.0 0.0
1.61 -0.09202061593532562 -0.34411677718162537 -0.44899430871009827 -0.289490282535553 0.0 0.0 0.0 0.0
1.611 -0.10071533918380737 -0.3397682309150696 -0.454240620136261 -0.2814316749572754 0.0 0.0 0.0 0.0
1.612 -0.11419625580310822 -0.33346399664878845 -0.4666880667209625 -0.25561919808387756 0.0 0.0 0.0 0.0
1.613 -0.12046380341053009 -0.3309888243675232 -0.4720192849636078 -0.24738986790180206 0.0 0.0 0.0 0.0
1.614 -0.13144144415855408 -0.3262092173099518 -0.48376306891441345 -0.22357141971588135 0.0 0.0 0.0 0.0
1.615 -0.13894158601760864 -0.3185961842536926 -0.4863969683647156 -0.21197718381881714 0.0 0.0 0.0 0.0
1.616 -0.14716413617134094 -0.31439444422721863 -0.4956262707710266 -0.19378383457660675 0.0 0.0 0.0 0.0
1.617 -0.1610141396522522 -0.30835798382759094 -0.4984586238861084 -0.17705093324184418 0.0 0.0 0.0 0.0
1.618 -0.1644284874200821 -0.3048303723335266 -0.5059182047843933 -0.16038987040519714 0.0 0.0 0.0 0.0
1.619 -0.1747635155916214 -0.2971245348453522 -0.5112625956535339 -0.14088992774486542 0.0 0.0 0.0 0.0
1.62 -0.18499204516410828 -0.2915983200073242 -0.513804018497467 -0.1305149346590042 0.0 0.0 0.0 0.0
1.621 -0.19253738224506378 -0.28529855608940125 -0.5173074007034302 -0.1065066009759903 0.0 0.0 0.0 0.0
1.622 -0.19695337116718292 -0.2780410051345825 -0.5193741917610168 -0.09133399277925491 0.0 0.0 0.0 0.0
1.623 -0.2092730700969696 -0.2703858017921448 -0.5225726962089539 -0.06768916547298431 0.0 0.0 0.0 0.0
1.624 -0.21024717390537262 -0.2640325129032135 -0.5227087736129761 -0.061633046716451645 0.0 0.0 0.0 0.0
1.625 -0.2198365032672882 -0.255533367395401 -0.5241943001747131 -0.037771183997392654 0.0 0.0 0.0 0.0
1.626 -0.2223917543888092 -0.2498893439769745 -0.5243780612945557 -0.025837725028395653 0.0 0.0 0.0 0.0
1.627 -0.23504246771335602 -0.23725533485412598 -0.5263413786888123 -0.0007349392399191856 0.0 0.0 0.0 0.0
1.628 -0.2416098266839981 -0.2314726859331131 -0.5240826606750488 0.010675466619431973 0.0 0.0 0.0 0.0
1.629 -0.24803072214126587 -0.22402286529541016 -0.523971676826477 0.032178062945604324 0.0 0.0 0.0 0.0
1.63 -0.252315878868103 -0.21228674054145813 -0.5200420022010803 0.04859745502471924 0.0 0.0 0.0 0.0
1.631 -0.25961026549339294 -0.2059348076581955 -0.5182737112045288 0.06211613118648529 0.0 0.0 0.0 0.0
1.632 -0.26029905676841736 -0.19747775793075562 -0.5160053968429565 0.07920276373624802 0.0 0.0 0.0 0.0
1.633 -0.27076342701911926 -0.18671941757202148 -0.5119773745536804 0.09280113875865936 0.0 0.0 0.0 0.0
1.634 -0.27627453207969666 -0.17536555230617523 -0.5055380463600159 0.11506213247776031 0.0 0.0 0.0 0.0
1.635 -0.2815239131450653 -0.16666154563426971 -0.5036718249320984 0.1309397667646408 0.0 0.0 0.0 0.0
1.636 -0.2864854037761688 -0.15329855680465698 -0.49700820446014404 0.1495811492204666 0.0 0.0 0.0 0.0
1.637 -0.28933173418045044 -0.14540712535381317 -0.4924141764640808 0.15806137025356293 0.0 0.0 0.0 0.0
1.638 -0.29470697045326233 -0.13500750064849854 -0.4883987307548523 0.1759641468524933 0.0 0.0 0.0 0.0
1.639 -0.2976006269454956 -0.12278637290000916 -0.4820479452610016 0.19027858972549438 0.0 0.0 0.0 0.0
1.64 -0.3018573820590973 -0.11099983006715775 -0.47466811537742615 0.2103448510169983 0.0 0.0 0.0 0.0
1.641 -0.3032993674278259 -0.1030692532658577 -0.46852874755859375 0.2206672728061676 0.0 0.0 0.0 0.0
1.642 -0.3065619170665741 -0.0929810181260109 -0.46145498752593994 0.23685887455940247 0.0 0.0 0.0 0.0
1.643 -0.3068399727344513 -0.076054647564888 -0.45096442103385925 0.25238683819770813 0.0 0.0 0.0 0.0
1.644 -0.3088013529777527 -0.06560230255126953 -0.4425608813762665 0.2728387415409088 0.0 0.0 0.0 0.0
1.645 -0.3091770112514496 -0.05438515916466713 -0.43264493346214294 0.2837742865085602 0.0 0.0 0.0 0.0
1.646 -0.30996349453926086 -0.04565614089369774 -0.42655497789382935 0.2928742468357086 0.0 0.0 0.0 0.0
1.647 -0.3113914430141449 -0.03096742369234562 -0.4129638969898224 0.3106743395328522 0.0 0.0 0.0 0.0
1.648 -0.3101683557033539 -0.021300924941897392 -0.4045230448246002 0.318524569272995 0.0 0.0 0.0 0.0
1.649 -0.31209322810173035 -0.008990890346467495 -0.39006808400154114 0.3381597697734833 0.0 0.0 0.0 0.0
1.65 -0.3110280930995941 0.003802867606282234 -0.38459643721580505 0.3409038186073303 0.0 0.0 0.0 0.0
1.651 -0.3079163432121277 0.01187771838158369 -0.3717344403266907 0.36065322160720825 0.0 0.0 0.0 0.0
1.652 -0.3064597249031067 0.025893226265907288 -0.3571319282054901 0.3683558404445648 0.0 0.0 0.0 0.0
1.653 -0.30407875776290894 0.0366465300321579 -0.3458065390586853 0.38265496492385864 0.0 0.0 0.0 0.0
1.654 -0.3020877242088318 0.04785748943686485 -0.33155953884124756 0.39272546768188477 0.0 0.0 0.0 0.0
1.655 -0.3000752031803131 0.056462451815605164 -0.32309597730636597 0.4012172222137451 0.0 0.0 0.0 0.0
1.656 -0.29629889130592346 0.06977485865354538 -0.3023957312107086 0.41260722279548645 0.0 0.0 0.0 0.0
1.657 -0.29161617159843445 0.07803446054458618 -0.295071005821228 0.41817378997802734 0.0 0.0 0.0 0.0
1.658 -0.2886776030063629 0.0899532362818718 -0.2765757739543915 0.43248534202575684 0.0 0.0 0.0 0.0
1.659 -0.2847561836242676 0.09938539564609528 -0.26373088359832764 0.4385315477848053 0.0 0.0 0.0 0.0
1.66 -0.2796000838279724 0.10996375232934952 -0.2455138862133026 0.4506433606147766 0.0 0.0 0.0 0.0
1.661 -0.2771337926387787 0.1189350038766861 -0.23589645326137543 0.4515579342842102 0.0 0.0 0.0 0.0
1.662 -0.27065426111221313 0.13187357783317566 -0.2131032645702362 0.463833749294281 0.0 0.0 0.0 0.0
1.663 -0.26631996035575867 0.13803496956825256 -0.20614215731620789 0.46582770347595215 0.0 0.0 0.0 0.0
1.664 -0.260770320892334 0.14953984320163727 -0.18469981849193573 0.47472572326660156 0.0 0.0 0.0 0.0
1.665 -0.2530612349510193 0.1611223965883255 -0.17442859709262848 0.47838151454925537 0.0 0.0 0.0 0.0
1.666 -0.25132036209106445 0.16684076189994812 -0.1606544554233551 0.4817596673965454 0.0 0.0 0.0 0.0
1.667 -0.24310272932052612 0.17821736633777618 -0.1393570452928543 0.48827019333839417 0.0 0.0 0.0 0.0
1.668 -0.24021640419960022 0.1822422593832016 -0.12908510863780975 0.49197566509246826 0.0 0.0 0.0 0.0
1.669 -0.22913241386413574 0.1961028277873993 -0.10479501634836197 0.4974944293498993 0.0 0.0 0.0 0.0
1.67 -0.22238117456436157 0.20350566506385803 -0.09882014989852905 0.49704423546791077 0.0 0.0 0.0 0.0
1.671 -0.2152978479862213 0.21229100227355957 -0.07928944379091263 0.5005602836608887 0.0 0.0 0.0 0.0
1.672 -0.2079678773880005 0.21817553043365479 -0.06836757063865662 0.5023939609527588 0.0 0.0 0.0 0.0
1.673 -0.1991058588027954 0.2279541939496994 -0.04833130165934563 0.5055170059204102 0.0 0.0 0.0 0.0
1.674 -0.19313949346542358 0.23270821571350098 -0.03449529409408569 0.5052634477615356 0.0 0.0 0.0 0.0
1.675 -0.1833769679069519 0.2422482967376709 -0.016126297414302826 0.5057950615882874 0.0 0.0 0.0 0.0
1.676 -0.175315260887146 0.24782148003578186 -0.001364847645163536 0.5067647099494934 0.0 0.0 0.0 0.0
1.677 -0.1643720120191574 0.2559364438056946 0.014422174543142319 0.5082993507385254 0.0 0.0 0.0 0.0
1.678 -0.15791428089141846 0.2604672312736511 0.030363325029611588 0.5028442144393921 0.0 0.0 0.0 0.0
1.679 -0.1504545360803604 0.26734134554862976 0.04386410117149353 0.5052133202552795 0.0 0.0 0.0 0.0
1.68 -0.13231389224529266 0.27611243724823 0.06648370623588562 0.4967504143714905 0.0 0.0 0.0 0.0
1.681 -0.1326112449169159 0.27924269437789917 0.07343988865613937 0.5006643533706665 0.0 0.0 0.0 0.0
1.682 -0.1198713406920433 0.2857590317726135 0.09713146090507507 0.49539804458618164 0.0 0.0 0.0 0.0
1.683 -0.11142086982727051 0.28989192843437195 0.10778815299272537 0.49346762895584106 0.0 0.0 0.0 0.0
1.684 -0.1006663516163826 0.2941400110721588 0.12739115953445435 0.48918983340263367 0.0 0.0 0.0 0.0
1.685 -0.09301522374153137 0.2983848452568054 0.13672849535942078 0.4866968095302582 0.0 0.0 0.0 0.0
1.686 -0.07938472926616669 0.30554381012916565 0.164441779255867 0.48021432757377625 0.0 0.0 0.0 0.0
1.687 -0.07317517697811127 0.30607858300209045 0.16376203298568726 0.47652503848075867 0.0 0.0 0.0 0.0
1.688 -0.06135715916752815 0.31267163157463074 0.18449988961219788 0.4749758243560791 0.0 0.0 0.0 0.0
1.689 -0.053039778023958206 0.31376203894615173 0.1988784372806549 0.46596217155456543 0.0 0.0 0.0 0.0
1.69 -0.0410555861890316 0.3189895451068878 0.2136162370443344 0.45990076661109924 0.0 0.0 0.0 0.0
1.691 -0.028738176450133324 0.32002484798431396 0.22419339418411255 0.4550853669643402 0.0 0.0 0.0 0.0
1.692 -0.020669618621468544 0.322458416223526 0.24153129756450653 0.44599804282188416 0.0 0.0 0.0 0.0
1.693 -0.005640493705868721 0.3249641954898834 0.2561563551425934 0.43993568420410156 0.0 0.0 0.0 0.0
1.694 0.002599126659333706 0.32754725217819214 0.2638320028781891 0.438626229763031 0.0 0.0 0.0 0.0
1.695 0.018676266074180603 0.32808130979537964 0.288183331489563 0.4229144752025604 0.0 0.0 0.0 0.0
1.696 0.0250078272074461 0.3277393579483032 0.2906796932220459 0.4210290014743805 0.0 0.0 0.0 0.0
1.697 0.0395686961710453 0.32903432846069336 0.31131309270858765 0.41132423281669617 0.0 0.0 0.0 0.0
1.698 0.05245606601238251 0.32871702313423157 0.3192753791809082 0.40269550681114197 0.0 0.0 0.0 0.0
1.699 0.06112199276685715 0.3278576135635376 0.3372108042240143 0.3928176462650299 0.0 0.0 0.0 0.0
1.7 0.07437595725059509 0.3266647160053253 0.3486354649066925 0.37980976700782776 0.0 0.0 0.0 0.0
1.701 0.08747348934412003 0.32480400800704956 0.3626303970813751 0.37473931908607483 0.0 0.0 0.0 0.0
1.702 0.09629761427640915 0.32288283109664917 0.374397337436676 0.3581700325012207 0.0 0.0 0.0 0.0
1.703 0.10539894551038742 0.3206258714199066 0.3864744305610657 0.35259783267974854 0.0 0.0 0.0 0.0
1.704 0.12126097828149796 0.31418612599372864 0.401813805103302 0.33293163776397705 0.0 0.0 0.0 0.0
1.705 0.12631265819072723 0.31606778502464294 0.41007640957832336 0.3294690251350403 0.0 0.0 0.0 0.0
1.706 0.1400430053472519 0.3107140064239502 0.4262195825576782 0.3083234131336212 0.0 0.0 0.0 0.0
1.707 0.14800694584846497 0.3074662983417511 0.43155887722969055 0.2997850179672241 0.0 0.0 0.0 0.0
1.708 0.15899355709552765 0.30341747403144836 0.4483737349510193 0.284803569316864 0.0 0.0 0.0 0.0
1.709 0.16645783185958862 0.2993980646133423 0.4513448476791382 0.2713879346847534 0.0 0.0 0.0 0.0
1.71 0.17998641729354858 0.2954922616481781 0.46610674262046814 0.2554045617580414 0.0 0.0 0.0 0.0
1.711 0.18668505549430847 0.2897622585296631 0.47132882475852966 0.24560821056365967 0.0 0.0 0.0 0.0
1.712 0.1965560019016266 0.28684869408607483 0.4811965525150299 0.2281733751296997 0.0 0.0 0.0 0.0
1.713 0.20514190196990967 0.28016600012779236 0.48940423130989075 0.21246857941150665 0.0 0.0 0.0 0.0
1.714 0.2141946703195572 0.275309681892395 0.4966011047363281 0.2003285437822342 0.0 0.0 0.0 0.0
1.715 0.22442008554935455 0.2672180235385895 0.504787802696228 0.17940296232700348 0.0 0.0 0.0 0.0
1.716 0.22794610261917114 0.26576855778694153 0.5123864412307739 0.16614525020122528 0.0 0.0 0.0 0.0
1.717 0.2416582852602005 0.25298240780830383 0.521274209022522 0.14379894733428955 0.0 0.0 0.0 0.0
1.718 0.24607759714126587 0.24828213453292847 0.5243945121765137 0.1342991590499878 0.0 0.0 0.0 0.0
1.719 0.2577313184738159 0.238542839884758 0.5321765542030334 0.10814632475376129 0.0 0.0 0.0 0.0
1.72 0.26040491461753845 0.23234306275844574 0.5322410464286804 0.09949289262294769 0.0 0.0 0.0 0.0
1.721 0.26902279257774353 0.22532714903354645 0.5419336557388306 0.07440264523029327 0.0 0.0 0.0 0.0
1.722 0.27119001746177673 0.22240304946899414 0.5415700078010559 0.060455676168203354 0.0 0.0 0.0 0.0
1.723 0.28183385729789734 0.21207302808761597 0.5449681878089905 0.04087077081203461 0.0 0.0 0.0 0.0
1.724 0.2864234745502472 0.20308181643486023 0.5436311364173889 0.02266206406056881 0.0 0.0 0.0 0.0
1.725 0.29466161131858826 0.19510118663311005 0.5493428707122803 0.00631354283541441 0.0 0.0 0.0 0.0
1.726 0.2987959682941437 0.18763813376426697 0.5463542342185974 -0.015325365588068962 0.0 0.0 0.0 0.0
1.727 0.3040149509906769 0.1815289556980133 0.5514535307884216 -0.031475745141506195 0.0 0.0 0.0 0.0
1.728 0.3155909776687622 0.16223374009132385 0.5462338924407959 -0.05810784175992012 0.0 0.0 0.0 0.0
1.729 0.313726544380188 0.16524800658226013 0.5495327115058899 -0.06779726594686508 0.0 0.0 0.0 0.0
1.73 0.3196792006492615 0.15547630190849304 0.5455036759376526 -0.08971446007490158 0.0 0.0 0.0 0.0
1.731 0.32134848833084106 0.15153221786022186 0.5451949834823608 -0.09942515194416046 0.0 0.0 0.0 0.0
1.732 0.3265286982059479 0.1396654099225998 0.5380894541740417 -0.12736104428768158 0.0 0.0 0.0 0.0
1.733 0.33073025941848755 0.1326826512813568 0.5375809669494629 -0.13843032717704773 0.0 0.0 0.0 0.0
1.734 0.3359156847000122 0.12461669743061066 0.5323747992515564 -0.16169296205043793 0.0 0.0 0.0 0.0
1.735 0.33866557478904724 0.11409169435501099 0.5267190933227539 -0.17572714388370514 0.0 0.0 0.0 0.0
1.736 0.343444287776947 0.10540223121643066 0.521852433681488 -0.19979028403759003 0.0 0.0 0.0 0.0
1.737 0.34491080045700073 0.0991935208439827 0.512585461139679 -0.21134379506111145 0.0 0.0 0.0 0.0
1.738 0.34939536452293396 0.08830846846103668 0.5090676546096802 -0.23389405012130737 0.0 0.0 0.0 0.0
1.739 0.35233283042907715 0.07757531106472015 0.4971370995044708 -0.2524797022342682 0.0 0.0 0.0 0.0
1.74 0.3559947609901428 0.06753844022750854 0.49068573117256165 -0.2728230655193329 0.0 0.0 0.0 0.0
1.741 0.3574908375740051 0.06012750789523125 0.4820954203605652 -0.28558191657066345 0.0 0.0 0.0 0.0
1.742 0.3592458963394165 0.05392760410904884 0.47491249442100525 -0.2973558306694031 0.0 0.0 0.0 0.0
1.743 0.3617962598800659 0.04046003893017769 0.4591904580593109 -0.32109707593917847 0.0 0.0 0.0 0.0
1.744 0.36353549361228943 0.034528639167547226 0.45609766244888306 -0.32647454738616943 0.0 0.0 0.0 0.0
1.745 0.3657098412513733 0.0229690819978714 0.4422807991504669 -0.347927451133728 0.0 0.0 0.0 0.0
1.746 0.3677380084991455 0.012966994196176529 0.4310530424118042 -0.36130255460739136 0.0 0.0 0.0 0.0
1.747 0.3692728281021118 0.0025469139218330383 0.420158326625824 -0.3777189254760742 0.0 0.0 0.0 0.0
1.748 0.36722588539123535 -0.010714794509112835 0.40655162930488586 -0.39076316356658936 0.0 0.0 0.0 0.0
1.749 0.3689950108528137 -0.01611192524433136 0.39780107140541077 -0.40790054202079773 0.0 0.0 0.0 0.0
1.75 0.3669097125530243 -0.033499620854854584 0.3783058524131775 -0.4220263361930847 0.0 0.0 0.0 0.0
1.751 0.365967333316803 -0.03740975633263588 0.3707844614982605 -0.4298264682292938 0.0 0.0 0.0 0.0
1.752 0.36347511410713196 -0.05373675748705864 0.345660001039505 -0.44971537590026855 0.0 0.0 0.0 0.0
1.753 0.36384886503219604 -0.05837557837367058 0.3417106568813324 -0.4560473561286926 0.0 0.0 0.0 0.0
1.754 0.3606618344783783 -0.07149062305688858 0.3178708255290985 -0.4731643497943878 0.0 0.0 0.0 0.0
1.755 0.3617669939994812 -0.08136767894029617 0.30835363268852234 -0.4833321273326874 0.0 0.0 0.0 0.0
1.756 0.3579506278038025 -0.0940256118774414 0.2886633276939392 -0.49817392230033875 0.0 0.0 0.0 0.0
1.757 0.35418084263801575 -0.10202367603778839 0.27554449439048767 -0.5008787512779236 0.0 0.0 0.0 0.0
1.758 0.3542570471763611 -0.10924582928419113 0.25960999727249146 -0.5144192576408386 0.0 0.0 0.0 0.0
1.759 0.3486051559448242 -0.11883050203323364 0.240651935338974 -0.5190633535385132 0.0 0.0 0.0 0.0
1.76 0.34508320689201355 -0.1306479275226593 0.2194942682981491 -0.5312252044677734 0.0 0.0 0.0 0.0
1.761 0.34115907549858093 -0.13902686536312103 0.20152883231639862 -0.5373749136924744 0.0 0.0 0.0 0.0
1.762 0.33706697821617126 -0.1504620760679245 0.1829294115304947 -0.5432553887367249 0.0 0.0 0.0 0.0
1.763 0.3292969763278961 -0.16326375305652618 0.1617404967546463 -0.5507870316505432 0.0 0.0 0.0 0.0
1.764 0.32484903931617737 -0.17276813089847565 0.1477232128381729 -0.5569876432418823 0.0 0.0 0.0 0.0
1.765 0.31850406527519226 -0.18052604794502258 0.12169647961854935 -0.5600418448448181 0.0 0.0 0.0 0.0
1.766 0.31637677550315857 -0.18745815753936768 0.11409836262464523 -0.5659543871879578 0.0 0.0 0.0 0.0
1.767 0.30799633264541626 -0.19905023276805878 0.08553622663021088 -0.5701092481613159 0.0 0.0 0.0 0.0
1.768 0.3024498224258423 -0.20882649719715118 0.07264380156993866 -0.5722373723983765 0.0 0.0 0.0 0.0
1.769 0.2936115562915802 -0.21798157691955566 0.04440316557884216 -0.5764738917350769 0.0 0.0 0.0 0.0
1.77 0.29083937406539917 -0.22397132217884064 0.034122731536626816 -0.5749180316925049 0.0 0.0 0.0 0.0
1.771 0.28053754568099976 -0.2356463372707367 0.009160753339529037 -0.5777575969696045 0.0 0.0 0.0 0.0
1.772 0.2706567347049713 -0.24368824064731598 -0.008916927501559258 -0.5763000249862671 0.0 0.0 0.0 0.0
1.773 0.26326844096183777 -0.25292524695396423 -0.032479215413331985 -0.5768370032310486 0.0 0.0 0.0 0.0
1.774 0.25219452381134033 -0.26017576456069946 -0.047900550067424774 -0.5725836157798767 0.0 0.0 0.0 0.0
1.775 0.24550314247608185 -0.26820582151412964 -0.07215087115764618 -0.57332444190979 0.0 0.0 0.0 0.0
1.776 0.23704898357391357 -0.27135300636291504 -0.08502335101366043 -0.5681523680686951 0.0 0.0 0.0 0.0
1.777 0.22980746626853943 -0.27911826968193054 -0.10409942269325256 -0.570514440536499 0.0 0.0 0.0 0.0
1.778 0.21429798007011414 -0.28797072172164917 -0.1330837607383728 -0.5611699819564819 0.0 0.0 0.0 0.0
1.779 0.20729772746562958 -0.29131779074668884 -0.14518950879573822 -0.5592925548553467 0.0 0.0 0.0 0.0
1.78 0.19567421078681946 -0.3010304868221283 -0.1642349809408188 -0.5551121234893799 0.0 0.0 0.0 0.0
1.781 0.18799631297588348 -0.3020986318588257 -0.17785409092903137 -0.5503243207931519 0.0 0.0 0.0 0.0
1.782 0.16836011409759521 -0.3116927146911621 -0.21468083560466766 -0.537634015083313 0.0 0.0 0.0 0.0
1.783 0.16519460082054138 -0.30998942255973816 -0.21097226440906525 -0.5342737436294556 0.0 0.0 0.0 0.0
1.784 0.1480182558298111 -0.3202614486217499 -0.2428603172302246 -0.5243110060691833 0.0 0.0 0.0 0.0
1.785 0.14039483666419983 -0.32152634859085083 -0.2560577690601349 -0.5194219350814819 0.0 0.0 0.0 0.0
1.786 0.12252164632081985 -0.32623398303985596 -0.2819945216178894 -0.508190929889679 0.0 0.0 0.0 0.0
1.787 0.11374117434024811 -0.32736262679100037 -0.2900541126728058 -0.4978262782096863 0.0 0.0 0.0 0.0
1.788 0.10463675111532211 -0.3306114077568054 -0.30661460757255554 -0.4910562336444855 0.0 0.0 0.0 0.0
1.789 0.08877420425415039 -0.33092567324638367 -0.32738712430000305 -0.4741644263267517 0.0 0.0 0.0 0.0
1.79 0.07800446450710297 -0.3331860601902008 -0.3402343988418579 -0.46873942017555237 0.0 0.0 0.0 0.0
1.791 0.06142912805080414 -0.33534952998161316 -0.3633578419685364 -0.44997310638427734 0.0 0.0 0.0 0.0
1.792 0.05322590470314026 -0.3315669894218445 -0.3675057888031006 -0.44403210282325745 0.0 0.0 0.0 0.0
1.793 0.037401508539915085 -0.33180180191993713 -0.39157119393348694 -0.42557376623153687 0.0 0.0 0.0 0.0
1.794 0.02654002420604229 -0.33093592524528503 -0.39556753635406494 -0.4158393442630768 0.0 0.0 0.0 0.0
1.795 0.013801137916743755 -0.3333972692489624 -0.41951173543930054 -0.4001167416572571 0.0 0.0 0.0 0.0
1.796 -0.0005691302940249443 -0.3294704556465149 -0.4280517101287842 -0.38655388355255127 0.0 0.0 0.0 0.0
1.797 -0.009363885037600994 -0.3262957036495209 -0.44458091259002686 -0.3663279712200165 0.0 0.0 0.0 0.0
1.798 -0.022561723366379738 -0.3248763084411621 -0.45021820068359375 -0.35680606961250305 0.0 0.0 0.0 0.0
1.799 -0.03332924842834473 -0.32167109847068787 -0.46481049060821533 -0.34147682785987854 0.0 0.0 0.0 0.0
1.8 -0.04936550557613373 -0.31549498438835144 -0.4773980379104614 -0.3191831111907959 0.0 0.0 0.0 0.0
1.801 -0.05798923596739769 -0.3141272962093353 -0.4867701232433319 -0.3064916431903839 0.0 0.0 0.0 0.0
1.802 -0.07190670073032379 -0.31084978580474854 -0.4991264343261719 -0.2849346101284027 0.0 0.0 0.0 0.0
1.803 -0.07924595475196838 -0.30504074692726135 -0.49976029992103577 -0.2795664966106415 0.0 0.0 0.0 0.0
1.804 -0.09454742819070816 -0.3018043637275696 -0.5153122544288635 -0.25242066383361816 0.0 0.0 0.0 0.0
1.805 -0.10244964063167572 -0.29558271169662476 -0.5182611346244812 -0.24416287243366241 0.0 0.0 0.0 0.0
1.806 -0.11694210767745972 -0.2892383635044098 -0.5294278860092163 -0.21584929525852203 0.0 0.0 0.0 0.0
1.807 -0.12584036588668823 -0.28048861026763916 -0.5319522619247437 -0.20350264012813568 0.0 0.0 0.0 0.0
1.808 -0.13630369305610657 -0.27639251947402954 -0.5422598123550415 -0.18256239593029022 0.0 0.0 0.0 0.0
1.809 -0.15073974430561066 -0.26651260256767273 -0.5440013408660889 -0.1692793369293213 0.0 0.0 0.0 0.0
1.81 -0.15752838551998138 -0.26164451241493225 -0.5501405000686646 -0.14927969872951508 0.0 0.0 0.0 0.0
1.811 -0.16711705923080444 -0.2518685758113861 -0.5541102886199951 -0.12953385710716248 0.0 0.0 0.0 0.0
1.812 -0.1772995889186859 -0.24488502740859985 -0.5590439438819885 -0.11892709881067276 0.0 0.0 0.0 0.0
1.813 -0.1868221014738083 -0.23462235927581787 -0.5632395148277283 -0.09000980108976364 0.0 0.0 0.0 0.0
1.814 -0.19239380955696106 -0.22800512611865997 -0.5623058080673218 -0.083992600440979 0.0 0.0 0.0 0.0
1.815 -0.20271655917167664 -0.21794424951076508 -0.5686972737312317 -0.05529676750302315 0.0 0.0 0.0 0.0
1.816 -0.20949873328208923 -0.2081141620874405 -0.5670725107192993 -0.043027859181165695 0.0 0.0 0.0 0.0
1.817 -0.21874995529651642 -0.19613564014434814 -0.567784309387207 -0.014971822500228882 0.0 0.0 0.0 0.0
1.818 -0.22239041328430176 -0.1912819743156433 -0.5684840679168701 -0.010459890589118004 0.0 0.0 0.0 0.0
1.819 -0.23371075093746185 -0.17524269223213196 -0.570254921913147 0.022288352251052856 0.0 0.0 0.0 0.0
1.82 -0.24029871821403503 -0.16668543219566345 -0.5686865448951721 0.027121873572468758 0.0 0.0 0.0 0.0
1.821 -0.24646823108196259 -0.15528075397014618 -0.5674518346786499 0.056681953370571136 0.0 0.0 0.0 0.0
1.822 -0.25153350830078125 -0.14644400775432587 -0.5650023818016052 0.0641140565276146 0.0 0.0 0.0 0.0
1.823 -0.25768110156059265 -0.13227087259292603 -0.5630297064781189 0.09185877442359924 0.0 0.0 0.0 0.0
1.824 -0.26341137290000916 -0.11555832624435425 -0.5580074191093445 0.10807055234909058 0.0 0.0 0.0 0.0
1.825 -0.26516249775886536 -0.11211297661066055 -0.5580286383628845 0.11928889900445938 0.0 0.0 0.0 0.0
1.826 -0.2683948874473572 -0.09576284885406494 -0.5496478080749512 0.14421243965625763 0.0 0.0 0.0 0.0
1.827 -0.2735441327095032 -0.08792225271463394 -0.5535759925842285 0.15411780774593353 0.0 0.0 0.0 0.0
1.828 -0.27552518248558044 -0.07101985812187195 -0.5409558415412903 0.18150858581066132 0.0 0.0 0.0 0.0
1.829 -0.2769725024700165 -0.0635688304901123 -0.5384905338287354 0.18854516744613647 0.0 0.0 0.0 0.0
1.83 -0.28039902448654175 -0.0490981787443161 -0.5308082103729248 0.21524792909622192 0.0 0.0 0.0 0.0
1.831 -0.278965562582016 -0.0391056127846241 -0.5272831320762634 0.22337259352207184 0.0 0.0 0.0 0.0
1.832 -0.28158342838287354 -0.02507285587489605 -0.5144338607788086 0.24885597825050354 0.0 0.0 0.0 0.0
1.833 -0.2807192802429199 -0.011883800849318504 -0.5108188390731812 0.25876984000205994 0.0 0.0 0.0 0.0
1.834 -0.2816483974456787 -0.0019666776061058044 -0.5004585385322571 0.28488868474960327 0.0 0.0 0.0 0.0
1.835 -0.2824089229106903 0.0118363406509161 -0.4921533167362213 0.29655006527900696 0.0 0.0 0.0 0.0
1.836 -0.2812805771827698 0.021875398233532906 -0.4789416491985321 0.31457728147506714 0.0 0.0 0.0 0.0
1.837 -0.2805821895599365 0.03500868007540703 -0.4680786430835724 0.33057335019111633 0.0 0.0 0.0 0.0
1.838 -0.2793262302875519 0.04230004549026489 -0.4640510678291321 0.34011879563331604 0.0 0.0 0.0 0.0
1.839 -0.27569130063056946 0.05891464278101921 -0.44609805941581726 0.36102908849716187 0.0 0.0 0.0 0.0
1.84 -0.2733129560947418 0.06634729355573654 -0.4374680519104004 0.36892399191856384 0.0 0.0 0.0 0.0
1.841 -0.27228981256484985 0.08311211317777634 -0.42404863238334656 0.3927939236164093 0.0 0.0 0.0 0.0
1.842 -0.2691994309425354 0.09053054451942444 -0.41680240631103516 0.39836016297340393 0.0 0.0 0.0 0.0
1.843 -0.26557356119155884 0.10085045546293259 -0.39601582288742065 0.4186359643936157 0.0 0.0 0.0 0.0
1.844 -0.26089197397232056 0.11208463460206985 -0.3913425803184509 0.42614826560020447 0.0 0.0 0.0 0.0
1.845 -0.2581133246421814 0.12101925164461136 -0.37731438875198364 0.43944063782691956 0.0 0.0 0.0 0.0
1.846 -0.25019365549087524 0.13449224829673767 -0.3587808310985565 0.45372211933135986 0.0 0.0 0.0 0.0
1.847 -0.24692422151565552 0.14228790998458862 -0.35126587748527527 0.4660889506340027 0.0 0.0 0.0 0.0
1.848 -0.2376779317855835 0.15506958961486816 -0.3241924047470093 0.4780120253562927 0.0 0.0 0.0 0.0
1.849 -0.2364865094423294 0.15915171802043915 -0.3228026032447815 0.4866670072078705 0.0 0.0 0.0 0.0
1.85 -0.22816158831119537 0.1694873869419098 -0.29540136456489563 0.5019153356552124 0.0 0.0 0.0 0.0
1.851 -0.22368831932544708 0.1766366958618164 -0.2860264480113983 0.5099145174026489 0.0 0.0 0.0 0.0
1.852 -0.21738587319850922 0.18758897483348846 -0.26211947202682495 0.523518443107605 0.0 0.0 0.0 0.0
1.853 -0.21166913211345673 0.19282123446464539 -0.25386953353881836 0.5270440578460693 0.0 0.0 0.0 0.0
1.854 -0.2036641538143158 0.2025277316570282 -0.22705134749412537 0.5389181971549988 0.0 0.0 0.0 0.0
1.855 -0.19631804525852203 0.20952655375003815 -0.21617348492145538 0.5448722243309021 0.0 0.0 0.0 0.0
1.856 -0.18934769928455353 0.21632421016693115 -0.19210119545459747 0.5571975708007812 0.0 0.0 0.0 0.0
1.857 -0.1801104098558426 0.22454598546028137 -0.17997021973133087 0.5572150349617004 0.0 0.0 0.0 0.0
1.858 -0.17365479469299316 0.2291393280029297 -0.15407994389533997 0.5653882026672363 0.0 0.0 0.0 0.0
1.859 -0.16603471338748932 0.23494365811347961 -0.1390925645828247 0.5722478032112122 0.0 0.0 0.0 0.0
1.86 -0.15788136422634125 0.2432904839515686 -0.12111731618642807 0.5833131074905396 0.0 0.0 0.0 0.0
1.861 -0.1486428827047348 0.24587246775627136 -0.0995926633477211 0.5799611806869507 0.0 0.0 0.0 0.0
1.862 -0.14509542286396027 0.24928753077983856 -0.08702431619167328 0.5873569250106812 0.0 0.0 0.0 0.0
1.863 -0.13429506123065948 0.25569966435432434 -0.06002560257911682 0.5899228453636169 0.0 0.0 0.0 0.0
1.864 -0.12832830846309662 0.26134225726127625 -0.04594286158680916 0.5952985286712646 0.0 0.0 0.0 0.0
1.865 -0.11847016215324402 0.2660782039165497 -0.012373973615467548 0.5966647267341614 0.0 0.0 0.0 0.0
1.866 -0.11540442705154419 0.26736846566200256 -0.006569543853402138 0.5968857407569885 0.0 0.0 0.0 0.0
1.867 -0.1028946042060852 0.2735474407672882 0.022497938945889473 0.5982335805892944 0.0 0.0 0.0 0.0
1.868 -0.09751944988965988 0.27688074111938477 0.03144365921616554 0.5971171259880066 0.0 0.0 0.0 0.0
1.869 -0.08727099001407623 0.2796582579612732 0.06149617210030556 0.5983116030693054 0.0 0.0 0.0 0.0
1.87 -0.07996264845132828 0.2806219756603241 0.07497286051511765 0.5896216034889221 0.0 0.0 0.0 0.0
1.871 -0.07361467182636261 0.285505473613739 0.10173103213310242 0.5929975509643555 0.0 0.0 0.0 0.0
1.872 -0.0663093850016594 0.2867792546749115 0.11738262325525284 0.5886920094490051 0.0 0.0 0.0 0.0
1.873 -0.057403091341257095 0.2906196117401123 0.13807502388954163 0.5896720886230469 0.0 0.0 0.0 0.0
1.874 -0.05075930058956146 0.2913125455379486 0.15848217904567719 0.5801540017127991 0.0 0.0 0.0 0.0
1.875 -0.04519743099808693 0.2938656210899353 0.17671088874340057 0.5775920152664185 0.0 0.0 0.0 0.0
1.876 -0.037796542048454285 0.2965719997882843 0.19424930214881897 0.5699827075004578 0.0 0.0 0.0 0.0
1.877 -0.030994433909654617 0.29725325107574463 0.21642503142356873 0.565464437007904 0.0 0.0 0.0 0.0
1.878 -0.021411841735243797 0.2986030578613281 0.23614373803138733 0.5572956204414368 0.0 0.0 0.0 0.0
1.879 -0.01681036502122879 0.29933100938796997 0.24933244287967682 0.5512155890464783 0.0 0.0 0.0 0.0
1.88 -0.004077162593603134 0.3012855648994446 0.27892011404037476 0.5413385629653931 0.0 0.0 0.0 0.0
1.881 -0.00027425866574048996 0.30295246839523315 0.28971871733665466 0.5369738936424255 0.0 0.0 0.0 0.0
1.882 0.007640699855983257 0.30400457978248596 0.3121405243873596 0.5231137871742249 0.0 0.0 0.0 0.0
1.883 0.018078986555337906 0.30349332094192505 0.3268528878688812 0.5124459266662598 0.0 0.0 0.0 0.0
1.884 0.022775286808609962 0.3011661469936371 0.3487042784690857 0.4998685419559479 0.0 0.0 0.0 0.0
1.885 0.033302947878837585 0.3033169209957123 0.3628254532814026 0.492972195148468 0.0 0.0 0.0 0.0
1.886 0.039991430938243866 0.30333468317985535 0.38573986291885376 0.4776933789253235 0.0 0.0 0.0 0.0
1.887 0.04786805436015129 0.302957683801651 0.39873161911964417 0.46610018610954285 0.0 0.0 0.0 0.0
1.888 0.05227367952466011 0.30303752422332764 0.4156685471534729 0.45380619168281555 0.0 0.0 0.0 0.0
1.889 0.060459285974502563 0.30056723952293396 0.4336918294429779 0.4381352961063385 0.0 0.0 0.0 0.0
1.89 0.0657360702753067 0.2999603748321533 0.44412750005722046 0.42753562331199646 0.0 0.0 0.0 0.0
1.891 0.07420194149017334 0.29916107654571533 0.4655636250972748 0.404827743768692 0.0 0.0 0.0 0.0
1.892 0.07866726070642471 0.29866477847099304 0.4708542227745056 0.39760100841522217 0.0 0.0 0.0 0.0
1.893 0.08226161450147629 0.2993122637271881 0.49215373396873474 0.37132540345191956 0.0 0.0 0.0 0.0
1.894 0.0881304070353508 0.2975713908672333 0.4982225000858307 0.36412662267684937 0.0 0.0 0.0 0.0
1.895 0.09781375527381897 0.2967727780342102 0.5184369087219238 0.3391944169998169 0.0 0.0 0.0 0.0
1.896 0.1067303791642189 0.29731643199920654 0.5242652297019958 0.32546544075012207 0.0 0.0 0.0 0.0
1.897 0.1085343062877655 0.29777655005455017 0.5337769985198975 0.31390923261642456 0.0 0.0 0.0 0.0
1.898 0.11911827325820923 0.29508909583091736 0.5486104488372803 0.28270697593688965 0.0 0.0 0.0 0.0
1.899 0.12530410289764404 0.29337286949157715 0.555895984172821 0.27122488617897034 0.0 0.0 0.0 0.0
1.9 0.13224859535694122 0.2921673655509949 0.5688820481300354 0.24561141431331635 0.0 0.0 0.0 0.0
1.901 0.13706673681735992 0.29222193360328674 0.5743712782859802 0.23399420082569122 0.0 0.0 0.0 0.0
1.902 0.1469239443540573 0.2906826436519623 0.5823265910148621 0.20710062980651855 0.0 0.0 0.0 0.0
1.903 0.14829543232917786 0.28859323263168335 0.5882622599601746 0.19404086470603943 0.0 0.0 0.0 0.0
1.904 0.15945570170879364 0.2858709692955017 0.6001865863800049 0.16739267110824585 0.0 0.0 0.0 0.0
1.905 0.1633431762456894 0.2851496934890747 0.6021825671195984 0.15721039474010468 0.0 0.0 0.0 0.0
1.906 0.17343154549598694 0.28479960560798645 0.6093643307685852 0.12882351875305176 0.0 0.0 0.0 0.0
1.907 0.1780494600534439 0.28218814730644226 0.6087015271186829 0.11624764651060104 0.0 0.0 0.0 0.0
1.908 0.18588285148143768 0.277057409286499 0.6145890355110168 0.08757664263248444 0.0 0.0 0.0 0.0
1.909 0.19424009323120117 0.27613553404808044 0.6151770949363708 0.0693403035402298 0.0 0.0 0.0 0.0
1.91 0.199722558259964 0.27397096157073975 0.6226691007614136 0.0453031025826931 0.0 0.0 0.0 0.0
1.911 0.20844191312789917 0.2686758041381836 0.6212822794914246 0.02602924406528473 0.0 0.0 0.0 0.0
1.912 0.21108897030353546 0.2685474753379822 0.624625563621521 0.01257718913257122 0.0 0.0 0.0 0.0
1.913 0.22462573647499084 0.26182159781455994 0.6254466772079468 -0.020268164575099945 0.0 0.0 0.0 0.0
1.914 0.22668486833572388 0.2624240517616272 0.6228654980659485 -0.030680570751428604 0.0 0.0 0.0 0.0
1.915 0.23636744916439056 0.2546743154525757 0.6207414865493774 -0.06289655715227127 0.0 0.0 0.0 0.0
1.916 0.2436860054731369 0.25240689516067505 0.6205042004585266 -0.0754036232829094 0.0 0.0 0.0 0.0
1.917 0.251444011926651 0.24516068398952484 0.6199250817298889 -0.10483536869287491 0.0 0.0 0.0 0.0
1.918 0.25660139322280884 0.24251694977283478 0.6134629249572754 -0.1174652948975563 0.0 0.0 0.0 0.0
1.919 0.26558446884155273 0.2345484346151352 0.6108681559562683 -0.15437352657318115 0.0 0.0 0.0 0.0
1.92 0.2745058536529541 0.22770102322101593 0.6019532084465027 -0.1637895107269287 0.0 0.0 0.0 0.0
1.921 0.27643021941185 0.2286471426486969 0.6026644706726074 -0.17828640341758728 0.0 0.0 0.0 0.0
1.922 0.28480711579322815 0.21811595559120178 0.5884373784065247 -0.20593924820423126 0.0 0.0 0.0 0.0
1.923 0.2919948995113373 0.2119424045085907 0.5865858197212219 -0.2237740457057953 0.0 0.0 0.0 0.0
1.924 0.2994062602519989 0.20306715369224548 0.5783339142799377 -0.24910731613636017 0.0 0.0 0.0 0.0
1.925 0.3032406270503998 0.2022060602903366 0.5668737888336182 -0.2729278802871704 0.0 0.0 0.0 0.0
1.926 0.31406211853027344 0.18857264518737793 0.5599433183670044 -0.2913846969604492 0.0 0.0 0.0 0.0
1.927 0.31741565465927124 0.18222936987876892 0.5503203868865967 -0.297228068113327 0.0 0.0 0.0 0.0
1.928 0.3232903778553009 0.17654652893543243 0.540002703666687 -0.3263634145259857 0.0 0.0 0.0 0.0
1.929 0.3279017210006714 0.168638676404953 0.5290514826774597 -0.34012848138809204 0.0 0.0 0.0 0.0
1.93 0.3342468738555908 0.1582605242729187 0.5212677717208862 -0.36017248034477234 0.0 0.0 0.0 0.0
1.931 0.3380328416824341 0.15033464133739471 0.5008203387260437 -0.37349438667297363 0.0 0.0 0.0 0.0
1.932 0.34349915385246277 0.14228107035160065 0.4895551800727844 -0.390358030796051 0.0 0.0 0.0 0.0
1.933 0.3495398461818695 0.12867233157157898 0.47645479440689087 -0.41103190183639526 0.0 0.0 0.0 0.0
1.934 0.3516919016838074 0.12385907769203186 0.47097811102867126 -0.4216359555721283 0.0 0.0 0.0 0.0
1.935 0.35759034752845764 0.10686994343996048 0.4456273317337036 -0.4490717947483063 0.0 0.0 0.0 0.0
1.936 0.35934069752693176 0.10133767873048782 0.4406404197216034 -0.45560067892074585 0.0 0.0 0.0 0.0
1.937 0.3634563684463501 0.088741734623909 0.4147713780403137 -0.4757263660430908 0.0 0.0 0.0 0.0
1.938 0.3639213740825653 0.08045773208141327 0.40879762172698975 -0.48338407278060913 0.0 0.0 0.0 0.0
1.939 0.3658740520477295 0.06637008488178253 0.3825572729110718 -0.5038560628890991 0.0 0.0 0.0 0.0
1.94 0.3678886890411377 0.05356309935450554 0.3665027916431427 -0.5184049606323242 0.0 0.0 0.0 0.0
1.941 0.3681924045085907 0.04450007900595665 0.35427841544151306 -0.527611494064331 0.0 0.0 0.0 0.0
1.942 0.3687354326248169 0.029185956344008446 0.33077526092529297 -0.5439786314964294 0.0 0.0 0.0 0.0
1.943 0.3689366281032562 0.021906375885009766 0.31575217843055725 -0.5519768595695496 0.0 0.0 0.0 0.0
1.944 0.36859479546546936 0.008970907889306545 0.29338833689689636 -0.5626079440116882 0.0 0.0 0.0 0.0
1.945 0.3674220144748688 -0.0015126578509807587 0.2759210765361786 -0.5683029890060425 0.0 0.0 0.0 0.0
1.946 0.3653066158294678 -0.015509996563196182 0.2520080506801605 -0.5815402269363403 0.0 0.0 0.0 0.0
1.947 0.3628711402416229 -0.025426646694540977 0.23833376169204712 -0.5877554416656494 0.0 0.0 0.0 0.0
1.948 0.3600018322467804 -0.038530945777893066 0.2062050998210907 -0.5990793108940125 0.0 0.0 0.0 0.0
1.949 0.3566042482852936 -0.05088931322097778 0.19552014768123627 -0.6020193696022034 0.0 0.0 0.0 0.0
1.95 0.3542938232421875 -0.05992230027914047 0.16451871395111084 -0.6106890439987183 0.0 0.0 0.0 0.0
1.951 0.34794989228248596 -0.07459608465433121 0.1519804298877716 -0.6149110198020935 0.0 0.0 0.0 0.0
1.952 0.3461601436138153 -0.08579123765230179 0.12279240041971207 -0.6211760640144348 0.0 0.0 0.0 0.0
1.953 0.3403778672218323 -0.09578970074653625 0.10559483617544174 -0.6240111589431763 0.0 0.0 0.0 0.0
1.954 0.335215300321579 -0.10765554755926132 0.08312476426362991 -0.6264194250106812 0.0 0.0 0.0 0.0
1.955 0.3279315233230591 -0.11967172473669052 0.05828327685594559 -0.6295059323310852 0.0 0.0 0.0 0.0
1.956 0.32187795639038086 -0.12628784775733948 0.03449825569987297 -0.6296883821487427 0.0 0.0 0.0 0.0
1.957 0.3138556480407715 -0.13784126937389374 0.010133255273103714 -0.6258240938186646 0.0 0.0 0.0 0.0
1.958 0.30770671367645264 -0.14614059031009674 -0.003830285742878914 -0.6289241909980774 0.0 0.0 0.0 0.0
1.959 0.29882362484931946 -0.16046306490898132 -0.03120218776166439 -0.6286506056785583 0.0 0.0 0.0 0.0
1.96 0.29231327772140503 -0.16795900464057922 -0.04545700550079346 -0.6278469562530518 0.0 0.0 0.0 0.0
1.961 0.28141599893569946 -0.17757776379585266 -0.0774376317858696 -0.6209506392478943 0.0 0.0 0.0 0.0
1.962 0.2724015414714813 -0.1852167248725891 -0.08960197865962982 -0.6212095618247986 0.0 0.0 0.0 0.0
1.963 0.2635100781917572 -0.1937960982322693 -0.12135614454746246 -0.6173297762870789 0.0 0.0 0.0 0.0
1.964 0.2523311376571655 -0.20120996236801147 -0.1330234557390213 -0.6111664772033691 0.0 0.0 0.0 0.0
1.965 0.24468930065631866 -0.20746736228466034 -0.15739528834819794 -0.6084161996841431 0.0 0.0 0.0 0.0
1.966 0.23095354437828064 -0.21663841605186462 -0.1816827952861786 -0.5949752330780029 0.0 0.0 0.0 0.0
1.967 0.22512613236904144 -0.2224118709564209 -0.194217249751091 -0.5932502746582031 0.0 0.0 0.0 0.0
1.968 0.2097540944814682 -0.23198167979717255 -0.21674910187721252 -0.5775063037872314 0.0 0.0 0.0 0.0
1.969 0.2007446587085724 -0.23552681505680084 -0.23336003720760345 -0.5762061476707458 0.0 0.0 0.0 0.0
1.97 0.18633277714252472 -0.2414086014032364 -0.2611227333545685 -0.560852587223053 0.0 0.0 0.0 0.0
1.971 0.17958621680736542 -0.24431414902210236 -0.27496403455734253 -0.5558367371559143 0.0 0.0 0.0 0.0
1.972 0.16412009298801422 -0.2516266703605652 -0.29314157366752625 -0.5462291836738586 0.0 0.0 0.0 0.0
1.973 0.1503579318523407 -0.2554587721824646 -0.30513516068458557 -0.5349740982055664 0.0 0.0 0.0 0.0
1.974 0.1408953070640564 -0.25862547755241394 -0.32700827717781067 -0.521296501159668 0.0 0.0 0.0 0.0
1.975 0.12761765718460083 -0.26329001784324646 -0.3416956067085266 -0.5142818093299866 0.0 0.0 0.0 0.0
1.976 0.11435923725366592 -0.26484212279319763 -0.35659709572792053 -0.5007754564285278 0.0 0.0 0.0 0.0
1.977 0.09897840768098831 -0.26728448271751404 -0.37365269660949707 -0.486354798078537 0.0 0.0 0.0 0.0
1.978 0.08836793154478073 -0.2675582468509674 -0.388041228055954 -0.4753870964050293 0.0 0.0 0.0 0.0
1.979 0.07323165237903595 -0.26921018958091736 -0.40854355692863464 -0.4556683301925659 0.0 0.0 0.0 0.0
1.98 0.06271713227033615 -0.2710493206977844 -0.413246214389801 -0.45191437005996704 0.0 0.0 0.0 0.0
1.981 0.04397568106651306 -0.2710973918437958 -0.4365123212337494 -0.42939162254333496 0.0 0.0 0.0 0.0
1.982 0.0324474535882473 -0.2677874267101288 -0.44612422585487366 -0.41896766424179077 0.0 0.0 0.0 0.0
1.983 0.01718956045806408 -0.2660180330276489 -0.46726012229919434 -0.3965367376804352 0.0 0.0 0.0 0.0
1.984 0.005365762859582901 -0.26385802030563354 -0.47200503945350647 -0.3894038200378418 0.0 0.0 0.0 0.0
1.985 -0.009517960250377655 -0.2608041763305664 -0.4907664656639099 -0.3704439699649811 0.0 0.0 0.0 0.0
1.986 -0.01962333545088768 -0.2585175037384033 -0.49271103739738464 -0.3556523323059082 0.0 0.0 0.0 0.0
1.987 -0.032834433019161224 -0.2536836862564087 -0.5122624039649963 -0.3340741693973541 0.0 0.0 0.0 0.0
1.988 -0.04621587321162224 -0.25049299001693726 -0.518557071685791 -0.3189828097820282 0.0 0.0 0.0 0.0
1.989 -0.05815962329506874 -0.24587585031986237 -0.5303224921226501 -0.3037111759185791 0.0 0.0 0.0 0.0
1.99 -0.07303722947835922 -0.23814547061920166 -0.5397308468818665 -0.2794179618358612 0.0 0.0 0.0 0.0
1.991 -0.08056467771530151 -0.23401492834091187 -0.5465201735496521 -0.26977935433387756 0.0 0.0 0.0 0.0
1.992 -0.09411225467920303 -0.2258666455745697 -0.5548949837684631 -0.24132390320301056 0.0 0.0 0.0 0.0
1.993 -0.10543214529752731 -0.2196798026561737 -0.5632566809654236 -0.2302890121936798 0.0 0.0 0.0 0.0
1.994 -0.11735672503709793 -0.21314190328121185 -0.5723989605903625 -0.2017286866903305 0.0 0.0 0.0 0.0
1.995 -0.12723353505134583 -0.2023676335811615 -0.5763199925422668 -0.18743909895420074 0.0 0.0 0.0 0.0
1.996 -0.13900522887706757 -0.19678926467895508 -0.5865126252174377 -0.16285330057144165 0.0 0.0 0.0 0.0
1.997 -0.14621292054653168 -0.1872662603855133 -0.5843964219093323 -0.15535899996757507 0.0 0.0 0.0 0.0
1.998 -0.15493153035640717 -0.17826193571090698 -0.5935473442077637 -0.12450417876243591 0.0 0.0 0.0 0.0
1.999 -0.16332578659057617 -0.16721324622631073 -0.5942040681838989 -0.11178391426801682 0.0 0.0 0.0 0.0
2.0 -0.17237506806850433 -0.15782594680786133 -0.6010403633117676 -0.0828314870595932 0.0 0.0 0.0 0.0
2.001 -0.17785696685314178 -0.15166491270065308 -0.5999260544776917 -0.0805961936712265 0.0 0.0 0.0 0.0
2.002 -0.18805241584777832 -0.13759540021419525 -0.5991891622543335 -0.042088188230991364 0.0 0.0 0.0 0.0
2.003 -0.19373281300067902 -0.12962087988853455 -0.5997129082679749 -0.030183929949998856 0.0 0.0 0.0 0.0
2.004 -0.20292074978351593 -0.11508423835039139 -0.600433349609375 -0.00435820035636425 0.0 0.0 0.0 0.0
2.005 -0.2074807584285736 -0.10799388587474823 -0.6015726923942566 0.007216286845505238 0.0 0.0 0.0 0.0
2.006 -0.2146591991186142 -0.09894900023937225 -0.5998237729072571 0.030922502279281616 0.0 0.0 0.0 0.0
2.007 -0.21996848285198212 -0.08889544755220413 -0.5994676947593689 0.04213723912835121 0.0 0.0 0.0 0.0
2.008 -0.2256426364183426 -0.07663251459598541 -0.5958796143531799 0.07266135513782501 0.0 0.0 0.0 0.0
2.009 -0.22777509689331055 -0.06786095350980759 -0.592755138874054 0.08239451050758362 0.0 0.0 0.0 0.0
2.01 -0.23391093313694 -0.05434277653694153 -0.5911869406700134 0.11175882071256638 0.0 0.0 0.0 0.0
2.011 -0.23737019300460815 -0.04144783690571785 -0.5871894955635071 0.1248074397444725 0.0 0.0 0.0 0.0
2.012 -0.24167045950889587 -0.029466889798641205 -0.5849833488464355 0.14617815613746643 0.0 0.0 0.0 0.0
2.013 -0.24275951087474823 -0.018502866849303246 -0.5772895812988281 0.16486772894859314 0.0 0.0 0.0 0.0
2.014 -0.24571003019809723 -0.008344496600329876 -0.5744160413742065 0.1815231889486313 0.0 0.0 0.0 0.0
2.015 -0.2479252815246582 0.00535871647298336 -0.5664764046669006 0.20138180255889893 0.0 0.0 0.0 0.0
2.016 -0.24856825172901154 0.014174207113683224 -0.5647565126419067 0.21919894218444824 0.0 0.0 0.0 0.0
2.017 -0.24939179420471191 0.030156098306179047 -0.5491200089454651 0.24613457918167114 0.0 0.0 0.0 0.0
2.018 -0.2508292496204376 0.03684364631772041 -0.5483923554420471 0.2508389353752136 0.0 0.0 0.0 0.0
2.019 -0.24935609102249146 0.049487240612506866 -0.5368598699569702 0.27799999713897705 0.0 0.0 0.0 0.0
2.02 -0.24854373931884766 0.05952191352844238 -0.5264254212379456 0.28810226917266846 0.0 0.0 0.0 0.0
2.021 -0.24749845266342163 0.07137899100780487 -0.5144551396369934 0.3129201829433441 0.0 0.0 0.0 0.0
2.022 -0.24649110436439514 0.08254741877317429 -0.5078244805335999 0.32347074151039124 0.0 0.0 0.0 0.0
2.023 -0.24482505023479462 0.09292382001876831 -0.492992639541626 0.3453454077243805 0.0 0.0 0.0 0.0
2.024 -0.24090318381786346 0.10298279672861099 -0.4829869270324707 0.35805243253707886 0.0 0.0 0.0 0.0
2.025 -0.2419472634792328 0.11286675930023193 -0.47264769673347473 0.3765742778778076 0.0 0.0 0.0 0.0
2.026 -0.23746861517429352 0.1245666965842247 -0.45636987686157227 0.39522403478622437 0.0 0.0 0.0 0.0
2.027 -0.23544219136238098 0.13146647810935974 -0.44878458976745605 0.4045913517475128 0.0 0.0 0.0 0.0
2.028 -0.23155748844146729 0.14225484430789948 -0.43193137645721436 0.4217282831668854 0.0 0.0 0.0 0.0
2.029 -0.2286210060119629 0.14855681359767914 -0.41983145475387573 0.43691307306289673 0.0 0.0 0.0 0.0
2.03 -0.22274796664714813 0.15852327644824982 -0.40429627895355225 0.44794175028800964 0.0 0.0 0.0 0.0
2.031 -0.22092214226722717 0.16704094409942627 -0.39432209730148315 0.4636353552341461 0.0 0.0 0.0 0.0
2.032 -0.21554598212242126 0.17859117686748505 -0.37354859709739685 0.47995901107788086 0.0 0.0 0.0 0.0
2.033 -0.21171337366104126 0.18358927965164185 -0.3648025095462799 0.48549357056617737 0.0 0.0 0.0 0.0
2.034 -0.2042870819568634 0.1948150396347046 -0.3408486247062683 0.5070250034332275 0.0 0.0 0.0 0.0
2.035 -0.19916410744190216 0.20225614309310913 -0.32856285572052 0.5129883289337158 0.0 0.0 0.0 0.0
2.036 -0.19543537497520447 0.20754007995128632 -0.30583396553993225 0.528034508228302 0.0 0.0 0.0 0.0
2.037 -0.1897328943014145 0.21464216709136963 -0.29340195655822754 0.5329315662384033 0.0 0.0 0.0 0.0
2.038 -0.18458381295204163 0.22081226110458374 -0.27266818284988403 0.5470000505447388 0.0 0.0 0.0 0.0
2.039 -0.17943094670772552 0.22663265466690063 -0.26473063230514526 0.5513893961906433 0.0 0.0 0.0 0.0
2.04 -0.17204758524894714 0.2332051545381546 -0.2382803112268448 0.5611759424209595 0.0 0.0 0.0 0.0
2.041 -0.16600292921066284 0.24130825698375702 -0.21465817093849182 0.573440670967102 0.0 0.0 0.0 0.0
2.042 -0.16099326312541962 0.2445642203092575 -0.20260319113731384 0.5773597955703735 0.0 0.0 0.0 0.0
2.043 -0.1526726633310318 0.2529236972332001 -0.17114266753196716 0.5869181752204895 0.0 0.0 0.0 0.0
2.044 -0.14846234023571014 0.25535300374031067 -0.1633961945772171 0.5923128128051758 0.0 0.0 0.0 0.0
2.045 -0.14068154990673065 0.26159441471099854 -0.13447318971157074 0.6010579466819763 0.0 0.0 0.0 0.0
2.046 -0.1362992823123932 0.2626928687095642 -0.12067337334156036 0.6000866293907166 0.0 0.0 0.0 0.0
2.047 -0.13103628158569336 0.2675369083881378 -0.09242060035467148 0.6065419316291809 0.0 0.0 0.0 0.0
2.048 -0.1234508603811264 0.27124807238578796 -0.07831241190433502 0.607742428779602 0.0 0.0 0.0 0.0
2.049 -0.11869350075721741 0.27540451288223267 -0.05460171774029732 0.6132467985153198 0.0 0.0 0.0 0.0
2.05 -0.11121071875095367 0.27617111802101135 -0.030477361753582954 0.6108729839324951 0.0 0.0 0.0 0.0
2.051 -0.10873297601938248 0.28036636114120483 -0.014218270778656006 0.6150596737861633 0.0 0.0 0.0 0.0
2.052 -0.10006248950958252 0.284914493560791 0.012548422440886497 0.6175374388694763 0.0 0.0 0.0 0.0
2.053 -0.09822205454111099 0.28711989521980286 0.02667420729994774 0.6145864129066467 0.0 0.0 0.0 0.0
2.054 -0.09110813587903976 0.289879709482193 0.054415106773376465 0.6116094589233398 0.0 0.0 0.0 0.0
2.055 -0.08678487688302994 0.2918941378593445 0.06894998997449875 0.6104583144187927 0.0 0.0 0.0 0.0
2.056 -0.08189773559570312 0.295817106962204 0.0967218279838562 0.6074694991111755 0.0 0.0 0.0 0.0
2.057 -0.07639341056346893 0.2973112463951111 0.11062044650316238 0.6043732166290283 0.0 0.0 0.0 0.0
2.058 -0.06869600713253021 0.2995777428150177 0.140155628323555 0.6008515954017639 0.0 0.0 0.0 0.0
2.059 -0.06614113599061966 0.3033953011035919 0.15204057097434998 0.5951118469238281 0.0 0.0 0.0 0.0
2.06 -0.061226699501276016 0.30383914709091187 0.17897024750709534 0.5921565294265747 0.0 0.0 0.0 0.0
2.061 -0.05588678643107414 0.3059844970703125 0.19293519854545593 0.5849719643592834 0.0 0.0 0.0 0.0
2.062 -0.054190345108509064 0.3079405426979065 0.21846230328083038 0.5723708271980286 0.0 0.0 0.0 0.0
2.063 -0.04620960354804993 0.3109470307826996 0.23703806102275848 0.5664619207382202 0.0 0.0 0.0 0.0
2.064 -0.04318627342581749 0.3134961426258087 0.2530975043773651 0.5633471012115479 0.0 0.0 0.0 0.0
2.065 -0.037143826484680176 0.31483596563339233 0.27484989166259766 0.5491987466812134 0.0 0.0 0.0 0.0
2.066 -0.03437791019678116 0.3171517848968506 0.2906123101711273 0.5421148538589478 0.0 0.0 0.0 0.0
2.067 -0.02703404240310192 0.3200569450855255 0.31381168961524963 0.5247626304626465 0.0 0.0 0.0 0.0
2.068 -0.02748020552098751 0.322274386882782 0.3229191303253174 0.5217580795288086 0.0 0.0 0.0 0.0
2.069 -0.021197089925408363 0.32461556792259216 0.3463749885559082 0.5031335949897766 0.0 0.0 0.0 0.0
2.07 -0.014385882765054703 0.3275798261165619 0.35653597116470337 0.4953850209712982 0.0 0.0 0.0 0.0
2.071 -0.009146739728748798 0.33072593808174133 0.3807494044303894 0.47996628284454346 0.0 0.0 0.0 0.0
2.072 -0.009142076596617699 0.3313717246055603 0.38809648156166077 0.46867993474006653 0.0 0.0 0.0 0.0
2.073 -0.00016629882156848907 0.3349333703517914 0.4147162139415741 0.448821485042572 0.0 0.0 0.0 0.0
2.074 0.005395028740167618 0.33699721097946167 0.4230877459049225 0.4388168454170227 0.0 0.0 0.0 0.0
2.075 0.0063546448945999146 0.33948034048080444 0.4394187927246094 0.4238397181034088 0.0 0.0 0.0 0.0
2.076 0.01499350555241108 0.34253934025764465 0.4543077349662781 0.4062325954437256 0.0 0.0 0.0 0.0
2.077 0.01869337446987629 0.34302666783332825 0.46478185057640076 0.3955085873603821 0.0 0.0 0.0 0.0
2.078 0.02465444803237915 0.3460546135902405 0.4767611622810364 0.37606045603752136 0.0 0.0 0.0 0.0
2.079 0.028468459844589233 0.34814849495887756 0.48474615812301636 0.36400026082992554 0.0 0.0 0.0 0.0
2.08 0.03769408538937569 0.3525039255619049 0.5009406805038452 0.3405529856681824 0.0 0.0 0.0 0.0
2.081 0.040862295776605606 0.35324880480766296 0.5097834467887878 0.3322365880012512 0.0 0.0 0.0 0.0
2.082 0.050874438136816025 0.3551083505153656 0.5239111185073853 0.30492088198661804 0.0 0.0 0.0 0.0
2.083 0.05417262017726898 0.3583950102329254 0.527386486530304 0.2962525188922882 0.0 0.0 0.0 0.0
2.084 0.0634918212890625 0.35980477929115295 0.5429453253746033 0.2712688446044922 0.0 0.0 0.0 0.0
2.085 0.06572895497083664 0.36186304688453674 0.5460876226425171 0.26472967863082886 0.0 0.0 0.0 0.0
2.086 0.07668008655309677 0.362363338470459 0.5583166480064392 0.2407694309949875 0.0 0.0 0.0 0.0
2.087 0.08528774231672287 0.3617083430290222 0.5661278367042542 0.21604759991168976 0.0 0.0 0.0 0.0
2.088 0.09048257023096085 0.36483946442604065 0.5715886354446411 0.20537689328193665 0.0 0.0 0.0 0.0
2.089 0.10087970644235611 0.3633435368537903 0.5783736705780029 0.1777234673500061 0.0 0.0 0.0 0.0
2.09 0.10139681398868561 0.3660098612308502 0.5800621509552002 0.17232568562030792 0.0 0.0 0.0 0.0
2.091 0.11526600271463394 0.3650292754173279 0.5914133191108704 0.1385083943605423 0.0 0.0 0.0 0.0
2.092 0.12124019116163254 0.3641822636127472 0.5913161635398865 0.12589755654335022 0.0 0.0 0.0 0.0
2.093 0.13263803720474243 0.36458620429039 0.5997267365455627 0.0941995233297348 0.0 0.0 0.0 0.0
2.094 0.13869334757328033 0.3638257384300232 0.5987470149993896 0.08159219473600388 0.0 0.0 0.0 0.0
2.095 0.14608582854270935 0.36259761452674866 0.6044113039970398 0.05707254260778427 0.0 0.0 0.0 0.0
2.096 0.1527789831161499 0.36191707849502563 0.6017919778823853 0.04322545602917671 0.0 0.0 0.0 0.0
2.097 0.1614978015422821 0.35991814732551575 0.6075739860534668 0.016629917547106743 0.0 0.0 0.0 0.0
2.098 0.16897355020046234 0.3586200475692749 0.6043092012405396 0.0024362578988075256 0.0 0.0 0.0 0.0
2.099 0.1780972182750702 0.35589051246643066 0.6047873497009277 -0.01847754418849945 0.0 0.0 0.0 0.0
2.1 0.18729634582996368 0.3516639769077301 0.603529691696167 -0.044924817979335785 0.0 0.0 0.0 0.0
2.101 0.19189637899398804 0.35295748710632324 0.6021506190299988 -0.057059403508901596 0.0 0.0 0.0 0.0
2.102 0.20211558043956757 0.34836968779563904 0.598059356212616 -0.08279639482498169 0.0 0.0 0.0 0.0
2.103 0.2052527815103531 0.3465173542499542 0.5947718024253845 -0.09267313033342361 0.0 0.0 0.0 0.0
2.104 0.21776847541332245 0.34248849749565125 0.5923638939857483 -0.11738751083612442 0.0 0.0 0.0 0.0
2.105 0.22422993183135986 0.3380042612552643 0.5871179103851318 -0.13606637716293335 0.0 0.0 0.0 0.0
2.106 0.23244597017765045 0.33317095041275024 0.5829917192459106 -0.16112180054187775 0.0 0.0 0.0 0.0
2.107 0.24074257910251617 0.3282352685928345 0.5755538940429688 -0.1737358421087265 0.0 0.0 0.0 0.0
2.108 0.24852415919303894 0.32412877678871155 0.5665344595909119 -0.20117828249931335 0.0 0.0 0.0 0.0
2.109 0.25483420491218567 0.3190416395664215 0.5592995882034302 -0.2125353068113327 0.0 0.0 0.0 0.0
2.11 0.26399603486061096 0.31709250807762146 0.5552025437355042 -0.23172880709171295 0.0 0.0 0.0 0.0
2.111 0.27178436517715454 0.30662602186203003 0.5440970063209534 -0.2512798011302948 0.0 0.0 0.0 0.0
2.112 0.2784661650657654 0.3035399615764618 0.5383709073066711 -0.2716633677482605 0.0 0.0 0.0 0.0
2.113 0.28731492161750793 0.29434892535209656 0.5249832272529602 -0.29392215609550476 0.0 0.0 0.0 0.0
2.114 0.2905915677547455 0.2900804281234741 0.5160815715789795 -0.30105194449424744 0.0 0.0 0.0 0.0
2.115 0.2998966574668884 0.2809794247150421 0.5073326826095581 -0.3232446014881134 0.0 0.0 0.0 0.0
2.116 0.30217403173446655 0.27613428235054016 0.4981033205986023 -0.33518901467323303 0.0 0.0 0.0 0.0
2.117 0.3126966953277588 0.2637028694152832 0.4800596833229065 -0.3600221276283264 0.0 0.0 0.0 0.0
2.118 0.3154968321323395 0.2598840296268463 0.4736916124820709 -0.3630993664264679 0.0 0.0 0.0 0.0
2.119 0.3233136236667633 0.25031331181526184 0.4564604163169861 -0.3880283236503601 0.0 0.0 0.0 0.0
2.12 0.32772982120513916 0.24073156714439392 0.44230955839157104 -0.4023602604866028 0.0 0.0 0.0 0.0
2.121 0.33398300409317017 0.23277294635772705 0.4336024224758148 -0.416763037443161 0.0 0.0 0.0 0.0
2.122 0.33823704719543457 0.22348803281784058 0.41813650727272034 -0.42304515838623047 0.0 0.0 0.0 0.0
2.123 0.34197890758514404 0.21562592685222626 0.4038850665092468 -0.44439202547073364 0.0 0.0 0.0 0.0
2.124 0.3481506407260895 0.2015341967344284 0.3885396420955658 -0.45430347323417664 0.0 0.0 0.0 0.0
2.125 0.3509901762008667 0.19510214030742645 0.37621909379959106 -0.46526220440864563 0.0 0.0 0.0 0.0
2.126 0.3552384078502655 0.18265248835086823 0.3569275140762329 -0.4792327582836151 0.0 0.0 0.0 0.0
2.127 0.35603755712509155 0.1770559549331665 0.350370854139328 -0.4895128011703491 0.0 0.0 0.0 0.0
2.128 0.359919011592865 0.16131770610809326 0.32465580105781555 -0.5003826022148132 0.0 0.0 0.0 0.0
2.129 0.3596174120903015 0.15543848276138306 0.3153878152370453 -0.5085904598236084 0.0 0.0 0.0 0.0
2.13 0.3647686839103699 0.13906794786453247 0.28994640707969666 -0.5277754664421082 0.0 0.0 0.0 0.0
2.131 0.3636225461959839 0.13407202064990997 0.282192200422287 -0.5286208391189575 0.0 0.0 0.0 0.0
2.132 0.36570993065834045 0.1176370307803154 0.2598390281200409 -0.5457832217216492 0.0 0.0 0.0 0.0
2.133 0.3651309907436371 0.10625199228525162 0.24432381987571716 -0.5477879047393799 0.0 0.0 0.0 0.0
2.134 0.365307092666626 0.09535865485668182 0.22224920988082886 -0.5583392381668091 0.0 0.0 0.0 0.0
2.135 0.36307626962661743 0.08297286927700043 0.20149540901184082 -0.565401554107666 0.0 0.0 0.0 0.0
2.136 0.36029577255249023 0.07640323042869568 0.19423168897628784 -0.5765964984893799 0.0 0.0 0.0 0.0
2.137 0.359680712223053 0.05952678248286247 0.16262927651405334 -0.5792842507362366 0.0 0.0 0.0 0.0
2.138 0.3566707372665405 0.05449239909648895 0.15415941178798676 -0.5807233452796936 0.0 0.0 0.0 0.0
2.139 0.354352742433548 0.035706229507923126 0.12003330886363983 -0.5922067761421204 0.0 0.0 0.0 0.0
2.14 0.3501961827278137 0.02993854507803917 0.11405640095472336 -0.5937436819076538 0.0 0.0 0.0 0.0
2.141 0.3483838438987732 0.01453450694680214 0.08337146788835526 -0.6001490950584412 0.0 0.0 0.0 0.0
2.142 0.34123411774635315 0.006192207336425781 0.07243594527244568 -0.5991706252098083 0.0 0.0 0.0 0.0
2.143 0.33674460649490356 -0.005363717675209045 0.041122108697891235 -0.6067599654197693 0.0 0.0 0.0 0.0
2.144 0.332058846950531 -0.013733516447246075 0.03014734946191311 -0.6027728319168091 0.0 0.0 0.0 0.0
2.145 0.32604458928108215 -0.025654202327132225 0.0056680794805288315 -0.6065881848335266 0.0 0.0 0.0 0.0
2.146 0.3177623152732849 -0.034760355949401855 -0.015775686129927635 -0.6049171686172485 0.0 0.0 0.0 0.0
2.147 0.3118704557418823 -0.04350590705871582 -0.03290155902504921 -0.6087756156921387 0.0 0.0 0.0 0.0
2.148 0.3040061295032501 -0.05504672974348068 -0.05363929271697998 -0.6068444848060608 0.0 0.0 0.0 0.0
2.149 0.2981288433074951 -0.06146858260035515 -0.07251586765050888 -0.6021136045455933 0.0 0.0 0.0 0.0
2.15 0.28843820095062256 -0.07074210047721863 -0.0996740385890007 -0.5952450633049011 0.0 0.0 0.0 0.0
2.151 0.28173375129699707 -0.07697702199220657 -0.10922887176275253 -0.5973979830741882 0.0 0.0 0.0 0.0
2.152 0.27334344387054443 -0.08429031819105148 -0.129574254155159 -0.5905399918556213 0.0 0.0 0.0 0.0
2.153 0.2631468176841736 -0.09265338629484177 -0.14767922461032867 -0.5901087522506714 0.0 0.0 0.0 0.0
2.154 0.2539108991622925 -0.10160155594348907 -0.17951767146587372 -0.5797978639602661 0.0 0.0 0.0 0.0
2.155 0.24288539588451385 -0.10670284926891327 -0.1920207291841507 -0.5757443308830261 0.0 0.0 0.0 0.0
2.156 0.23480255901813507 -0.11458519846200943 -0.21775977313518524 -0.5693159699440002 0.0 0.0 0.0 0.0
2.157 0.22427555918693542 -0.12027651071548462 -0.23154482245445251 -0.5633877515792847 0.0 0.0 0.0 0.0
2.158 0.21423590183258057 -0.12608468532562256 -0.25678011775016785 -0.5533462166786194 0.0 0.0 0.0 0.0
2.159 0.20080573856830597 -0.12927168607711792 -0.2690180242061615 -0.5459919571876526 0.0 0.0 0.0 0.0
2.16 0.19214551150798798 -0.13647039234638214 -0.2897603511810303 -0.542279839515686 0.0 0.0 0.0 0.0
2.161 0.1804826706647873 -0.1382276862859726 -0.3070651888847351 -0.5266377925872803 0.0 0.0 0.0 0.0
2.162 0.16963183879852295 -0.14194171130657196 -0.33091944456100464 -0.5159448981285095 0.0 0.0 0.0 0.0
2.163 0.1574864685535431 -0.1466752588748932 -0.3410056531429291 -0.5053537487983704 0.0 0.0 0.0 0.0
2.164 0.14636865258216858 -0.14856481552124023 -0.3606101870536804 -0.4961870014667511 0.0 0.0 0.0 0.0
2.165 0.13276270031929016 -0.1513228863477707 -0.3803611695766449 -0.48138290643692017 0.0 0.0 0.0 0.0
2.166 0.1215631291270256 -0.15154051780700684 -0.3943839371204376 -0.4709968566894531 0.0 0.0 0.0 0.0
2.167 0.10988808423280716 -0.15283462405204773 -0.4141222834587097 -0.44849464297294617 0.0 0.0 0.0 0.0
2.168 0.09965214133262634 -0.1525101512670517 -0.4173952341079712 -0.449837327003479 0.0 0.0 0.0 0.0
2.169 0.0838259905576706 -0.1540529876947403 -0.4469922184944153 -0.42142829298973083 0.0 0.0 0.0 0.0
2.17 0.07667618989944458 -0.15132980048656464 -0.4516119062900543 -0.41345298290252686 0.0 0.0 0.0 0.0
2.171 0.0615830160677433 -0.15084221959114075 -0.4771799147129059 -0.3916512429714203 0.0 0.0 0.0 0.0
2.172 0.050141118466854095 -0.14705172181129456 -0.4808780550956726 -0.37654849886894226 0.0 0.0 0.0 0.0
2.173 0.04015360027551651 -0.14827768504619598 -0.5020712614059448 -0.35712340474128723 0.0 0.0 0.0 0.0
2.174 0.028960181400179863 -0.14474111795425415 -0.5081484913825989 -0.3442569673061371 0.0 0.0 0.0 0.0
2.175 0.016418257728219032 -0.13990731537342072 -0.5246201157569885 -0.32419952750205994 0.0 0.0 0.0 0.0
2.176 0.005714111961424351 -0.13749933242797852 -0.5293186902999878 -0.31333011388778687 0.0 0.0 0.0 0.0
2.177 -0.0025552092120051384 -0.13173852860927582 -0.5392215847969055 -0.2943958640098572 0.0 0.0 0.0 0.0
2.178 -0.01630387082695961 -0.12671594321727753 -0.5567378401756287 -0.26244571805000305 0.0 0.0 0.0 0.0
2.179 -0.024068666622042656 -0.12189692258834839 -0.5601572394371033 -0.25517207384109497 0.0 0.0 0.0 0.0
2.18 -0.03407089412212372 -0.1177573949098587 -0.5720548629760742 -0.22779564559459686 0.0 0.0 0.0 0.0
2.181 -0.042425736784935 -0.11072856932878494 -0.5744890570640564 -0.21405068039894104 0.0 0.0 0.0 0.0
2.182 -0.05187450721859932 -0.10622773319482803 -0.5878161787986755 -0.18558208644390106 0.0 0.0 0.0 0.0
2.183 -0.060961395502090454 -0.09898088127374649 -0.5888595581054688 -0.17564579844474792 0.0 0.0 0.0 0.0
2.184 -0.0701778456568718 -0.09267325699329376 -0.5980389714241028 -0.14475683867931366 0.0 0.0 0.0 0.0
2.185 -0.07808704674243927 -0.0858628898859024 -0.6014964580535889 -0.1314418464899063 0.0 0.0 0.0 0.0
2.186 -0.0855930745601654 -0.07732951641082764 -0.606656014919281 -0.10308455675840378 0.0 0.0 0.0 0.0
2.187 -0.0923275500535965 -0.07146897166967392 -0.6081603169441223 -0.08877535164356232 0.0 0.0 0.0 0.0
2.188 -0.09929876029491425 -0.06253769248723984 -0.6139893531799316 -0.06405267119407654 0.0 0.0 0.0 0.0
2.189 -0.10603667050600052 -0.05649254471063614 -0.6122110486030579 -0.04186505451798439 0.0 0.0 0.0 0.0
2.19 -0.11123072355985641 -0.049716655164957047 -0.6128123998641968 -0.028581032529473305 0.0 0.0 0.0 0.0
2.191 -0.11830450594425201 -0.03952827304601669 -0.6140604019165039 0.004455518908798695 0.0 0.0 0.0 0.0
2.192 -0.12245876342058182 -0.03371318429708481 -0.6139346361160278 0.015612049028277397 0.0 0.0 0.0 0.0
2.193 -0.1270352005958557 -0.02421172894537449 -0.6105806827545166 0.04668354615569115 0.0 0.0 0.0 0.0
2.194 -0.13269834220409393 -0.01627698913216591 -0.6105994582176208 0.05736013501882553 0.0 0.0 0.0 0.0
2.195 -0.13647544384002686 -0.007377668283879757 -0.6077495217323303 0.09150014817714691 0.0 0.0 0.0 0.0
2.196 -0.1406339704990387 0.0007092645391821861 -0.6019708514213562 0.10526780039072037 0.0 0.0 0.0 0.0
2.197 -0.1437309980392456 0.008294917643070221 -0.5999764204025269 0.1263510286808014 0.0 0.0 0.0 0.0
2.198 -0.14839395880699158 0.01683669164776802 -0.590366780757904 0.1482277810573578 0.0 0.0 0.0 0.0
2.199 -0.15094642341136932 0.025230402126908302 -0.5884959101676941 0.17083579301834106 0.0 0.0 0.0 0.0
2.2 -0.15441659092903137 0.03228764608502388 -0.5794222950935364 0.1848084032535553 0.0 0.0 0.0 0.0
2.201 -0.15678171813488007 0.04336732625961304 -0.5754281282424927 0.20998376607894897 0.0 0.0 0.0 0.0
2.202 -0.1588161587715149 0.049346715211868286 -0.5669909715652466 0.22028879821300507 0.0 0.0 0.0 0.0
2.203 -0.16073808073997498 0.059291284531354904 -0.5593467354774475 0.24748186767101288 0.0 0.0 0.0 0.0
2.204 -0.1610710322856903 0.0673564225435257 -0.5463056564331055 0.26733270287513733 0.0 0.0 0.0 0.0
2.205 -0.1643880158662796 0.07274945080280304 -0.5452754497528076 0.27251118421554565 0.0 0.0 0.0 0.0
2.206 -0.16549041867256165 0.08342693001031876 -0.5268006920814514 0.30499809980392456 0.0 0.0 0.0 0.0
2.207 -0.16518574953079224 0.09093526005744934 -0.5170602202415466 0.3185708522796631 0.0 0.0 0.0 0.0
2.208 -0.16629180312156677 0.09918206185102463 -0.5067898035049438 0.3358195424079895 0.0 0.0 0.0 0.0
2.209 -0.16684596240520477 0.10598750412464142 -0.4962513744831085 0.34647631645202637 0.0 0.0 0.0 0.0
2.21 -0.16679149866104126 0.11467867344617844 -0.4791555106639862 0.3726985454559326 0.0 0.0 0.0 0.0
2.211 -0.16657821834087372 0.12086693197488785 -0.4671729803085327 0.38181135058403015 0.0 0.0 0.0 0.0
2.212 -0.16703125834465027 0.13029468059539795 -0.45296719670295715 0.401965856552124 0.0 0.0 0.0 0.0
2.213 -0.165957510471344 0.13633137941360474 -0.4400559961795807 0.4132802486419678 0.0 0.0 0.0 0.0
2.214 -0.16670893132686615 0.1449633091688156 -0.4254659116268158 0.43003132939338684 0.0 0.0 0.0 0.0
2.215 -0.16503122448921204 0.15163162350654602 -0.4063427150249481 0.4420772194862366 0.0 0.0 0.0 0.0
2.216 -0.16544963419437408 0.15742139518260956 -0.39690908789634705 0.45815491676330566 0.0 0.0 0.0 0.0
2.217 -0.16273245215415955 0.16686099767684937 -0.3740825653076172 0.47148430347442627 0.0 0.0 0.0 0.0
2.218 -0.16316187381744385 0.17177826166152954 -0.362580806016922 0.48052605986595154 0.0 0.0 0.0 0.0
2.219 -0.15964490175247192 0.1796363890171051 -0.33690759539604187 0.4957186281681061 0.0 0.0 0.0 0.0
2.22 -0.16090719401836395 0.1852734386920929 -0.32594144344329834 0.504379391670227 0.0 0.0 0.0 0.0
2.221 -0.1574176400899887 0.1940506547689438 -0.29653918743133545 0.5206136703491211 0.0 0.0 0.0 0.0
2.222 -0.15925122797489166 0.1963779628276825 -0.2990975081920624 0.5185644030570984 0.0 0.0 0.0 0.0
2.223 -0.15512987971305847 0.20740464329719543 -0.26131153106689453 0.5387236475944519 0.0 0.0 0.0 0.0
2.224 -0.15470659732818604 0.21329370141029358 -0.2538088262081146 0.538955569267273 0.0 0.0 0.0 0.0
2.225 -0.15450993180274963 0.2172209918498993 -0.2317749708890915 0.5487349033355713 0.0 0.0 0.0 0.0
2.226 -0.1486564576625824 0.22498545050621033 -0.20945151150226593 0.5547195076942444 0.0 0.0 0.0 0.0
2.227 -0.15065787732601166 0.22936461865901947 -0.20105575025081635 0.5597200989723206 0.0 0.0 0.0 0.0
2.228 -0.1421205699443817 0.23951669037342072 -0.1602008193731308 0.5695252418518066 0.0 0.0 0.0 0.0
2.229 -0.14489224553108215 0.2429489642381668 -0.15757286548614502 0.5719608068466187 0.0 0.0 0.0 0.0
2.23 -0.13969917595386505 0.2514713704586029 -0.12352990359067917 0.5800400972366333 0.0 0.0 0.0 0.0
2.231 -0.14239603281021118 0.25483500957489014 -0.1236012876033783 0.5768306255340576 0.0 0.0 0.0 0.0
2.232 -0.13470619916915894 0.26361745595932007 -0.08888053148984909 0.5823817253112793 0.0 0.0 0.0 0.0
2.233 -0.1340179592370987 0.26848262548446655 -0.07514242827892303 0.5838463306427002 0.0 0.0 0.0 0.0
2.234 -0.13174647092819214 0.27585723996162415 -0.05292142182588577 0.5878898501396179 0.0 0.0 0.0 0.0
2.235 -0.12787610292434692 0.280997633934021 -0.03506800904870033 0.5854901671409607 0.0 0.0 0.0 0.0
2.236 -0.12784342467784882 0.2869654595851898 -0.014109033159911633 0.5842435359954834 0.0 0.0 0.0 0.0
2.237 -0.12136729806661606 0.29449519515037537 0.008586784824728966 0.5831599235534668 0.0 0.0 0.0 0.0
2.238 -0.12058655917644501 0.2989765405654907 0.022287659347057343 0.5828328132629395 0.0 0.0 0.0 0.0
2.239 -0.11328532546758652 0.3060920834541321 0.05219484120607376 0.5809044241905212 0.0 0.0 0.0 0.0
2.24 -0.11460761725902557 0.30881401896476746 0.06066249683499336 0.5768160223960876 0.0 0.0 0.0 0.0
2.241 -0.10589279979467392 0.3182864189147949 0.09158574044704437 0.5731762051582336 0.0 0.0 0.0 0.0
2.242 -0.10566030442714691 0.3224102258682251 0.09922938048839569 0.568788468837738 0.0 0.0 0.0 0.0
2.243 -0.09760821610689163 0.33028677105903625 0.13165390491485596 0.5626093149185181 0.0 0.0 0.0 0.0
2.244 -0.09442852437496185 0.33409515023231506 0.14313657581806183 0.5570262670516968 0.0 0.0 0.0 0.0
2.245 -0.09014834463596344 0.3410581052303314 0.16851671040058136 0.5507779717445374 0.0 0.0 0.0 0.0
2.246 -0.08423103392124176 0.34670957922935486 0.1816289871931076 0.5424073338508606 0.0 0.0 0.0 0.0
2.247 -0.07843691110610962 0.35020503401756287 0.20223282277584076 0.5377450585365295 0.0 0.0 0.0 0.0
2.248 -0.07712181657552719 0.35493770241737366 0.20891073346138 0.5302876234054565 0.0 0.0 0.0 0.0
2.249 -0.06995801627635956 0.3636687397956848 0.23342879116535187 0.5207555294036865 0.0 0.0 0.0 0.0
2.25 -0.06128237769007683 0.3673575818538666 0.2505204379558563 0.5094473361968994 0.0 0.0 0.0 0.0
2.251 -0.05760558694601059 0.3724788725376129 0.2647370994091034 0.5039428472518921 0.0 0.0 0.0 0.0
2.252 -0.04865209385752678 0.37792539596557617 0.28395235538482666 0.48937860131263733 0.0 0.0 0.0 0.0
2.253 -0.047963857650756836 0.3820763826370239 0.2952912747859955 0.48232781887054443 0.0 0.0 0.0 0.0
2.254 -0.04022383317351341 0.3870040476322174 0.3114534020423889 0.46968579292297363 0.0 0.0 0.0 0.0
2.255 -0.03528810665011406 0.3911716341972351 0.3214751183986664 0.4612458050251007 0.0 0.0 0.0 0.0
2.256 -0.022115811705589294 0.39659199118614197 0.34304535388946533 0.4430637061595917 0.0 0.0 0.0 0.0
2.257 -0.019685016945004463 0.39908817410469055 0.3521861135959625 0.4312910735607147 0.0 0.0 0.0 0.0
2.258 -0.012260537594556808 0.4041604697704315 0.3696366548538208 0.4177650809288025 0.0 0.0 0.0 0.0
2.259 -0.005067179910838604 0.40615272521972656 0.3767092823982239 0.4088747799396515 0.0 0.0 0.0 0.0
2.26 0.0010653603821992874 0.41071179509162903 0.3977161943912506 0.39037051796913147 0.0 0.0 0.0 0.0
2.261 0.009298973716795444 0.4134839177131653 0.4010797441005707 0.37894144654273987 0.0 0.0 0.0 0.0
2.262 0.01416497491300106 0.41658201813697815 0.4157629907131195 0.3629519045352936 0.0 0.0 0.0 0.0
2.263 0.02767343260347843 0.41914764046669006 0.42411065101623535 0.34639468789100647 0.0 0.0 0.0 0.0
2.264 0.03293967992067337 0.42130833864212036 0.43702808022499084 0.33501943945884705 0.0 0.0 0.0 0.0
2.265 0.042528245598077774 0.42371276021003723 0.44286537170410156 0.3178578317165375 0.0 0.0 0.0 0.0
2.266 0.04667561873793602 0.42536666989326477 0.4511507749557495 0.30845603346824646 0.0 0.0 0.0 0.0
2.267 0.061133965849876404 0.42744383215904236 0.46581077575683594 0.28484827280044556 0.0 0.0 0.0 0.0
2.268 0.06587766855955124 0.43132448196411133 0.46869808435440063 0.2776675820350647 0.0 0.0 0.0 0.0
2.269 0.0752335861325264 0.42972317337989807 0.4817635118961334 0.24947066605091095 0.0 0.0 0.0 0.0
2.27 0.0820506364107132 0.4304235279560089 0.48121246695518494 0.24562758207321167 0.0 0.0 0.0 0.0
2.271 0.09370731562376022 0.4324522912502289 0.4919554889202118 0.22182904183864594 0.0 0.0 0.0 0.0
2.272 0.09565981477499008 0.43232080340385437 0.4915650486946106 0.21870210766792297 0.0 0.0 0.0 0.0
2.273 0.11015218496322632 0.43382972478866577 0.5025059580802917 0.18965022265911102 0.0 0.0 0.0 0.0
2.274 0.12208189815282822 0.4321102201938629 0.506860077381134 0.17578330636024475 0.0 0.0 0.0 0.0
2.275 0.12338071316480637 0.43221527338027954 0.5101383328437805 0.16944818198680878 0.0 0.0 0.0 0.0
2.276 0.13884706795215607 0.4290594458580017 0.5147401690483093 0.1403447538614273 0.0 0.0 0.0 0.0
2.277 0.14247629046440125 0.4296446442604065 0.5155433416366577 0.1330842524766922 0.0 0.0 0.0 0.0
2.278 0.15559612214565277 0.42679932713508606 0.5202599763870239 0.1089206263422966 0.0 0.0 0.0 0.0
2.279 0.15984536707401276 0.42631685733795166 0.5221141576766968 0.10402711480855942 0.0 0.0 0.0 0.0
2.28 0.1719454526901245 0.42391109466552734 0.5264185070991516 0.07770831137895584 0.0 0.0 0.0 0.0
2.281 0.1825477033853531 0.41982272267341614 0.5247559547424316 0.06707420200109482 0.0 0.0 0.0 0.0
2.282 0.1904192715883255 0.4172326326370239 0.5283563733100891 0.047412097454071045 0.0 0.0 0.0 0.0
2.283 0.19723166525363922 0.4134252965450287 0.5263609886169434 0.033739540725946426 0.0 0.0 0.0 0.0
2.284 0.20569008588790894 0.40990355610847473 0.5298885107040405 0.01685946434736252 0.0 0.0 0.0 0.0
2.285 0.21592018008232117 0.4049457907676697 0.5266979932785034 -0.002414366230368614 0.0 0.0 0.0 0.0
2.286 0.22161462903022766 0.4024887979030609 0.5281669497489929 -0.01546234916895628 0.0 0.0 0.0 0.0
2.287 0.23393328487873077 0.3956044614315033 0.5260127782821655 -0.03518033027648926 0.0 0.0 0.0 0.0
2.288 0.23886063694953918 0.3915061354637146 0.5274847149848938 -0.042185865342617035 0.0 0.0 0.0 0.0
2.289 0.25045081973075867 0.3841315805912018 0.5252830982208252 -0.07105197757482529 0.0 0.0 0.0 0.0
2.29 0.25030946731567383 0.38159313797950745 0.521630585193634 -0.07706011831760406 0.0 0.0 0.0 0.0
2.291 0.2635725140571594 0.3698877990245819 0.5154337286949158 -0.10503078252077103 0.0 0.0 0.0 0.0
2.292 0.2666187286376953 0.3669029176235199 0.5173328518867493 -0.11090737581253052 0.0 0.0 0.0 0.0
2.293 0.2765611708164215 0.3593709468841553 0.5101916790008545 -0.13582463562488556 0.0 0.0 0.0 0.0
2.294 0.2805466949939728 0.35066109895706177 0.5071223974227905 -0.14555247128009796 0.0 0.0 0.0 0.0
2.295 0.2861243784427643 0.34549659490585327 0.5014150738716125 -0.1669805496931076 0.0 0.0 0.0 0.0
2.296 0.2908515930175781 0.3371415138244629 0.4955073893070221 -0.1750292181968689 0.0 0.0 0.0 0.0
2.297 0.2975274920463562 0.3316928744316101 0.4892871081829071 -0.1979379951953888 0.0 0.0 0.0 0.0
2.298 0.30412280559539795 0.3201369345188141 0.4839743971824646 -0.20996686816215515 0.0 0.0 0.0 0.0
2.299 0.3055511713027954 0.316488116979599 0.4804532825946808 -0.221843421459198 0.0 0.0 0.0 0.0
2.3 0.31305426359176636 0.30423393845558167 0.46817323565483093 -0.24017977714538574 0.0 0.0 0.0 0.0
2.301 0.3147939145565033 0.2976452112197876 0.46433019638061523 -0.25136372447013855 0.0 0.0 0.0 0.0
2.302 0.32266470789909363 0.28461283445358276 0.45079827308654785 -0.2757716178894043 0.0 0.0 0.0 0.0
2.303 0.3212009072303772 0.2823873460292816 0.445719450712204 -0.279942125082016 0.0 0.0 0.0 0.0
2.304 0.327881783246994 0.2709873914718628 0.4369122385978699 -0.29872849583625793 0.0 0.0 0.0 0.0
2.305 0.3271602988243103 0.2639782428741455 0.4285030663013458 -0.3071768581867218 0.0 0.0 0.0 0.0
2.306 0.3340587615966797 0.25006672739982605 0.4122120440006256 -0.3335346579551697 0.0 0.0 0.0 0.0
2.307 0.3314875066280365 0.2443116158246994 0.40702566504478455 -0.33120569586753845 0.0 0.0 0.0 0.0
2.308 0.33501943945884705 0.23530855774879456 0.3916696310043335 -0.3543739318847656 0.0 0.0 0.0 0.0
2.309 0.33541420102119446 0.22703510522842407 0.38889753818511963 -0.35670679807662964 0.0 0.0 0.0 0.0
2.31 0.3386983275413513 0.21548378467559814 0.3732549250125885 -0.3762904405593872 0.0 0.0 0.0 0.0
2.311 0.33735570311546326 0.20707005262374878 0.3617335557937622 -0.3865101635456085 0.0 0.0 0.0 0.0
2.312 0.3373379111289978 0.19944152235984802 0.3516959547996521 -0.3964487612247467 0.0 0.0 0.0 0.0
2.313 0.3372393250465393 0.18636378645896912 0.3363937735557556 -0.41050946712493896 0.0 0.0 0.0 0.0
2.314 0.3349663317203522 0.18197084963321686 0.3288549482822418 -0.41795819997787476 0.0 0.0 0.0 0.0
2.315 0.3359191119670868 0.1697026789188385 0.30600565671920776 -0.433037668466568 0.0 0.0 0.0 0.0
2.316 0.33381780982017517 0.16049091517925262 0.2973964214324951 -0.4384870231151581 0.0 0.0 0.0 0.0
2.317 0.33359554409980774 0.1522947996854782 0.2807769477367401 -0.45320504903793335 0.0 0.0 0.0 0.0
2.318 0.32969948649406433 0.14416922628879547 0.2703699469566345 -0.45740461349487305 0.0 0.0 0.0 0.0
2.319 0.3285168409347534 0.13413302600383759 0.25074416399002075 -0.4721600413322449 0.0 0.0 0.0 0.0
2.32 0.3239608705043793 0.126388281583786 0.24128910899162292 -0.47661730647087097 0.0 0.0 0.0 0.0
2.321 0.3215106129646301 0.11945022642612457 0.21888965368270874 -0.4875727891921997 0.0 0.0 0.0 0.0
2.322 0.3187553286552429 0.11143624037504196 0.20768122375011444 -0.4907614588737488 0.0 0.0 0.0 0.0
2.323 0.3127503991127014 0.1047392338514328 0.19372627139091492 -0.5002554059028625 0.0 0.0 0.0 0.0
2.324 0.31083545088768005 0.0933348760008812 0.1704542487859726 -0.5066507458686829 0.0 0.0 0.0 0.0
2.325 0.3042522668838501 0.09142731875181198 0.16877514123916626 -0.5105457305908203 0.0 0.0 0.0 0.0
2.326 0.3017497956752777 0.07924850285053253 0.1336396336555481 -0.5195475220680237 0.0 0.0 0.0 0.0
2.327 0.2941047251224518 0.07600141316652298 0.13118013739585876 -0.5205139517784119 0.0 0.0 0.0 0.0
2.328 0.2889791429042816 0.06802837550640106 0.10835825651884079 -0.5294740200042725 0.0 0.0 0.0 0.0
2.329 0.28565865755081177 0.060368407517671585 0.09363596141338348 -0.529746949672699 0.0 0.0 0.0 0.0
2.33 0.2801627218723297 0.05644029751420021 0.07273435592651367 -0.5342943668365479 0.0 0.0 0.0 0.0
2.331 0.2737385034561157 0.05121946334838867 0.06455925107002258 -0.5336786508560181 0.0 0.0 0.0 0.0
2.332 0.2680019438266754 0.044250667095184326 0.03999863192439079 -0.5400980710983276 0.0 0.0 0.0 0.0
2.333 0.2618981599807739 0.03707681968808174 0.020534871146082878 -0.5379107594490051 0.0 0.0 0.0 0.0
2.334 0.2564564347267151 0.034439437091350555 0.005699456669390202 -0.5427624583244324 0.0 0.0 0.0 0.0
2.335 0.2491573542356491 0.025278184562921524 -0.01816529594361782 -0.5414766669273376 0.0 0.0 0.0 0.0
2.336 0.24330587685108185 0.021646026521921158 -0.02685285545885563 -0.5443770289421082 0.0 0.0 0.0 0.0
2.337 0.2371707409620285 0.01582784578204155 -0.0537458211183548 -0.5419974327087402 0.0 0.0 0.0 0.0
2.338 0.22905828058719635 0.01588667929172516 -0.0603516660630703 -0.5399816036224365 0.0 0.0 0.0 0.0
2.339 0.22197507321834564 0.01029129046946764 -0.09185923635959625 -0.5368252992630005 0.0 0.0 0.0 0.0
2.34 0.21644046902656555 0.008024746552109718 -0.10215327888727188 -0.5366886258125305 0.0 0.0 0.0 0.0
2.341 0.2086540162563324 0.005322521552443504 -0.126455157995224 -0.5322327017784119 0.0 0.0 0.0 0.0
2.342 0.20090939104557037 0.0024753613397479057 -0.13717792928218842 -0.5292331576347351 0.0 0.0 0.0 0.0
2.343 0.19337356090545654 0.0007944349199533463 -0.15820945799350739 -0.5263633728027344 0.0 0.0 0.0 0.0
2.344 0.18768906593322754 -0.0031759804114699364 -0.1738811582326889 -0.5176870226860046 0.0 0.0 0.0 0.0
2.345 0.18053287267684937 -0.004042612388730049 -0.19106464087963104 -0.5131589770317078 0.0 0.0 0.0 0.0
2.346 0.173000305891037 -0.005912657827138901 -0.20913872122764587 -0.5088657140731812 0.0 0.0 0.0 0.0
2.347 0.16686326265335083 -0.005158066749572754 -0.221805140376091 -0.5013381838798523 0.0 0.0 0.0 0.0
2.348 0.1603214293718338 -0.00892086885869503 -0.24839597940444946 -0.491803914308548 0.0 0.0 0.0 0.0
2.349 0.15393765270709991 -0.006027664057910442 -0.25562527775764465 -0.4867974817752838 0.0 0.0 0.0 0.0
2.35 0.14650045335292816 -0.010172494687139988 -0.2822626829147339 -0.475107878446579 0.0 0.0 0.0 0.0
2.351 0.1415313482284546 -0.008015514351427555 -0.2872304320335388 -0.47101086378097534 0.0 0.0 0.0 0.0
2.352 0.1338198035955429 -0.010723674669861794 -0.3163914084434509 -0.4524509012699127 0.0 0.0 0.0 0.0
2.353 0.12833531200885773 -0.00846819020807743 -0.31814903020858765 -0.44967541098594666 0.0 0.0 0.0 0.0
2.354 0.12195518612861633 -0.00831194780766964 -0.34079110622406006 -0.433978408575058 0.0 0.0 0.0 0.0
2.355 0.11552903056144714 -0.00871107168495655 -0.3513825833797455 -0.4225831627845764 0.0 0.0 0.0 0.0
2.356 0.11096709966659546 -0.006402673199772835 -0.36604613065719604 -0.4148627817630768 0.0 0.0 0.0 0.0
2.357 0.10543351620435715 -0.007649206556379795 -0.3774730861186981 -0.4007388651371002 0.0 0.0 0.0 0.0
2.358 0.09971868246793747 -0.007001363672316074 -0.3994617462158203 -0.383970707654953 0.0 0.0 0.0 0.0
2.359 0.09231504797935486 -0.00670994445681572 -0.40757906436920166 -0.373923122882843 0.0 0.0 0.0 0.0
2.36 0.0874125137925148 -0.003999602049589157 -0.4244348108768463 -0.35538050532341003 0.0 0.0 0.0 0.0
2.361 0.08133993297815323 -0.005142319016158581 -0.43653303384780884 -0.34356608986854553 0.0 0.0 0.0 0.0
2.362 0.07589700073003769 -0.0035620955750346184 -0.44152113795280457 -0.33412110805511475 0.0 0.0 0.0 0.0
2.363 0.07058174908161163 -0.0019397763535380363 -0.45650964975357056 -0.31655776500701904 0.0 0.0 0.0 0.0
2.364 0.06529609113931656 -7.316283881664276e-05 -0.4609416425228119 -0.30312010645866394 0.0 0.0 0.0 0.0
2.365 0.06165037676692009 0.0009867334738373756 -0.4790687561035156 -0.2832925319671631 0.0 0.0 0.0 0.0
2.366 0.05575074255466461 0.0016307579353451729 -0.48414844274520874 -0.269719660282135 0.0 0.0 0.0 0.0
2.367 0.051046840846538544 0.0035559283569455147 -0.49319466948509216 -0.25514325499534607 0.0 0.0 0.0 0.0
2.368 0.045343928039073944 0.00544649176299572 -0.5011492967605591 -0.23790906369686127 0.0 0.0 0.0 0.0
2.369 0.041096191853284836 0.007105279713869095 -0.5095105171203613 -0.22416095435619354 0.0 0.0 0.0 0.0
2.37 0.035710904747247696 0.008965309709310532 -0.520086944103241 -0.20021919906139374 0.0 0.0 0.0 0.0
2.371 0.03132624551653862 0.011156237684190273 -0.5239421725273132 -0.19296278059482574 0.0 0.0 0.0 0.0
2.372 0.02562289871275425 0.013136394321918488 -0.5354703068733215 -0.16154435276985168 0.0 0.0 0.0 0.0
2.373 0.02274443954229355 0.014887162484228611 -0.5360356569290161 -0.15459944307804108 0.0 0.0 0.0 0.0
2.374 0.016634128987789154 0.017785780131816864 -0.5450736880302429 -0.12653416395187378 0.0 0.0 0.0 0.0
2.375 0.014336314052343369 0.020856214687228203 -0.5458433628082275 -0.11742562055587769 0.0 0.0 0.0 0.0
2.376 0.01027699001133442 0.02305821143090725 -0.5545861721038818 -0.08430946618318558 0.0 0.0 0.0 0.0
2.377 0.005266796797513962 0.025215571746230125 -0.5536863803863525 -0.07361125946044922 0.0 0.0 0.0 0.0
2.378 0.002122861333191395 0.026403645053505898 -0.5574212670326233 -0.052260514348745346 0.0 0.0 0.0 0.0
2.379 -0.0029397187754511833 0.02884516306221485 -0.5574904084205627 -0.03462422266602516 0.0 0.0 0.0 0.0
2.38 -0.006751722656190395 0.030493224039673805 -0.5574224591255188 -0.016348496079444885 0.0 0.0 0.0 0.0
2.381 -0.011242841370403767 0.032541822642087936 -0.556788980960846 0.001204218715429306 0.0 0.0 0.0 0.0
2.382 -0.015596590004861355 0.03533563017845154 -0.55832839012146 0.0209638848900795 0.0 0.0 0.0 0.0
2.383 -0.018848966807127 0.03718226030468941 -0.5553327202796936 0.04855843260884285 0.0 0.0 0.0 0.0
2.384 -0.023714184761047363 0.03953482583165169 -0.5542410612106323 0.04861415922641754 0.0 0.0 0.0 0.0
2.385 -0.028014371171593666 0.04213616997003555 -0.5513359308242798 0.08734104037284851 0.0 0.0 0.0 0.0
2.386 -0.032744150608778 0.0439537949860096 -0.5498958826065063 0.09395543485879898 0.0 0.0 0.0 0.0
2.387 -0.03512671962380409 0.047235142439603806 -0.5418146252632141 0.125040665268898 0.0 0.0 0.0 0.0
2.388 -0.0412377305328846 0.049426041543483734 -0.5391688942909241 0.12963348627090454 0.0 0.0 0.0 0.0
2.389 -0.04613509774208069 0.052016038447618484 -0.5335023403167725 0.16066889464855194 0.0 0.0 0.0 0.0
2.39 -0.04923592507839203 0.05442266911268234 -0.5255562663078308 0.17103147506713867 0.0 0.0 0.0 0.0
2.391 -0.05371867120265961 0.057859037071466446 -0.5233853459358215 0.19506171345710754 0.0 0.0 0.0 0.0
2.392 -0.059063833206892014 0.06112590804696083 -0.5116336941719055 0.2103746235370636 0.0 0.0 0.0 0.0
2.393 -0.06384388357400894 0.06342143565416336 -0.5075750946998596 0.22676390409469604 0.0 0.0 0.0 0.0
2.394 -0.06828271597623825 0.06671388447284698 -0.49448874592781067 0.2462558001279831 0.0 0.0 0.0 0.0
2.395 -0.07382509857416153 0.07067304104566574 -0.49311432242393494 0.25676804780960083 0.0 0.0 0.0 0.0
2.396 -0.07750044763088226 0.07485422492027283 -0.47330623865127563 0.2828011214733124 0.0 0.0 0.0 0.0
2.397 -0.08287700265645981 0.07737415283918381 -0.46850115060806274 0.28824999928474426 0.0 0.0 0.0 0.0
2.398 -0.08794142305850983 0.08278563618659973 -0.4528025984764099 0.3126879334449768 0.0 0.0 0.0 0.0
2.399 -0.09303475171327591 0.08530623465776443 -0.4477408230304718 0.31884267926216125 0.0 0.0 0.0 0.0
2.4 -0.09787888079881668 0.09225590527057648 -0.42947763204574585 0.3442789912223816 0.0 0.0 0.0 0.0
2.401 -0.10189412534236908 0.09552191197872162 -0.42227423191070557 0.34768036007881165 0.0 0.0 0.0 0.0
2.402 -0.10645981132984161 0.10084855556488037 -0.4042772054672241 0.37052857875823975 0.0 0.0 0.0 0.0
2.403 -0.11209253966808319 0.10607576370239258 -0.3977680206298828 0.3740729093551636 0.0 0.0 0.0 0.0
2.404 -0.11508378386497498 0.11380969732999802 -0.37738993763923645 0.3962346911430359 0.0 0.0 0.0 0.0
2.405 -0.12034749239683151 0.11725105345249176 -0.3692820966243744 0.39935025572776794 0.0 0.0 0.0 0.0
2.406 -0.12437286227941513 0.12564995884895325 -0.34089478850364685 0.422115683555603 0.0 0.0 0.0 0.0
2.407 -0.12840710580348969 0.13149778544902802 -0.3320150673389435 0.430658221244812 0.0 0.0 0.0 0.0
2.408 -0.13222627341747284 0.13612066209316254 -0.3225981891155243 0.4332456588745117 0.0 0.0 0.0 0.0
2.409 -0.13288193941116333 0.14630746841430664 -0.2965230941772461 0.45214569568634033 0.0 0.0 0.0 0.0
2.41 -0.1393570452928543 0.1507517695426941 -0.2922334671020508 0.4509580433368683 0.0 0.0 0.0 0.0
2.411 -0.14235590398311615 0.15745505690574646 -0.2717028558254242 0.46523600816726685 0.0 0.0 0.0 0.0
2.412 -0.14333665370941162 0.16726934909820557 -0.25201693177223206 0.4721657931804657 0.0 0.0 0.0 0.0
2.413 -0.1487121731042862 0.1733100563287735 -0.2418222725391388 0.47669050097465515 0.0 0.0 0.0 0.0
2.414 -0.14857164025306702 0.18113860487937927 -0.22217118740081787 0.4831353425979614 0.0 0.0 0.0 0.0
2.415 -0.15283061563968658 0.18844830989837646 -0.20805618166923523 0.490464985370636 0.0 0.0 0.0 0.0
2.416 -0.15256807208061218 0.19810447096824646 -0.18844100832939148 0.49456778168678284 0.0 0.0 0.0 0.0
2.417 -0.15555840730667114 0.2046166956424713 -0.17519110441207886 0.49800947308540344 0.0 0.0 0.0 0.0
2.418 -0.1551855057477951 0.21543699502944946 -0.14789482951164246 0.5052988529205322 0.0 0.0 0.0 0.0
2.419 -0.15682028234004974 0.22225643694400787 -0.14172987639904022 0.505068302154541 0.0 0.0 0.0 0.0
2.42 -0.15600021183490753 0.23273885250091553 -0.11421976238489151 0.5103874802589417 0.0 0.0 0.0 0.0
2.421 -0.15745331346988678 0.240304633975029 -0.10817325860261917 0.5117448568344116 0.0 0.0 0.0 0.0
2.422 -0.15636806190013885 0.2506542205810547 -0.08269193023443222 0.5144563913345337 0.0 0.0 0.0 0.0
2.423 -0.15532615780830383 0.25790029764175415 -0.07354019582271576 0.5131008625030518 0.0 0.0 0.0 0.0
2.424 -0.15511319041252136 0.268153578042984 -0.04898317530751228 0.5171846747398376 0.0 0.0 0.0 0.0
2.425 -0.15234754979610443 0.275854229927063 -0.036091845482587814 0.5143644213676453 0.0 0.0 0.0 0.0
2.426 -0.15254469215869904 0.2846611440181732 -0.018154745921492577 0.5147652626037598 0.0 0.0 0.0 0.0
2.427 -0.14800138771533966 0.29282838106155396 -0.0015044277533888817 0.5122123956680298 0.0 0.0 0.0 0.0
2.428 -0.14602141082286835 0.30200526118278503 0.012621818110346794 0.5126945376396179 0.0 0.0 0.0 0.0
2.429 -0.1417568325996399 0.3097999095916748 0.033254288136959076 0.507907509803772 0.0 0.0 0.0 0.0
2.43 -0.14217554032802582 0.3171938955783844 0.04515643045306206 0.5062160491943359 0.0 0.0 0.0 0.0
2.431 -0.13436374068260193 0.3266853392124176 0.06832092255353928 0.5016027688980103 0.0 0.0 0.0 0.0
2.432 -0.13546490669250488 0.33299610018730164 0.07655730098485947 0.49890756607055664 0.0 0.0 0.0 0.0
2.433 -0.12608107924461365 0.34341931343078613 0.09998919069766998 0.49291542172431946 0.0 0.0 0.0 0.0
2.434 -0.12400944530963898 0.34969425201416016 0.10358653962612152 0.49062925577163696 0.0 0.0 0.0 0.0
2.435 -0.11540110409259796 0.3586772382259369 0.13069909811019897 0.48419761657714844 0.0 0.0 0.0 0.0
2.436 -0.11514201015233994 0.36581340432167053 0.13243041932582855 0.48095348477363586 0.0 0.0 0.0 0.0
2.437 -0.10696864128112793 0.3725433945655823 0.16009606420993805 0.47191521525382996 0.0 0.0 0.0 0.0
2.438 -0.10284515470266342 0.3769984543323517 0.16244439780712128 0.4663097560405731 0.0 0.0 0.0 0.0
2.439 -0.09460261464118958 0.3864882290363312 0.1869513839483261 0.45684298872947693 0.0 0.0 0.0 0.0
2.44 -0.0885312482714653 0.3917035460472107 0.19732922315597534 0.45062631368637085 0.0 0.0 0.0 0.0
2.441 -0.08622882515192032 0.3981475234031677 0.2046400010585785 0.44640782475471497 0.0 0.0 0.0 0.0
2.442 -0.0761764869093895 0.40379711985588074 0.218752920627594 0.4367765188217163 0.0 0.0 0.0 0.0
2.443 -0.07339991629123688 0.4085477292537689 0.22883014380931854 0.4337731897830963 0.0 0.0 0.0 0.0
2.444 -0.05824511498212814 0.4152754545211792 0.24914641678333282 0.41763046383857727 0.0 0.0 0.0 0.0
2.445 -0.06058172136545181 0.41956135630607605 0.24916040897369385 0.41870546340942383 0.0 0.0 0.0 0.0
2.446 -0.046468835324048996 0.42456749081611633 0.27123671770095825 0.4013964831829071 0.0 0.0 0.0 0.0
2.447 -0.045051299035549164 0.4280972182750702 0.2750861346721649 0.3979143798351288 0.0 0.0 0.0 0.0
2.448 -0.02792234718799591 0.4333709180355072 0.29040923714637756 0.38501909375190735 0.0 0.0 0.0 0.0
2.449 -0.02349289506673813 0.4352486729621887 0.3014640212059021 0.37639856338500977 0.0 0.0 0.0 0.0
2.45 -0.016553759574890137 0.4405179023742676 0.3150061070919037 0.3658426105976105 0.0 0.0 0.0 0.0
2.451 -0.009238838218152523 0.4424144923686981 0.3180253505706787 0.35910090804100037 0.0 0.0 0.0 0.0
2.452 0.011949521489441395 0.4447929263114929 0.33926159143447876 0.33908313512802124 0.0 0.0 0.0 0.0
2.453 0.008917913772165775 0.44771766662597656 0.3394220173358917 0.33779963850975037 0.0 0.0 0.0 0.0
2.454 0.01645604521036148 0.45049041509628296 0.34763285517692566 0.3294106423854828 0.0 0.0 0.0 0.0
2.455 0.02806956134736538 0.4518466293811798 0.36119988560676575 0.3128707706928253 0.0 0.0 0.0 0.0
2.456 0.033386338502168655 0.45303139090538025 0.36541956663131714 0.30670806765556335 0.0 0.0 0.0 0.0
2.457 0.0445377379655838 0.4546201527118683 0.3766927123069763 0.2911938428878784 0.0 0.0 0.0 0.0
2.458 0.0491301529109478 0.4552139937877655 0.3812089264392853 0.284536212682724 0.0 0.0 0.0 0.0
2.459 0.06163996085524559 0.4563719928264618 0.3931296169757843 0.2675938010215759 0.0 0.0 0.0 0.0
2.46 0.06944539397954941 0.45313915610313416 0.39617040753364563 0.2628730535507202 0.0 0.0 0.0 0.0
2.461 0.07600320875644684 0.45702990889549255 0.4065861403942108 0.24533197283744812 0.0 0.0 0.0 0.0
2.462 0.08219141513109207 0.45438119769096375 0.40849003195762634 0.240590438246727 0.0 0.0 0.0 0.0
2.463 0.09230819344520569 0.45550304651260376 0.4232221841812134 0.22158217430114746 0.0 0.0 0.0 0.0
2.464 0.10279195755720139 0.4522639811038971 0.4250519573688507 0.21353715658187866 0.0 0.0 0.0 0.0
2.465 0.10964158922433853 0.45226848125457764 0.43110519647598267 0.20088964700698853 0.0 0.0 0.0 0.0
2.466 0.1202513799071312 0.4504965841770172 0.43513327836990356 0.18897996842861176 0.0 0.0 0.0 0.0
2.467 0.1233268678188324 0.4487985074520111 0.4409150779247284 0.17913007736206055 0.0 0.0 0.0 0.0
2.468 0.13749705255031586 0.444247305393219 0.447232186794281 0.16160628199577332 0.0 0.0 0.0 0.0
2.469 0.13706110417842865 0.4443853497505188 0.45223337411880493 0.1554524153470993 0.0 0.0 0.0 0.0
2.47 0.15242351591587067 0.43927374482154846 0.45768553018569946 0.13272693753242493 0.0 0.0 0.0 0.0
2.471 0.15437361598014832 0.4383459687232971 0.4600645899772644 0.13048440217971802 0.0 0.0 0.0 0.0
2.472 0.16680003702640533 0.43216997385025024 0.4659971594810486 0.10650815069675446 0.0 0.0 0.0 0.0
2.473 0.16959258913993835 0.4298662841320038 0.4675457775592804 0.10129222273826599 0.0 0.0 0.0 0.0
2.474 0.18325497210025787 0.4235847592353821 0.47330254316329956 0.075604148209095 0.0 0.0 0.0 0.0
2.475 0.18695712089538574 0.4213658273220062 0.475108802318573 0.07723972946405411 0.0 0.0 0.0 0.0
2.476 0.19261975586414337 0.4177589416503906 0.48103567957878113 0.05291342735290527 0.0 0.0 0.0 0.0
2.477 0.19795767962932587 0.411114364862442 0.4811011850833893 0.045203495770692825 0.0 0.0 0.0 0.0
2.478 0.20067012310028076 0.4086403548717499 0.4846993386745453 0.036833666265010834 0.0 0.0 0.0 0.0
2.479 0.213779479265213 0.4001680612564087 0.48221179842948914 0.012901878915727139 0.0 0.0 0.0 0.0
2.48 0.2179824560880661 0.3966011106967926 0.48711708188056946 -0.001251744106411934 0.0 0.0 0.0 0.0
2.481 0.22213169932365417 0.3893205225467682 0.4874982237815857 -0.011611854657530785 0.0 0.0 0.0 0.0
2.482 0.2232438325881958 0.38612863421440125 0.4910060465335846 -0.024679049849510193 0.0 0.0 0.0 0.0
2.483 0.2350538969039917 0.3757629990577698 0.4883309602737427 -0.04605398327112198 0.0 0.0 0.0 0.0
2.484 0.23435714840888977 0.37066835165023804 0.48954471945762634 -0.04726129025220871 0.0 0.0 0.0 0.0
2.485 0.2430036962032318 0.3647926151752472 0.4883250296115875 -0.07487405836582184 0.0 0.0 0.0 0.0
2.486 0.24278879165649414 0.3591019809246063 0.4884709417819977 -0.08317535370588303 0.0 0.0 0.0 0.0
2.487 0.24760742485523224 0.35236766934394836 0.48434165120124817 -0.10704048722982407 0.0 0.0 0.0 0.0
2.488 0.25056546926498413 0.3448324501514435 0.4845859408378601 -0.11106382310390472 0.0 0.0 0.0 0.0
2.489 0.25353720784187317 0.3397773802280426 0.4821368157863617 -0.13207155466079712 0.0 0.0 0.0 0.0
2.49 0.25605663657188416 0.3313038945198059 0.47815200686454773 -0.14089089632034302 0.0 0.0 0.0 0.0
2.491 0.26101362705230713 0.32412976026535034 0.4766071140766144 -0.16330991685390472 0.0 0.0 0.0 0.0
2.492 0.26136264204978943 0.3161589801311493 0.4744047522544861 -0.17452485859394073 0.0 0.0 0.0 0.0
2.493 0.26242488622665405 0.3109245300292969 0.4721108376979828 -0.19084514677524567 0.0 0.0 0.0 0.0
2.494 0.26677778363227844 0.29964569211006165 0.46170639991760254 -0.2115732729434967 0.0 0.0 0.0 0.0
2.495 0.263992041349411 0.2977536916732788 0.46160805225372314 -0.2220599353313446 0.0 0.0 0.0 0.0
2.496 0.27026867866516113 0.28618156909942627 0.45678433775901794 -0.23432278633117676 0.0 0.0 0.0 0.0
2.497 0.2664974629878998 0.2847670912742615 0.45038145780563354 -0.25083452463150024 0.0 0.0 0.0 0.0
2.498 0.27216655015945435 0.27081099152565 0.4396143853664398 -0.26866963505744934 0.0 0.0 0.0 0.0
2.499 0.2695893943309784 0.2664167284965515 0.4352370500564575 -0.27783679962158203 0.0 0.0 0.0 0.0
2.5 0.26814937591552734 0.2624189257621765 0.42415544390678406 -0.3004494607448578 0.0 0.0 0.0 0.0
2.501 0.2688102424144745 0.25286591053009033 0.4173716604709625 -0.311678946018219 0.0 0.0 0.0 0.0
2.502 0.26691481471061707 0.2490764707326889 0.41410258412361145 -0.32133224606513977 0.0 0.0 0.0 0.0
2.503 0.2660848796367645 0.24146705865859985 0.40021103620529175 -0.3369441628456116 0.0 0.0 0.0 0.0
2.504 0.26326143741607666 0.2380969226360321 0.39462968707084656 -0.3517332375049591 0.0 0.0 0.0 0.0
2.505 0.2640283405780792 0.22996440529823303 0.3801092207431793 -0.36832448840141296 0.0 0.0 0.0 0.0
2.506 0.2598053216934204 0.22674161195755005 0.376582533121109 -0.37826061248779297 0.0 0.0 0.0 0.0
2.507 0.26092368364334106 0.2173951268196106 0.35853007435798645 -0.39628732204437256 0.0 0.0 0.0 0.0
2.508 0.2515701949596405 0.2191784679889679 0.3561088740825653 -0.4024108946323395 0.0 0.0 0.0 0.0
2.509 0.2560400068759918 0.20611630380153656 0.33204564452171326 -0.42360880970954895 0.0 0.0 0.0 0.0
2.51 0.24969887733459473 0.20324724912643433 0.3270859122276306 -0.4277995228767395 0.0 0.0 0.0 0.0
2.511 0.25334489345550537 0.19383397698402405 0.3060235381126404 -0.44845351576805115 0.0 0.0 0.0 0.0
2.512 0.24576111137866974 0.1916743665933609 0.3022018074989319 -0.4513593316078186 0.0 0.0 0.0 0.0
2.513 0.243840292096138 0.18664610385894775 0.281988263130188 -0.47171708941459656 0.0 0.0 0.0 0.0
2.514 0.2408183366060257 0.1791926622390747 0.2639695703983307 -0.47850897908210754 0.0 0.0 0.0 0.0
2.515 0.23602692782878876 0.1789945662021637 0.2581222951412201 -0.49130743741989136 0.0 0.0 0.0 0.0
2.516 0.2350761443376541 0.1706302911043167 0.23465324938297272 -0.5021650195121765 0.0 0.0 0.0 0.0
2.517 0.22850096225738525 0.16971775889396667 0.22315558791160583 -0.5099004507064819 0.0 0.0 0.0 0.0
2.518 0.2272724211215973 0.16377031803131104 0.2047102302312851 -0.5186029076576233 0.0 0.0 0.0 0.0
2.519 0.22071991860866547 0.16431035101413727 0.1921394169330597 -0.5286749601364136 0.0 0.0 0.0 0.0
2.52 0.2179543823003769 0.16003680229187012 0.16791947185993195 -0.5337507724761963 0.0 0.0 0.0 0.0
2.521 0.2130957990884781 0.15753763914108276 0.15734447538852692 -0.5400971174240112 0.0 0.0 0.0 0.0
2.522 0.21216623485088348 0.15349631011486053 0.1284329891204834 -0.5479997992515564 0.0 0.0 0.0 0.0
2.523 0.20365643501281738 0.15552443265914917 0.12269912660121918 -0.551793098449707 0.0 0.0 0.0 0.0
2.524 0.203902468085289 0.1488269865512848 0.09187446534633636 -0.5619951486587524 0.0 0.0 0.0 0.0
2.525 0.19846825301647186 0.1476483792066574 0.08260002732276917 -0.5611181855201721 0.0 0.0 0.0 0.0
2.526 0.19509157538414001 0.14691641926765442 0.053003616631031036 -0.5694565176963806 0.0 0.0 0.0 0.0
2.527 0.19120986759662628 0.1441175937652588 0.041353579610586166 -0.5702947974205017 0.0 0.0 0.0 0.0
2.528 0.1877817064523697 0.14166772365570068 0.02023344114422798 -0.5764505863189697 0.0 0.0 0.0 0.0
2.529 0.1865210086107254 0.13873426616191864 -0.005472843535244465 -0.5765215754508972 0.0 0.0 0.0 0.0
2.53 0.18080247938632965 0.14065909385681152 -0.018026847392320633 -0.5796153545379639 0.0 0.0 0.0 0.0
2.531 0.17928993701934814 0.1373283863067627 -0.04256067052483559 -0.5750458836555481 0.0 0.0 0.0 0.0
2.532 0.1761859506368637 0.13554705679416656 -0.06327282637357712 -0.5790119767189026 0.0 0.0 0.0 0.0
2.533 0.17379628121852875 0.13577811419963837 -0.08464217185974121 -0.5732488036155701 0.0 0.0 0.0 0.0
2.534 0.1696605682373047 0.13569997251033783 -0.09903065115213394 -0.5744132995605469 0.0 0.0 0.0 0.0
2.535 0.16909441351890564 0.1316615641117096 -0.12563396990299225 -0.5679293870925903 0.0 0.0 0.0 0.0
2.536 0.16291677951812744 0.13393951952457428 -0.13233977556228638 -0.5683606266975403 0.0 0.0 0.0 0.0
2.537 0.16200697422027588 0.13372166454792023 -0.16556638479232788 -0.5621590614318848 0.0 0.0 0.0 0.0
2.538 0.1592782437801361 0.13088330626487732 -0.17859242856502533 -0.5580980181694031 0.0 0.0 0.0 0.0
2.539 0.15816737711429596 0.12976516783237457 -0.2045818418264389 -0.5512388348579407 0.0 0.0 0.0 0.0
2.54 0.15422669053077698 0.12834800779819489 -0.2143903374671936 -0.5480192303657532 0.0 0.0 0.0 0.0
2.541 0.15260402858257294 0.12758947908878326 -0.24060174822807312 -0.5429192185401917 0.0 0.0 0.0 0.0
2.542 0.15051235258579254 0.12763500213623047 -0.2532529830932617 -0.5340561270713806 0.0 0.0 0.0 0.0
2.543 0.14762234687805176 0.12662559747695923 -0.2740952670574188 -0.5259706974029541 0.0 0.0 0.0 0.0
2.544 0.14543548226356506 0.12448608875274658 -0.27762603759765625 -0.5266100168228149 0.0 0.0 0.0 0.0
2.545 0.14341841638088226 0.125052809715271 -0.30393272638320923 -0.5124008655548096 0.0 0.0 0.0 0.0
2.546 0.14316649734973907 0.1209142804145813 -0.3362124264240265 -0.4921562969684601 0.0 0.0 0.0 0.0
2.547 0.13948923349380493 0.11814181506633759 -0.34166398644447327 -0.49085262417793274 0.0 0.0 0.0 0.0
2.548 0.13606229424476624 0.11935552209615707 -0.3673880994319916 -0.47518637776374817 0.0 0.0 0.0 0.0
2.549 0.13488522171974182 0.11771901696920395 -0.37976136803627014 -0.4616926610469818 0.0 0.0 0.0 0.0
2.55 0.13116033375263214 0.11786855757236481 -0.40281936526298523 -0.44837602972984314 0.0 0.0 0.0 0.0
2.551 0.12926650047302246 0.11459856480360031 -0.4105401337146759 -0.43894869089126587 0.0 0.0 0.0 0.0
2.552 0.12583419680595398 0.11270958930253983 -0.42716923356056213 -0.42687416076660156 0.0 0.0 0.0 0.0
2.553 0.12525875866413116 0.10937390476465225 -0.45370081067085266 -0.39981964230537415 0.0 0.0 0.0 0.0
2.554 0.12110798060894012 0.10898865014314651 -0.4599761366844177 -0.3959696292877197 0.0 0.0 0.0 0.0
2.555 0.11917858570814133 0.10812915116548538 -0.4776400923728943 -0.37205028533935547 0.0 0.0 0.0 0.0
2.556 0.11490804702043533 0.10359930992126465 -0.4788629412651062 -0.36516255140304565 0.0 0.0 0.0 0.0
2.557 0.11348150670528412 0.10540226101875305 -0.5051406621932983 -0.33788159489631653 0.0 0.0 0.0 0.0
2.558 0.10859464854001999 0.10292476415634155 -0.5095280408859253 -0.3310765027999878 0.0 0.0 0.0 0.0
2.559 0.10635744780302048 0.09867910295724869 -0.5265966057777405 -0.3082665801048279 0.0 0.0 0.0 0.0
2.56 0.10173694789409637 0.09868746995925903 -0.5328996181488037 -0.2931230962276459 0.0 0.0 0.0 0.0
2.561 0.0998331606388092 0.09766209125518799 -0.5487812161445618 -0.26953035593032837 0.0 0.0 0.0 0.0
2.562 0.09252241998910904 0.0977257490158081 -0.5532522797584534 -0.2636663019657135 0.0 0.0 0.0 0.0
2.563 0.08937007188796997 0.09548311680555344 -0.5685629844665527 -0.23486357927322388 0.0 0.0 0.0 0.0
2.564 0.08551982790231705 0.09228435903787613 -0.5771734118461609 -0.21321605145931244 0.0 0.0 0.0 0.0
2.565 0.0787075012922287 0.09188060462474823 -0.5823339819908142 -0.20287615060806274 0.0 0.0 0.0 0.0
2.566 0.07736507803201675 0.08798791468143463 -0.5906142592430115 -0.17084546387195587 0.0 0.0 0.0 0.0
2.567 0.07165802270174026 0.08843802660703659 -0.5954009890556335 -0.15586841106414795 0.0 0.0 0.0 0.0
2.568 0.0679246336221695 0.08747495710849762 -0.6035587191581726 -0.12729163467884064 0.0 0.0 0.0 0.0
2.569 0.059597574174404144 0.08729252219200134 -0.6044790148735046 -0.11834948509931564 0.0 0.0 0.0 0.0
2.57 0.05532487481832504 0.08676505833864212 -0.6143249273300171 -0.0889209434390068 0.0 0.0 0.0 0.0
2.571 0.0518345981836319 0.08388569951057434 -0.6131107807159424 -0.06855599582195282 0.0 0.0 0.0 0.0
2.572 0.04616796597838402 0.08476866036653519 -0.6181057095527649 -0.03672856092453003 0.0 0.0 0.0 0.0
2.573 0.03836222365498543 0.08453921973705292 -0.6184982657432556 -0.03254888206720352 0.0 0.0 0.0 0.0
2.574 0.03298553079366684 0.08526024222373962 -0.620257556438446 -0.00035209115594625473 0.0 0.0 0.0 0.0
2.575 0.025565149262547493 0.08560500293970108 -0.6182927489280701 0.017091697081923485 0.0 0.0 0.0 0.0
2.576 0.01893487572669983 0.08620736002922058 -0.6176292896270752 0.04351774975657463 0.0 0.0 0.0 0.0
2.577 0.014742782339453697 0.08770062774419785 -0.6142955422401428 0.07069901376962662 0.0 0.0 0.0 0.0
2.578 0.006055430509150028 0.0883319303393364 -0.6149370074272156 0.08091039955615997 0.0 0.0 0.0 0.0
2.579 0.0016201082617044449 0.0900336354970932 -0.6066375374794006 0.11114862561225891 0.0 0.0 0.0 0.0
2.58 -0.0047532301396131516 0.09257233142852783 -0.6041000485420227 0.1332116723060608 0.0 0.0 0.0 0.0
2.581 -0.011880979873239994 0.09605912864208221 -0.5977541208267212 0.15614423155784607 0.0 0.0 0.0 0.0
2.582 -0.018941549584269524 0.09798119217157364 -0.5933483839035034 0.1694953888654709 0.0 0.0 0.0 0.0
2.583 -0.025545889511704445 0.10021866112947464 -0.5867239236831665 0.20468372106552124 0.0 0.0 0.0 0.0
2.584 -0.03118772991001606 0.10437086224555969 -0.5793772339820862 0.20637741684913635 0.0 0.0 0.0 0.0
2.585 -0.03627820312976837 0.10890274494886398 -0.56912761926651 0.23985645174980164 0.0 0.0 0.0 0.0
2.586 -0.04632772132754326 0.11135441809892654 -0.5654831528663635 0.2390078604221344 0.0 0.0 0.0 0.0
2.587 -0.04857410863041878 0.11538387835025787 -0.5482485890388489 0.27830445766448975 0.0 0.0 0.0 0.0
2.588 -0.05584164336323738 0.12050636112689972 -0.5411546230316162 0.2865864932537079 0.0 0.0 0.0 0.0
2.589 -0.06159021332859993 0.12604813277721405 -0.5259233713150024 0.31562498211860657 0.0 0.0 0.0 0.0
2.59 -0.06870260834693909 0.12918394804000854 -0.5243643522262573 0.31749966740608215 0.0 0.0 0.0 0.0
2.591 -0.07467764616012573 0.1358671635389328 -0.509922444820404 0.34085023403167725 0.0 0.0 0.0 0.0
2.592 -0.07572633028030396 0.14213791489601135 -0.4932844340801239 0.3551838994026184 0.0 0.0 0.0 0.0
2.593 -0.08306974172592163 0.14901350438594818 -0.4785501956939697 0.37426573038101196 0.0 0.0 0.0 0.0
2.594 -0.08676852285861969 0.15571732819080353 -0.4570067226886749 0.39761778712272644 0.0 0.0 0.0 0.0
2.595 -0.09062186628580093 0.1613026261329651 -0.45428240299224854 0.3997252285480499 0.0 0.0 0.0 0.0
2.596 -0.09721402078866959 0.1676667481660843 -0.43004310131073 0.42419612407684326 0.0 0.0 0.0 0.0
2.597 -0.09974882006645203 0.17399123311042786 -0.41514670848846436 0.43552669882774353 0.0 0.0 0.0 0.0
2.598 -0.1067616194486618 0.18145997822284698 -0.3981260061264038 0.4535681903362274 0.0 0.0 0.0 0.0
2.599 -0.10542213916778564 0.189144104719162 -0.3832000195980072 0.460631787776947 0.0 0.0 0.0 0.0
2.6 -0.10809358954429626 0.19635803997516632 -0.3662887513637543 0.4746288061141968 0.0 0.0 0.0 0.0
2.601 -0.10685998201370239 0.20701482892036438 -0.3380386233329773 0.4876704514026642 0.0 0.0 0.0 0.0
2.602 -0.11247772723436356 0.212425097823143 -0.3296216130256653 0.4926930069923401 0.0 0.0 0.0 0.0
2.603 -0.11344447731971741 0.22175683081150055 -0.30675527453422546 0.5066901445388794 0.0 0.0 0.0 0.0
2.604 -0.11973663419485092 0.2283182591199875 -0.29242387413978577 0.5186723470687866 0.0 0.0 0.0 0.0
2.605 -0.1168830394744873 0.23837554454803467 -0.274086594581604 0.524739682674408 0.0 0.0 0.0 0.0
2.606 -0.11926115304231644 0.24496619403362274 -0.2618458569049835 0.5241401195526123 0.0 0.0 0.0 0.0
2.607 -0.12021837383508682 0.2533426284790039 -0.22950361669063568 0.5414504408836365 0.0 0.0 0.0 0.0
2.608 -0.11878905445337296 0.25920310616493225 -0.2244599610567093 0.5361896753311157 0.0 0.0 0.0 0.0
2.609 -0.1196122094988823 0.2700841426849365 -0.21045920252799988 0.5486562848091125 0.0 0.0 0.0 0.0
2.61 -0.1218404546380043 0.27584224939346313 -0.19442938268184662 0.5467771887779236 0.0 0.0 0.0 0.0
2.611 -0.11666015535593033 0.2858181893825531 -0.16451196372509003 0.557155430316925 0.0 0.0 0.0 0.0
2.612 -0.11161914467811584 0.2964368760585785 -0.1412729024887085 0.5606070160865784 0.0 0.0 0.0 0.0
2.613 -0.12096953392028809 0.3000006079673767 -0.1435600370168686 0.5589413046836853 0.0 0.0 0.0 0.0
2.614 -0.11001867055892944 0.31082186102867126 -0.10877493768930435 0.5643806457519531 0.0 0.0 0.0 0.0
2.615 -0.11183726042509079 0.31728506088256836 -0.10383584350347519 0.5635247230529785 0.0 0.0 0.0 0.0
2.616 -0.10213320702314377 0.32602986693382263 -0.0674753487110138 0.5647192001342773 0.0 0.0 0.0 0.0
2.617 -0.10615114867687225 0.33372440934181213 -0.06332115828990936 0.5685593485832214 0.0 0.0 0.0 0.0
2.618 -0.10095922648906708 0.34178000688552856 -0.03586474806070328 0.567038893699646 0.0 0.0 0.0 0.0
2.619 -0.1010812520980835 0.34619593620300293 -0.025309594348073006 0.5686615705490112 0.0 0.0 0.0 0.0
2.62 -0.09179152548313141 0.3555356562137604 0.002462681382894516 0.5650913119316101 0.0 0.0 0.0 0.0
2.621 -0.09110911190509796 0.35974881052970886 0.0034203212708234787 0.5615188479423523 0.0 0.0 0.0 0.0
2.622 -0.08999593555927277 0.36687275767326355 0.03624643385410309 0.563508927822113 0.0 0.0 0.0 0.0
2.623 -0.08090219646692276 0.37242022156715393 0.04150589928030968 0.5590575933456421 0.0 0.0 0.0 0.0
2.624 -0.07111241668462753 0.38266363739967346 0.061050161719322205 0.5611065626144409 0.0 0.0 0.0 0.0
2.625 -0.05969689041376114 0.3883275091648102 0.08860104531049728 0.553530752658844 0.0 0.0 0.0 0.0
2.626 -0.06600887328386307 0.3926033675670624 0.09308978915214539 0.5526483654975891 0.0 0.0 0.0 0.0
2.627 -0.0548396110534668 0.39748281240463257 0.11442974954843521 0.5461309552192688 0.0 0.0 0.0 0.0
2.628 -0.045359667390584946 0.40175339579582214 0.1281566172838211 0.5374018549919128 0.0 0.0 0.0 0.0
2.629 -0.04216984659433365 0.4043700098991394 0.15032663941383362 0.5337364673614502 0.0 0.0 0.0 0.0
2.63 -0.04018368199467659 0.412727952003479 0.15712101757526398 0.5334214568138123 0.0 0.0 0.0 0.0
2.631 -0.03248834237456322 0.4163177013397217 0.18536226451396942 0.5225836634635925 0.0 0.0 0.0 0.0
2.632 -0.02570808120071888 0.4205704927444458 0.1859719306230545 0.5235719680786133 0.0 0.0 0.0 0.0
2.633 -0.015211466699838638 0.42657262086868286 0.2105610966682434 0.5147944092750549 0.0 0.0 0.0 0.0
2.634 -0.009642558172345161 0.42772939801216125 0.22247520089149475 0.5090522766113281 0.0 0.0 0.0 0.0
2.635 -0.0013140318915247917 0.42977628111839294 0.2436838150024414 0.49868255853652954 0.0 0.0 0.0 0.0
2.636 -0.005770072340965271 0.4359806478023529 0.24494580924510956 0.4974992871284485 0.0 0.0 0.0 0.0
2.637 -0.0018807882443070412 0.4350428283214569 0.25844573974609375 0.48945149779319763 0.0 0.0 0.0 0.0
2.638 0.021825920790433884 0.4414418935775757 0.28846439719200134 0.4785289168357849 0.0 0.0 0.0 0.0
2.639 0.02181958593428135 0.4387812614440918 0.29123440384864807 0.4690840244293213 0.0 0.0 0.0 0.0
2.64 0.03153958544135094 0.43945538997650146 0.30973413586616516 0.4652412235736847 0.0 0.0 0.0 0.0
2.641 0.03576686605811119 0.4430941343307495 0.31713321805000305 0.45642539858818054 0.0 0.0 0.0 0.0
2.642 0.04103480279445648 0.4436476230621338 0.3375908136367798 0.441733717918396 0.0 0.0 0.0 0.0
2.643 0.04581828787922859 0.4447934627532959 0.3463495671749115 0.4340289831161499 0.0 0.0 0.0 0.0
2.644 0.05861504375934601 0.4437272548675537 0.3661547303199768 0.422079473733902 0.0 0.0 0.0 0.0
2.645 0.06371226906776428 0.4446141719818115 0.3675417900085449 0.41465872526168823 0.0 0.0 0.0 0.0
2.646 0.06559409946203232 0.449192076921463 0.3895309567451477 0.39940518140792847 0.0 0.0 0.0 0.0
2.647 0.08224312216043472 0.44388121366500854 0.3994690775871277 0.38677239418029785 0.0 0.0 0.0 0.0
2.648 0.08359535038471222 0.4448048174381256 0.40526753664016724 0.3856815993785858 0.0 0.0 0.0 0.0
2.649 0.08944529294967651 0.4455922842025757 0.42327702045440674 0.3683091104030609 0.0 0.0 0.0 0.0
2.65 0.09945352375507355 0.4440874755382538 0.4300138056278229 0.3585730493068695 0.0 0.0 0.0 0.0
2.651 0.10789183527231216 0.44092831015586853 0.44364407658576965 0.3412870168685913 0.0 0.0 0.0 0.0
2.652 0.09531428664922714 0.4465711712837219 0.45270949602127075 0.33450213074684143 0.0 0.0 0.0 0.0
2.653 0.11739832907915115 0.43644362688064575 0.4702164828777313 0.31018540263175964 0.0 0.0 0.0 0.0
2.654 0.11908448487520218 0.4378223419189453 0.47005218267440796 0.3105587363243103 0.0 0.0 0.0 0.0
2.655 0.1400296837091446 0.4318034052848816 0.4879503548145294 0.29182642698287964 0.0 0.0 0.0 0.0
2.656 0.13700871169567108 0.43253853917121887 0.49424007534980774 0.28244492411613464 0.0 0.0 0.0 0.0
2.657 0.1412367969751358 0.42911645770072937 0.5104318857192993 0.2684897184371948 0.0 0.0 0.0 0.0
2.658 0.13775797188282013 0.4279458820819855 0.5049676299095154 0.26047560572624207 0.0 0.0 0.0 0.0
2.659 0.15347318351268768 0.42274507880210876 0.5252779126167297 0.23367685079574585 0.0 0.0 0.0 0.0
2.66 0.1621292680501938 0.419722318649292 0.5309459567070007 0.21686547994613647 0.0 0.0 0.0 0.0
2.661 0.17062120139598846 0.41731587052345276 0.5463258028030396 0.19397546350955963 0.0 0.0 0.0 0.0
2.662 0.1693715900182724 0.4151565730571747 0.5448508262634277 0.18920226395130157 0.0 0.0 0.0 0.0
2.663 0.16824065148830414 0.4100135862827301 0.5518400073051453 0.1780499666929245 0.0 0.0 0.0 0.0
2.664 0.18048705160617828 0.4045954644680023 0.557960033416748 0.1544894129037857 0.0 0.0 0.0 0.0
2.665 0.1816054731607437 0.4009436368942261 0.5652093291282654 0.14333786070346832 0.0 0.0 0.0 0.0
2.666 0.19103939831256866 0.39778944849967957 0.5767259001731873 0.10926420241594315 0.0 0.0 0.0 0.0
2.667 0.18041276931762695 0.3999065160751343 0.5805944204330444 0.10418309271335602 0.0 0.0 0.0 0.0
2.668 0.19408099353313446 0.3889998197555542 0.5854867100715637 0.07586441189050674 0.0 0.0 0.0 0.0
2.669 0.19785819947719574 0.3894289433956146 0.5893338918685913 0.07283598929643631 0.0 0.0 0.0 0.0
2.67 0.20327243208885193 0.3840848207473755 0.5938782095909119 0.03412531316280365 0.0 0.0 0.0 0.0
2.671 0.20434117317199707 0.3767629861831665 0.5963033437728882 0.035450417548418045 0.0 0.0 0.0 0.0
2.672 0.20805378258228302 0.37453535199165344 0.6024764180183411 0.01102919690310955 0.0 0.0 0.0 0.0
2.673 0.20479941368103027 0.37187495827674866 0.6003127694129944 0.005901774391531944 0.0 0.0 0.0 0.0
2.674 0.21065658330917358 0.3615039587020874 0.6066199541091919 -0.02717258781194687 0.0 0.0 0.0 0.0
2.675 0.22156555950641632 0.3557862937450409 0.5999044179916382 -0.05062637850642204 0.0 0.0 0.0 0.0
2.676 0.20556612312793732 0.3595334589481354 0.6038824915885925 -0.05189548805356026 0.0 0.0 0.0 0.0
2.677 0.22799336910247803 0.34588444232940674 0.6033191680908203 -0.09288230538368225 0.0 0.0 0.0 0.0
2.678 0.2238687127828598 0.3443043828010559 0.6040207147598267 -0.10744744539260864 0.0 0.0 0.0 0.0
2.679 0.2347116470336914 0.33435413241386414 0.601594090461731 -0.13595251739025116 0.0 0.0 0.0 0.0
2.68 0.2262091040611267 0.3397967219352722 0.6056830286979675 -0.13351218402385712 0.0 0.0 0.0 0.0
2.681 0.2344975471496582 0.32760700583457947 0.5930595397949219 -0.17632736265659332 0.0 0.0 0.0 0.0
2.682 0.2239890694618225 0.33179929852485657 0.5994012355804443 -0.1696806699037552 0.0 0.0 0.0 0.0
2.683 0.23019997775554657 0.3239615559577942 0.5895050168037415 -0.21524639427661896 0.0 0.0 0.0 0.0
2.684 0.2324015200138092 0.3185182809829712 0.5852227807044983 -0.2208348959684372 0.0 0.0 0.0 0.0
2.685 0.22842633724212646 0.3189695477485657 0.5830543637275696 -0.24342085421085358 0.0 0.0 0.0 0.0
2.686 0.23943690955638885 0.30391091108322144 0.5662503242492676 -0.26642927527427673 0.0 0.0 0.0 0.0
2.687 0.23293422162532806 0.306270956993103 0.5684814453125 -0.28225177526474 0.0 0.0 0.0 0.0
2.688 0.23747971653938293 0.2936721444129944 0.568584680557251 -0.29059410095214844 0.0 0.0 0.0 0.0
2.689 0.23141206800937653 0.3023656904697418 0.5601468086242676 -0.3181922733783722 0.0 0.0 0.0 0.0
2.69 0.23737388849258423 0.29444512724876404 0.5432295203208923 -0.3483065962791443 0.0 0.0 0.0 0.0
2.691 0.23953643441200256 0.28355395793914795 0.5353677868843079 -0.3635401129722595 0.0 0.0 0.0 0.0
2.692 0.24098101258277893 0.2845068573951721 0.5153142809867859 -0.3984168469905853 0.0 0.0 0.0 0.0
2.693 0.23661208152770996 0.2789575755596161 0.5104364156723022 -0.40489083528518677 0.0 0.0 0.0 0.0
2.694 0.22992083430290222 0.2838132977485657 0.4913344085216522 -0.4308185875415802 0.0 0.0 0.0 0.0
2.695 0.23614288866519928 0.26788032054901123 0.48668235540390015 -0.4352576732635498 0.0 0.0 0.0 0.0
2.696 0.23231178522109985 0.2727130651473999 0.47336721420288086 -0.4572821259498596 0.0 0.0 0.0 0.0
2.697 0.2379242330789566 0.2600328028202057 0.4455360472202301 -0.48102182149887085 0.0 0.0 0.0 0.0
2.698 0.23547083139419556 0.26218611001968384 0.4371175467967987 -0.49728158116340637 0.0 0.0 0.0 0.0
2.699 0.23434829711914062 0.25715023279190063 0.42594531178474426 -0.5068722367286682 0.0 0.0 0.0 0.0
2.7 0.2378995418548584 0.24752965569496155 0.411576509475708 -0.523232638835907 0.0 0.0 0.0 0.0
2.701 0.22904278337955475 0.2480490654706955 0.38786187767982483 -0.5398684144020081 0.0 0.0 0.0 0.0
2.702 0.23012034595012665 0.24590344727039337 0.3731857240200043 -0.5580126643180847 0.0 0.0 0.0 0.0
2.703 0.22692516446113586 0.2454618215560913 0.3414340317249298 -0.5764324069023132 0.0 0.0 0.0 0.0
2.704 0.22505731880664825 0.24504625797271729 0.3473968803882599 -0.5813851356506348 0.0 0.0 0.0 0.0
2.705 0.22982797026634216 0.23789148032665253 0.3049713373184204 -0.6016561388969421 0.0 0.0 0.0 0.0
2.706 0.23464305698871613 0.22649435698986053 0.2965405285358429 -0.6067037582397461 0.0 0.0 0.0 0.0
2.707 0.22962476313114166 0.22626088559627533 0.2597511112689972 -0.62592613697052 0.0 0.0 0.0 0.0
2.708 0.2242487221956253 0.227009579539299 0.2579036056995392 -0.6242892146110535 0.0 0.0 0.0 0.0
2.709 0.2215285301208496 0.22706593573093414 0.23485758900642395 -0.6473316550254822 0.0 0.0 0.0 0.0
2.71 0.2242630571126938 0.22357860207557678 0.21758970618247986 -0.6523351073265076 0.0 0.0 0.0 0.0
2.711 0.22517208755016327 0.21724338829517365 0.18565385043621063 -0.6670835018157959 0.0 0.0 0.0 0.0
2.712 0.22473369538784027 0.212575301527977 0.1688145250082016 -0.6634876132011414 0.0 0.0 0.0 0.0
2.713 0.22098985314369202 0.2117442786693573 0.14641351997852325 -0.671535074710846 0.0 0.0 0.0 0.0
2.714 0.22449050843715668 0.20541033148765564 0.10076294839382172 -0.681922972202301 0.0 0.0 0.0 0.0
2.715 0.22044193744659424 0.20767810940742493 0.11305287480354309 -0.6807763576507568 0.0 0.0 0.0 0.0
2.716 0.22239606082439423 0.1982099562883377 0.06303683668375015 -0.6877831220626831 0.0 0.0 0.0 0.0
2.717 0.2156801074743271 0.20140540599822998 0.05643360689282417 -0.6937223672866821 0.0 0.0 0.0 0.0
2.718 0.21276168525218964 0.20193757116794586 0.01249174028635025 -0.697486400604248 0.0 0.0 0.0 0.0
2.719 0.21451228857040405 0.19427081942558289 0.0006973864510655403 -0.6951066851615906 0.0 0.0 0.0 0.0
2.72 0.21772418916225433 0.190639466047287 -0.033730387687683105 -0.7037135362625122 0.0 0.0 0.0 0.0
2.721 0.20937380194664001 0.1919242888689041 -0.024262236431241035 -0.6981509923934937 0.0 0.0 0.0 0.0
2.722 0.21237806975841522 0.18262268602848053 -0.08346300572156906 -0.692409873008728 0.0 0.0 0.0 0.0
2.723 0.21195733547210693 0.18052959442138672 -0.09252721816301346 -0.6966385841369629 0.0 0.0 0.0 0.0
2.724 0.2040507197380066 0.1864546537399292 -0.11547603458166122 -0.7009958028793335 0.0 0.0 0.0 0.0
2.725 0.20940916240215302 0.17324668169021606 -0.14493629336357117 -0.6845018267631531 0.0 0.0 0.0 0.0
2.726 0.2055969387292862 0.17635810375213623 -0.16743417084217072 -0.6901512145996094 0.0 0.0 0.0 0.0
2.727 0.2095460444688797 0.16615325212478638 -0.19905415177345276 -0.6848998069763184 0.0 0.0 0.0 0.0
2.728 0.2020067721605301 0.16606035828590393 -0.21156328916549683 -0.6778572201728821 0.0 0.0 0.0 0.0
2.729 0.19995681941509247 0.1617385596036911 -0.24371778964996338 -0.66569983959198 0.0 0.0 0.0 0.0
2.73 0.19815468788146973 0.1589631885290146 -0.257951557636261 -0.6654226183891296 0.0 0.0 0.0 0.0
2.731 0.19642490148544312 0.1554170846939087 -0.3026145398616791 -0.6457233428955078 0.0 0.0 0.0 0.0
2.732 0.19593292474746704 0.1519944965839386 -0.30698615312576294 -0.6409857869148254 0.0 0.0 0.0 0.0
2.733 0.19707347452640533 0.1440182328224182 -0.3487968444824219 -0.6228768229484558 0.0 0.0 0.0 0.0
2.734 0.1933785378932953 0.14127349853515625 -0.362466424703598 -0.6081447005271912 0.0 0.0 0.0 0.0
2.735 0.18976174294948578 0.1420145183801651 -0.38717812299728394 -0.6103528738021851 0.0 0.0 0.0 0.0
2.736 0.18638873100280762 0.13588383793830872 -0.387288898229599 -0.6114313006401062 0.0 0.0 0.0 0.0
2.737 0.18194174766540527 0.13555653393268585 -0.42818015813827515 -0.582344651222229 0.0 0.0 0.0 0.0
2.738 0.17871986329555511 0.1329992115497589 -0.44904017448425293 -0.561534583568573 0.0 0.0 0.0 0.0
2.739 0.17463955283164978 0.1317310929298401 -0.4784534275531769 -0.5423479676246643 0.0 0.0 0.0 0.0
2.74 0.17395170032978058 0.1264740377664566 -0.47899913787841797 -0.5369876027107239 0.0 0.0 0.0 0.0
2.741 0.17262233793735504 0.12083975225687027 -0.5059328675270081 -0.517112672328949 0.0 0.0 0.0 0.0
2.742 0.1701114922761917 0.11488328874111176 -0.5236715078353882 -0.4969579577445984 0.0 0.0 0.0 0.0
2.743 0.16237623989582062 0.11822701245546341 -0.53367018699646 -0.4950553774833679 0.0 0.0 0.0 0.0
2.744 0.16047535836696625 0.11589118838310242 -0.5632011294364929 -0.4645453691482544 0.0 0.0 0.0 0.0
2.745 0.15785495936870575 0.11004920303821564 -0.5744584202766418 -0.445406973361969 0.0 0.0 0.0 0.0
2.746 0.15153923630714417 0.1085963323712349 -0.5946904420852661 -0.42385321855545044 0.0 0.0 0.0 0.0
2.747 0.14807012677192688 0.10522137582302094 -0.6053662896156311 -0.40654078125953674 0.0 0.0 0.0 0.0
2.748 0.14694806933403015 0.09751074016094208 -0.6155022382736206 -0.38879498839378357 0.0 0.0 0.0 0.0
2.749 0.13927897810935974 0.09893818944692612 -0.6363837122917175 -0.3587992489337921 0.0 0.0 0.0 0.0
2.75 0.13309861719608307 0.10049983859062195 -0.6483805179595947 -0.340943306684494 0.0 0.0 0.0 0.0
2.751 0.1307099163532257 0.09380300343036652 -0.6614810228347778 -0.3165304660797119 0.0 0.0 0.0 0.0
2.752 0.12234118580818176 0.09667667001485825 -0.6656678915023804 -0.2996022403240204 0.0 0.0 0.0 0.0
2.753 0.11965007334947586 0.09384580701589584 -0.682853102684021 -0.26042720675468445 0.0 0.0 0.0 0.0
2.754 0.11022728681564331 0.09594173729419708 -0.6881977915763855 -0.27067938446998596 0.0 0.0 0.0 0.0
2.755 0.10627304762601852 0.09407488256692886 -0.7038100361824036 -0.22146345674991608 0.0 0.0 0.0 0.0
2.756 0.10318966209888458 0.09200555086135864 -0.7084766030311584 -0.19848111271858215 0.0 0.0 0.0 0.0
2.757 0.0995473638176918 0.08961593359708786 -0.7226928472518921 -0.15493430197238922 0.0 0.0 0.0 0.0
2.758 0.09173532575368881 0.08751155436038971 -0.7206768989562988 -0.14621591567993164 0.0 0.0 0.0 0.0
2.759 0.08578353375196457 0.0901205912232399 -0.7268120050430298 -0.11878593266010284 0.0 0.0 0.0 0.0
2.76 0.08070595562458038 0.08930657804012299 -0.7286250591278076 -0.1008463203907013 0.0 0.0 0.0 0.0
2.761 0.07673349976539612 0.09065166115760803 -0.7383785843849182 -0.056760188192129135 0.0 0.0 0.0 0.0
2.762 0.07003296166658401 0.089867502450943 -0.7284995913505554 -0.04470609128475189 0.0 0.0 0.0 0.0
2.763 0.06481161713600159 0.08973374217748642 -0.7353520393371582 -0.023024998605251312 0.0 0.0 0.0 0.0
2.764 0.05846087634563446 0.09180442988872528 -0.7364391684532166 0.015343482606112957 0.0 0.0 0.0 0.0
2.765 0.05262501537799835 0.09465298056602478 -0.7360005378723145 0.028852343559265137 0.0 0.0 0.0 0.0
2.766 0.047832563519477844 0.09441865980625153 -0.7329084873199463 0.07044825702905655 0.0 0.0 0.0 0.0
2.767 0.04111431539058685 0.09615635871887207 -0.73299241065979 0.07832746207714081 0.0 0.0 0.0 0.0
2.768 0.038755182176828384 0.09722530096769333 -0.7279531359672546 0.12154006958007812 0.0 0.0 0.0 0.0
2.769 0.031737204641103745 0.10149795562028885 -0.7270161509513855 0.12964214384555817 0.0 0.0 0.0 0.0
2.77 0.025305528193712234 0.10353616625070572 -0.7189462780952454 0.16486497223377228 0.0 0.0 0.0 0.0
2.771 0.020111549645662308 0.10627367347478867 -0.7067891359329224 0.18464015424251556 0.0 0.0 0.0 0.0
2.772 0.01450884435325861 0.10928758978843689 -0.7092928290367126 0.20385633409023285 0.0 0.0 0.0 0.0
2.773 0.012063092552125454 0.11179934442043304 -0.6948227882385254 0.23388536274433136 0.0 0.0 0.0 0.0
2.774 0.006858672946691513 0.11526914685964584 -0.6880142688751221 0.2549164295196533 0.0 0.0 0.0 0.0
2.775 0.0026037227362394333 0.11835136264562607 -0.6740790605545044 0.29770800471305847 0.0 0.0 0.0 0.0
2.776 -0.003312918357551098 0.12263820320367813 -0.6690213680267334 0.29948511719703674 0.0 0.0 0.0 0.0
2.777 -0.005363684147596359 0.1261167675256729 -0.6520107388496399 0.33830633759498596 0.0 0.0 0.0 0.0
2.778 -0.005932539701461792 0.1320011168718338 -0.6398229002952576 0.35640689730644226 0.0 0.0 0.0 0.0
2.779 -0.011771522462368011 0.13319572806358337 -0.6239815354347229 0.3771771490573883 0.0 0.0 0.0 0.0
2.78 -0.017131473869085312 0.13665030896663666 -0.6146987080574036 0.3857647180557251 0.0 0.0 0.0 0.0
2.781 -0.01737997680902481 0.145888552069664 -0.5957794189453125 0.42472511529922485 0.0 0.0 0.0 0.0
2.782 -0.022569647058844566 0.14718107879161835 -0.5874961614608765 0.4326261878013611 0.0 0.0 0.0 0.0
2.783 -0.027020249515771866 0.15116530656814575 -0.5648536682128906 0.45753979682922363 0.0 0.0 0.0 0.0
2.784 -0.025099588558077812 0.1588621884584427 -0.5283241868019104 0.500881552696228 0.0 0.0 0.0 0.0
2.785 -0.03313921019434929 0.1622828096151352 -0.5487629771232605 0.48234423995018005 0.0 0.0 0.0 0.0
2.786 -0.028866499662399292 0.16648246347904205 -0.5059334635734558 0.5216245651245117 0.0 0.0 0.0 0.0
2.787 -0.039555009454488754 0.1716616004705429 -0.5017924308776855 0.5276524424552917 0.0 0.0 0.0 0.0
2.788 -0.03726821765303612 0.17943412065505981 -0.4824526309967041 0.545852541923523 0.0 0.0 0.0 0.0
2.789 -0.035257864743471146 0.18189764022827148 -0.4691411852836609 0.5502180457115173 0.0 0.0 0.0 0.0
2.79 -0.03308694437146187 0.18743829429149628 -0.441915363073349 0.5729489326477051 0.0 0.0 0.0 0.0
2.791 -0.038281265646219254 0.19003748893737793 -0.4316706359386444 0.5792338252067566 0.0 0.0 0.0 0.0
2.792 -0.037017665803432465 0.19757267832756042 -0.4009145498275757 0.6045843958854675 0.0 0.0 0.0 0.0
2.793 -0.04051104560494423 0.20142513513565063 -0.3889571726322174 0.6056029796600342 0.0 0.0 0.0 0.0
2.794 -0.041333284229040146 0.20803190767765045 -0.37044933438301086 0.6213341355323792 0.0 0.0 0.0 0.0
2.795 -0.03855111449956894 0.21059800684452057 -0.34629490971565247 0.6304044723510742 0.0 0.0 0.0 0.0
2.796 -0.0330343060195446 0.21546034514904022 -0.32575520873069763 0.6414381265640259 0.0 0.0 0.0 0.0
2.797 -0.03692391887307167 0.2207387536764145 -0.29030004143714905 0.651241660118103 0.0 0.0 0.0 0.0
2.798 -0.03720342740416527 0.22630159556865692 -0.28056418895721436 0.6658299565315247 0.0 0.0 0.0 0.0
2.799 -0.03143149986863136 0.23061956465244293 -0.25706785917282104 0.6721528172492981 0.0 0.0 0.0 0.0
2.8 -0.03763708844780922 0.23411738872528076 -0.24345414340496063 0.6777387857437134 0.0 0.0 0.0 0.0
2.801 -0.0321606807410717 0.2391228973865509 -0.20288322865962982 0.6907545924186707 0.0 0.0 0.0 0.0
2.802 -0.041489847004413605 0.24085824191570282 -0.21017980575561523 0.688284158706665 0.0 0.0 0.0 0.0
2.803 -0.027351483702659607 0.24700570106506348 -0.15220502018928528 0.701448380947113 0.0 0.0 0.0 0.0
2.804 -0.030224766582250595 0.24792160093784332 -0.1454993635416031 0.6992807388305664 0.0 0.0 0.0 0.0
2.805 -0.019254406914114952 0.25606194138526917 -0.09753876179456711 0.7119826674461365 0.0 0.0 0.0 0.0
2.806 -0.027144234627485275 0.2581273317337036 -0.09981148689985275 0.7143042683601379 0.0 0.0 0.0 0.0
2.807 -0.021936118602752686 0.2600714862346649 -0.0687667578458786 0.7153876423835754 0.0 0.0 0.0 0.0
2.808 -0.01968829333782196 0.2631252706050873 -0.056329499930143356 0.7133768796920776 0.0 0.0 0.0 0.0
2.809 -0.019812852144241333 0.2661772072315216 -0.022407812997698784 0.7184259295463562 0.0 0.0 0.0 0.0
2.81 -0.014039425179362297 0.2703588604927063 -7.621850818395615e-05 0.7139225602149963 0.0 0.0 0.0 0.0
2.811 -0.009755020961165428 0.2703651487827301 0.016206534579396248 0.7218136787414551 0.0 0.0 0.0 0.0
2.812 -0.004791761748492718 0.27460429072380066 0.05946655943989754 0.7151805758476257 0.0 0.0 0.0 0.0
2.813 -0.007278019562363625 0.2751869261264801 0.06961332261562347 0.719014585018158 0.0 0.0 0.0 0.0
2.814 -0.003099110908806324 0.27875903248786926 0.10053036361932755 0.7106314897537231 0.0 0.0 0.0 0.0
2.815 -0.003225192427635193 0.28097692131996155 0.1057945117354393 0.7150794267654419 0.0 0.0 0.0 0.0
2.816 0.006567733362317085 0.282613605260849 0.15716828405857086 0.7015342712402344 0.0 0.0 0.0 0.0
2.817 0.005162431858479977 0.2837755084037781 0.15498238801956177 0.7026445865631104 0.0 0.0 0.0 0.0
2.818 0.009483257308602333 0.28300878405570984 0.19895358383655548 0.6906629204750061 0.0 0.0 0.0 0.0
2.819 0.01112606842070818 0.2845163643360138 0.1970224678516388 0.6955572366714478 0.0 0.0 0.0 0.0
2.82 0.02407175675034523 0.2877499759197235 0.25290003418922424 0.6793253421783447 0.0 0.0 0.0 0.0
2.821 0.018279550597071648 0.2850131392478943 0.2574850022792816 0.6692986488342285 0.0 0.0 0.0 0.0
2.822 0.017259711399674416 0.28786465525627136 0.27291181683540344 0.6662436723709106 0.0 0.0 0.0 0.0
2.823 0.030619008466601372 0.28662848472595215 0.3107890486717224 0.6556239724159241 0.0 0.0 0.0 0.0
2.824 0.022278733551502228 0.28983592987060547 0.31083181500434875 0.6578329801559448 0.0 0.0 0.0 0.0
2.825 0.02770872600376606 0.28779008984565735 0.3457854688167572 0.6330456137657166 0.0 0.0 0.0 0.0
2.826 0.020998824387788773 0.28889915347099304 0.3429521322250366 0.6407508254051208 0.0 0.0 0.0 0.0
2.827 0.0367257259786129 0.28953859210014343 0.39106398820877075 0.6130344867706299 0.0 0.0 0.0 0.0
2.828 0.03463657200336456 0.28735706210136414 0.39135614037513733 0.6082172393798828 0.0 0.0 0.0 0.0
2.829 0.0411163829267025 0.288493275642395 0.4354109466075897 0.5840922594070435 0.0 0.0 0.0 0.0
2.83 0.035503849387168884 0.2881237268447876 0.4346025884151459 0.5794253945350647 0.0 0.0 0.0 0.0
2.831 0.04357167333364487 0.2885932922363281 0.47210603952407837 0.5622382760047913 0.0 0.0 0.0 0.0
2.832 0.046790022403001785 0.28552690148353577 0.5010455846786499 0.5324997901916504 0.0 0.0 0.0 0.0
2.833 0.04945230856537819 0.28435441851615906 0.511540949344635 0.528143048286438 0.0 0.0 0.0 0.0
2.834 0.047259487211704254 0.2840988337993622 0.5235495567321777 0.5156718492507935 0.0 0.0 0.0 0.0
2.835 0.05028797313570976 0.28507518768310547 0.5286087989807129 0.5096030235290527 0.0 0.0 0.0 0.0
2.836 0.05054551735520363 0.28147900104522705 0.5570486783981323 0.4790225028991699 0.0 0.0 0.0 0.0
2.837 0.05061289295554161 0.2820715010166168 0.5671956539154053 0.46582290530204773 0.0 0.0 0.0 0.0
2.838 0.048042722046375275 0.28426119685173035 0.6041955947875977 0.4286542236804962 0.0 0.0 0.0 0.0
2.839 0.05448555201292038 0.2810841202735901 0.6064570546150208 0.4315873086452484 0.0 0.0 0.0 0.0
2.84 0.056345134973526 0.2789754867553711 0.621841311454773 0.39327365159988403 0.0 0.0 0.0 0.0
2.841 0.052527692168951035 0.2784405052661896 0.6266902685165405 0.3963048458099365 0.0 0.0 0.0 0.0
2.842 0.062124233692884445 0.27719682455062866 0.6527198553085327 0.35680869221687317 0.0 0.0 0.0 0.0
2.843 0.060060203075408936 0.2769339680671692 0.652400016784668 0.34054693579673767 0.0 0.0 0.0 0.0
2.844 0.06519360095262527 0.2747717797756195 0.672344982624054 0.32001984119415283 0.0 0.0 0.0 0.0
2.845 0.05738569423556328 0.2752038538455963 0.6799159049987793 0.3032621443271637 0.0 0.0 0.0 0.0
2.846 0.06089062988758087 0.2761903405189514 0.6953402757644653 0.26417872309684753 0.0 0.0 0.0 0.0
2.847 0.05972636491060257 0.27543699741363525 0.7105989456176758 0.23930217325687408 0.0 0.0 0.0 0.0
2.848 0.05936435982584953 0.2753644585609436 0.7157627940177917 0.23147758841514587 0.0 0.0 0.0 0.0
2.849 0.06204647198319435 0.27167677879333496 0.7234772443771362 0.2038271427154541 0.0 0.0 0.0 0.0
2.85 0.05411136522889137 0.2747628390789032 0.7247769832611084 0.18754629790782928 0.0 0.0 0.0 0.0
2.851 0.0672609880566597 0.2711382806301117 0.7357968688011169 0.13826827704906464 0.0 0.0 0.0 0.0
2.852 0.05825643613934517 0.2733844220638275 0.7370455861091614 0.14641892910003662 0.0 0.0 0.0 0.0
2.853 0.07156519591808319 0.27035030722618103 0.747983455657959 0.07020074129104614 0.0 0.0 0.0 0.0
2.854 0.06048387661576271 0.2729366421699524 0.7471506595611572 0.0928998664021492 0.0 0.0 0.0 0.0
2.855 0.06352841854095459 0.27101993560791016 0.7584587931632996 0.04262436926364899 0.0 0.0 0.0 0.0
2.856 0.0620025210082531 0.27096283435821533 0.7507487535476685 0.027143117040395737 0.0 0.0 0.0 0.0
2.857 0.06180814653635025 0.27106207609176636 0.7572856545448303 -0.0017357049509882927 0.0 0.0 0.0 0.0
2.858 0.0638657733798027 0.2687869668006897 0.7525650262832642 -0.025616750121116638 0.0 0.0 0.0 0.0
2.859 0.06596904247999191 0.27046775817871094 0.7547482848167419 -0.0493292361497879 0.0 0.0 0.0 0.0
2.86 0.06416674703359604 0.26941341161727905 0.7539492249488831 -0.08023056387901306 0.0 0.0 0.0 0.0
2.861 0.063197061419487 0.27077385783195496 0.7494038343429565 -0.106998011469841 0.0 0.0 0.0 0.0
2.862 0.0671616867184639 0.2704167366027832 0.7466495633125305 -0.1314176321029663 0.0 0.0 0.0 0.0
2.863 0.06380943953990936 0.2699223756790161 0.7415660619735718 -0.15783725678920746 0.0 0.0 0.0 0.0
2.864 0.0679260790348053 0.27028536796569824 0.7339790463447571 -0.19826838374137878 0.0 0.0 0.0 0.0
2.865 0.06560324877500534 0.27239468693733215 0.7287583351135254 -0.20581157505512238 0.0 0.0 0.0 0.0
2.866 0.06600072979927063 0.27008557319641113 0.7183253169059753 -0.2402627170085907 0.0 0.0 0.0 0.0
2.867 0.06577682495117188 0.27097049355506897 0.714369535446167 -0.25361090898513794 0.0 0.0 0.0 0.0
2.868 0.07941430062055588 0.2713204026222229 0.6985498070716858 -0.3013322651386261 0.0 0.0 0.0 0.0
2.869 0.06613530218601227 0.2707647681236267 0.6950787901878357 -0.3027002513408661 0.0 0.0 0.0 0.0
2.87 0.06828693300485611 0.272839218378067 0.6849129796028137 -0.33156144618988037 0.0 0.0 0.0 0.0
2.871 0.0683407261967659 0.27459561824798584 0.6648637652397156 -0.3687168061733246 0.0 0.0 0.0 0.0
2.872 0.06906380504369736 0.275301992893219 0.6583041548728943 -0.3776875436306 0.0 0.0 0.0 0.0
2.873 0.07401349395513535 0.272343248128891 0.6428428888320923 -0.40283286571502686 0.0 0.0 0.0 0.0
2.874 0.06489013135433197 0.27515649795532227 0.6399867534637451 -0.41171795129776 0.0 0.0 0.0 0.0
2.875 0.0727972462773323 0.2754230201244354 0.6148431301116943 -0.4432705342769623 0.0 0.0 0.0 0.0
2.876 0.07206164300441742 0.27605149149894714 0.602345883846283 -0.4629230201244354 0.0 0.0 0.0 0.0
2.877 0.07908186316490173 0.27603647112846375 0.574314296245575 -0.49462631344795227 0.0 0.0 0.0 0.0
2.878 0.07744025439023972 0.27855348587036133 0.5664821267127991 -0.5078833699226379 0.0 0.0 0.0 0.0
2.879 0.08090642094612122 0.27618739008903503 0.5387478470802307 -0.5319824814796448 0.0 0.0 0.0 0.0
2.88 0.07509281486272812 0.2758650779724121 0.5513205528259277 -0.5169159770011902 0.0 0.0 0.0 0.0
2.881 0.08021590113639832 0.2761135995388031 0.5087853670120239 -0.5670647025108337 0.0 0.0 0.0 0.0
2.882 0.07972629368305206 0.2773928642272949 0.5005689859390259 -0.5725646018981934 0.0 0.0 0.0 0.0
2.883 0.08599493652582169 0.27780821919441223 0.4770530164241791 -0.590033769607544 0.0 0.0 0.0 0.0
2.884 0.09100616723299026 0.2746477723121643 0.4353457987308502 -0.6171773076057434 0.0 0.0 0.0 0.0
2.885 0.08556734770536423 0.2785595655441284 0.4322894215583801 -0.6219881772994995 0.0 0.0 0.0 0.0
2.886 0.09604308009147644 0.2726950943470001 0.41264861822128296 -0.6312363743782043 0.0 0.0 0.0 0.0
2.887 0.09028021991252899 0.27778881788253784 0.38760316371917725 -0.6596599221229553 0.0 0.0 0.0 0.0
2.888 0.09742862731218338 0.2754265367984772 0.35455527901649475 -0.6673343777656555 0.0 0.0 0.0 0.0
2.889 0.09017616510391235 0.2765042185783386 0.35118380188941956 -0.6700574159622192 0.0 0.0 0.0 0.0
2.89 0.09794772416353226 0.27517953515052795 0.3115493059158325 -0.6894406676292419 0.0 0.0 0.0 0.0
2.891 0.09972011297941208 0.27375537157058716 0.30059748888015747 -0.6960616707801819 0.0 0.0 0.0 0.0
2.892 0.11236429214477539 0.2674725651741028 0.275736540555954 -0.7026887536048889 0.0 0.0 0.0 0.0
2.893 0.10505423694849014 0.26920241117477417 0.250595360994339 -0.7131926417350769 0.0 0.0 0.0 0.0
2.894 0.10666276514530182 0.2701437771320343 0.21188746392726898 -0.7262058258056641 0.0 0.0 0.0 0.0
2.895 0.10619823634624481 0.27022770047187805 0.1952355057001114 -0.7328944206237793 0.0 0.0 0.0 0.0
2.896 0.1135331466794014 0.2692508399486542 0.16555452346801758 -0.7408904433250427 0.0 0.0 0.0 0.0
2.897 0.11376647651195526 0.2645108103752136 0.15181688964366913 -0.7422182559967041 0.0 0.0 0.0 0.0
2.898 0.1246611699461937 0.25846895575523376 0.1076856479048729 -0.7471961975097656 0.0 0.0 0.0 0.0
2.899 0.1233566477894783 0.25937119126319885 0.09570695459842682 -0.7473434805870056 0.0 0.0 0.0 0.0
2.9 0.12147258222103119 0.2588554620742798 0.06867583096027374 -0.7577033638954163 0.0 0.0 0.0 0.0
2.901 0.12020528316497803 0.25606513023376465 0.04812159016728401 -0.7566247582435608 0.0 0.0 0.0 0.0
2.902 0.12373927235603333 0.25386372208595276 0.02414773963391781 -0.7570576071739197 0.0 0.0 0.0 0.0
2.903 0.12905487418174744 0.24800236523151398 -0.013061419129371643 -0.7565215826034546 0.0 0.0 0.0 0.0
2.904 0.1257099062204361 0.24638092517852783 -0.023604871705174446 -0.7558743357658386 0.0 0.0 0.0 0.0
2.905 0.13091638684272766 0.241397425532341 -0.06469225883483887 -0.7579998970031738 0.0 0.0 0.0 0.0
2.906 0.12809251248836517 0.24104391038417816 -0.07812532782554626 -0.7498939633369446 0.0 0.0 0.0 0.0
2.907 0.13063830137252808 0.23662632703781128 -0.1255505532026291 -0.7524940371513367 0.0 0.0 0.0 0.0
2.908 0.13240134716033936 0.23527087271213531 -0.13025090098381042 -0.7498575448989868 0.0 0.0 0.0 0.0
2.909 0.13237152993679047 0.23084424436092377 -0.16374963521957397 -0.742638885974884 0.0 0.0 0.0 0.0
2.91 0.1324751228094101 0.22628885507583618 -0.18081115186214447 -0.7352930903434753 0.0 0.0 0.0 0.0
2.911 0.13399095833301544 0.2245176136493683 -0.22590479254722595 -0.7243754863739014 0.0 0.0 0.0 0.0
2.912 0.13618440926074982 0.21822993457317352 -0.24127230048179626 -0.7185335159301758 0.0 0.0 0.0 0.0
2.913 0.1309533566236496 0.2167104035615921 -0.24978415668010712 -0.7197736501693726 0.0 0.0 0.0 0.0
2.914 0.13809603452682495 0.2078714221715927 -0.28834256529808044 -0.7012308239936829 0.0 0.0 0.0 0.0
2.915 0.13271091878414154 0.20880834758281708 -0.30181384086608887 -0.7049242854118347 0.0 0.0 0.0 0.0
2.916 0.14377513527870178 0.19649887084960938 -0.34383606910705566 -0.669043242931366 0.0 0.0 0.0 0.0
2.917 0.12866345047950745 0.20054499804973602 -0.33597078919410706 -0.6865692734718323 0.0 0.0 0.0 0.0
2.918 0.13760921359062195 0.19387894868850708 -0.3938979506492615 -0.6537845134735107 0.0 0.0 0.0 0.0
2.919 0.13267220556735992 0.18941199779510498 -0.3800443410873413 -0.6551610231399536 0.0 0.0 0.0 0.0
2.92 0.13051223754882812 0.1861879676580429 -0.42612260580062866 -0.6348202228546143 0.0 0.0 0.0 0.0
2.921 0.12877917289733887 0.1822037249803543 -0.44257235527038574 -0.6224827170372009 0.0 0.0 0.0 0.0
2.922 0.12821951508522034 0.17669282853603363 -0.4623556435108185 -0.6045808792114258 0.0 0.0 0.0 0.0
2.923 0.12597185373306274 0.17435424029827118 -0.48735740780830383 -0.5846626162528992 0.0 0.0 0.0 0.0
2.924 0.12149938941001892 0.17264804244041443 -0.5051166415214539 -0.579980731010437 0.0 0.0 0.0 0.0
2.925 0.12288391590118408 0.16780471801757812 -0.5345299243927002 -0.5462827682495117 0.0 0.0 0.0 0.0
2.926 0.11620950698852539 0.1668381690979004 -0.5362221598625183 -0.5436823964118958 0.0 0.0 0.0 0.0
2.927 0.1153951957821846 0.16189725697040558 -0.5674529671669006 -0.5062516331672668 0.0 0.0 0.0 0.0
2.928 0.11422175168991089 0.15757565200328827 -0.5877967476844788 -0.48817530274391174 0.0 0.0 0.0 0.0
2.929 0.10734613239765167 0.1553071290254593 -0.6048505902290344 -0.47067195177078247 0.0 0.0 0.0 0.0
2.93 0.10386841744184494 0.1507798135280609 -0.6067267060279846 -0.46339017152786255 0.0 0.0 0.0 0.0
2.931 0.1007244661450386 0.15009132027626038 -0.6332148313522339 -0.4296128749847412 0.0 0.0 0.0 0.0
2.932 0.10001852363348007 0.14584356546401978 -0.6420952677726746 -0.410563588142395 0.0 0.0 0.0 0.0
2.933 0.09287253767251968 0.14404414594173431 -0.6607623100280762 -0.3890119194984436 0.0 0.0 0.0 0.0
2.934 0.09190484136343002 0.14017727971076965 -0.6643394827842712 -0.3762889802455902 0.0 0.0 0.0 0.0
2.935 0.08601582050323486 0.1394144743680954 -0.681108832359314 -0.3458887040615082 0.0 0.0 0.0 0.0
2.936 0.08316243439912796 0.13854818046092987 -0.6923306584358215 -0.31178510189056396 0.0 0.0 0.0 0.0
2.937 0.07236850261688232 0.13862507045269012 -0.6961579918861389 -0.30645322799682617 0.0 0.0 0.0 0.0
2.938 0.07349075376987457 0.1370973438024521 -0.7166695594787598 -0.2618781626224518 0.0 0.0 0.0 0.0
2.939 0.06656934320926666 0.13689930737018585 -0.7164479494094849 -0.2557322084903717 0.0 0.0 0.0 0.0
2.94 0.060836128890514374 0.13723985850811005 -0.7358431816101074 -0.1973370760679245 0.0 0.0 0.0 0.0
2.941 0.05888267233967781 0.1348135769367218 -0.7292484045028687 -0.2085811346769333 0.0 0.0 0.0 0.0
2.942 0.05498630553483963 0.13324211537837982 -0.7442255616188049 -0.15923109650611877 0.0 0.0 0.0 0.0
2.943 0.0498964786529541 0.1326368749141693 -0.7433313131332397 -0.14735698699951172 0.0 0.0 0.0 0.0
2.944 0.04695262759923935 0.13364829123020172 -0.7504462003707886 -0.1126030907034874 0.0 0.0 0.0 0.0
2.945 0.04125528782606125 0.13338756561279297 -0.7492017149925232 -0.09891541302204132 0.0 0.0 0.0 0.0
2.946 0.04124457389116287 0.13204112648963928 -0.7580481767654419 -0.04922196641564369 0.0 0.0 0.0 0.0
2.947 0.031985245645046234 0.1350402683019638 -0.7594682574272156 -0.045138854533433914 0.0 0.0 0.0 0.0
2.948 0.028294086456298828 0.1345188170671463 -0.7585769891738892 -0.018674982711672783 0.0 0.0 0.0 0.0
2.949 0.02867736853659153 0.13454309105873108 -0.7536178231239319 0.026750346645712852 0.0 0.0 0.0 0.0
2.95 0.018200451508164406 0.1381942480802536 -0.7597395181655884 0.029570745304226875 0.0 0.0 0.0 0.0
2.951 0.019381538033485413 0.1388646364212036 -0.7503730058670044 0.0841989517211914 0.0 0.0 0.0 0.0
2.952 0.01007024571299553 0.14190085232257843 -0.7503560781478882 0.07638699561357498 0.0 0.0 0.0 0.0
2.953 0.006951767019927502 0.14144408702850342 -0.7412753701210022 0.11801856011152267 0.0 0.0 0.0 0.0
2.954 0.0037169717252254486 0.14427463710308075 -0.7386593222618103 0.12768134474754333 0.0 0.0 0.0 0.0
2.955 0.0015052910894155502 0.14852620661258698 -0.7327926158905029 0.17250429093837738 0.0 0.0 0.0 0.0
2.956 -0.0023822272196412086 0.15045954287052155 -0.7266225218772888 0.179146870970726 0.0 0.0 0.0 0.0
2.957 -0.004726110026240349 0.15232326090335846 -0.7097762823104858 0.24208001792430878 0.0 0.0 0.0 0.0
2.958 -0.008281134068965912 0.1567830592393875 -0.7053402066230774 0.24619778990745544 0.0 0.0 0.0 0.0
2.959 -0.011676255613565445 0.15834380686283112 -0.7004751563072205 0.26094067096710205 0.0 0.0 0.0 0.0
2.96 -0.013086472637951374 0.1626628190279007 -0.6866238713264465 0.295168936252594 0.0 0.0 0.0 0.0
2.961 -0.018722912296652794 0.16422849893569946 -0.6833606362342834 0.29614853858947754 0.0 0.0 0.0 0.0
2.962 -0.01578795723617077 0.16950447857379913 -0.6603744626045227 0.34072524309158325 0.0 0.0 0.0 0.0
2.963 -0.022538768127560616 0.17140384018421173 -0.6597172021865845 0.3470379114151001 0.0 0.0 0.0 0.0
2.964 -0.01810191385447979 0.17618176341056824 -0.633698046207428 0.39101511240005493 0.0 0.0 0.0 0.0
2.965 -0.027048727497458458 0.1788688600063324 -0.6339554190635681 0.38695117831230164 0.0 0.0 0.0 0.0
2.966 -0.025478385388851166 0.1818803995847702 -0.6084514260292053 0.42416974902153015 0.0 0.0 0.0 0.0
2.967 -0.027365339919924736 0.18518973886966705 -0.5979247689247131 0.43168312311172485 0.0 0.0 0.0 0.0
2.968 -0.027166355401277542 0.18819831311702728 -0.5828292369842529 0.45708581805229187 0.0 0.0 0.0 0.0
2.969 -0.029302634298801422 0.19122320413589478 -0.5722610950469971 0.46432486176490784 0.0 0.0 0.0 0.0
2.97 -0.02746591530740261 0.19503439962863922 -0.5490418672561646 0.492783784866333 0.0 0.0 0.0 0.0
2.971 -0.02807231806218624 0.19814705848693848 -0.5272098779678345 0.5093750953674316 0.0 0.0 0.0 0.0
2.972 -0.03205106407403946 0.20250798761844635 -0.5232477784156799 0.5218374729156494 0.0 0.0 0.0 0.0
2.973 -0.025760145857930183 0.20772205293178558 -0.4877597689628601 0.5514224171638489 0.0 0.0 0.0 0.0
2.974 -0.030317995697259903 0.20883770287036896 -0.4837571382522583 0.5550444722175598 0.0 0.0 0.0 0.0
2.975 -0.028427617624402046 0.21133115887641907 -0.4530547261238098 0.5773234367370605 0.0 0.0 0.0 0.0
2.976 -0.02461610734462738 0.21568214893341064 -0.43167486786842346 0.5952167510986328 0.0 0.0 0.0 0.0
2.977 -0.026217812672257423 0.21580997109413147 -0.41343238949775696 0.6055179834365845 0.0 0.0 0.0 0.0
2.978 -0.028071383014321327 0.22190548479557037 -0.4015820622444153 0.611043393611908 0.0 0.0 0.0 0.0
2.979 -0.023410014808177948 0.22453787922859192 -0.37467527389526367 0.6276432275772095 0.0 0.0 0.0 0.0
2.98 -0.02552727609872818 0.225352942943573 -0.3648155927658081 0.6331982016563416 0.0 0.0 0.0 0.0
2.981 -0.023779217153787613 0.22842389345169067 -0.3346156179904938 0.6551904678344727 0.0 0.0 0.0 0.0
2.982 -0.029227785766124725 0.23274442553520203 -0.3204975426197052 0.6606319546699524 0.0 0.0 0.0 0.0
2.983 -0.01969776675105095 0.23348382115364075 -0.2840476930141449 0.6754969358444214 0.0 0.0 0.0 0.0
2.984 -0.017624450847506523 0.2357635796070099 -0.2613523006439209 0.6820083856582642 0.0 0.0 0.0 0.0
2.985 -0.02264692634344101 0.23575131595134735 -0.2544124722480774 0.6830049157142639 0.0 0.0 0.0 0.0
2.986 -0.016413353383541107 0.2406654953956604 -0.22463348507881165 0.6915966272354126 0.0 0.0 0.0 0.0
2.987 -0.013418011367321014 0.24173451960086823 -0.2047807276248932 0.7014623284339905 0.0 0.0 0.0 0.0
2.988 -0.00976614747196436 0.24222692847251892 -0.15313218533992767 0.7091732025146484 0.0 0.0 0.0 0.0
2.989 -0.012678113766014576 0.24449320137500763 -0.1640661209821701 0.7055938243865967 0.0 0.0 0.0 0.0
2.99 -0.006322410888969898 0.24436481297016144 -0.11554355174303055 0.7192772030830383 0.0 0.0 0.0 0.0
2.991 -0.008838742040097713 0.24633319675922394 -0.10484874993562698 0.7194059491157532 0.0 0.0 0.0 0.0
2.992 -0.005246862769126892 0.24862219393253326 -0.07533681392669678 0.7255721092224121 0.0 0.0 0.0 0.0
2.993 -0.0011053811758756638 0.24655021727085114 -0.05779620260000229 0.7234997749328613 0.0 0.0 0.0 0.0
2.994 0.0035275565460324287 0.2476566880941391 -0.02924802526831627 0.7251443862915039 0.0 0.0 0.0 0.0
2.995 0.004018014296889305 0.248683363199234 -0.004376149736344814 0.730136513710022 0.0 0.0 0.0 0.0
2.996 -0.0002258792519569397 0.24896585941314697 0.009935131296515465 0.7266814708709717 0.0 0.0 0.0 0.0
2.997 0.012028362601995468 0.2498534917831421 0.05359620228409767 0.7213539481163025 0.0 0.0 0.0 0.0
2.998 0.0046577658504247665 0.2491132915019989 0.053047191351652145 0.7251993417739868 0.0 0.0 0.0 0.0
2.999 0.010749931447207928 0.24870337545871735 0.0976666808128357 0.7192817330360413 0.0 0.0 0.0 0.0
3.0 0.00563453696668148 0.24993501603603363 0.09539426118135452 0.7209347486495972 0.0 0.0 0.0 0.0
3.001 0.008342579007148743 0.24986088275909424 0.12890322506427765 0.7158476114273071 0.0 0.0 0.0 0.0
3.002 0.01062566228210926 0.2511954605579376 0.1651640385389328 0.7104055881500244 0.0 0.0 0.0 0.0
3.003 0.01639026403427124 0.24826619029045105 0.1794113963842392 0.7064154148101807 0.0 0.0 0.0 0.0
3.004 0.012986884452402592 0.24912697076797485 0.20534831285476685 0.6962217092514038 0.0 0.0 0.0 0.0
3.005 0.016762716695666313 0.24794483184814453 0.23182076215744019 0.6887233257293701 0.0 0.0 0.0 0.0
3.006 0.016687363386154175 0.24750074744224548 0.23974819481372833 0.6874949336051941 0.0 0.0 0.0 0.0
3.007 0.018464384600520134 0.24693663418293 0.284097284078598 0.6680169701576233 0.0 0.0 0.0 0.0
3.008 0.016469519585371017 0.24528378248214722 0.2893328070640564 0.6640006303787231 0.0 0.0 0.0 0.0
3.009 0.022969486191868782 0.2425389587879181 0.3346650004386902 0.6457154750823975 0.0 0.0 0.0 0.0
3.01 0.020516162738204002 0.24386417865753174 0.336333692073822 0.6451981663703918 0.0 0.0 0.0 0.0
3.011 0.019719237461686134 0.24346113204956055 0.36900651454925537 0.6261876225471497 0.0 0.0 0.0 0.0
3.012 0.02635016106069088 0.24272476136684418 0.39665618538856506 0.6131289005279541 0.0 0.0 0.0 0.0
3.013 0.018498888239264488 0.2412857562303543 0.40896686911582947 0.5981224179267883 0.0 0.0 0.0 0.0
3.014 0.021013975143432617 0.23956161737442017 0.437153160572052 0.5788033604621887 0.0 0.0 0.0 0.0
3.015 0.024028770625591278 0.23785753548145294 0.4429343640804291 0.5766693949699402 0.0 0.0 0.0 0.0
3.016 0.022365765646100044 0.2385503053665161 0.46784886717796326 0.553756594657898 0.0 0.0 0.0 0.0
3.017 0.01934174820780754 0.2365141212940216 0.48425766825675964 0.5450178384780884 0.0 0.0 0.0 0.0
3.018 0.022876912727952003 0.2361965775489807 0.5094696879386902 0.5194277763366699 0.0 0.0 0.0 0.0
3.019 0.02020839974284172 0.23419469594955444 0.5163336992263794 0.5037001967430115 0.0 0.0 0.0 0.0
3.02 0.019282428547739983 0.23635166883468628 0.5361372828483582 0.4898488521575928 0.0 0.0 0.0 0.0
3.021 0.015194653533399105 0.233475923538208 0.5426075458526611 0.4769599139690399 0.0 0.0 0.0 0.0
3.022 0.015992168337106705 0.23347771167755127 0.5656817555427551 0.45394808053970337 0.0 0.0 0.0 0.0
3.023 0.01915944740176201 0.2321964055299759 0.5757701396942139 0.4325426518917084 0.0 0.0 0.0 0.0
3.024 0.01615636795759201 0.23395606875419617 0.6026052832603455 0.40291139483451843 0.0 0.0 0.0 0.0
3.025 0.017903467640280724 0.2315598726272583 0.6154060959815979 0.3793366253376007 0.0 0.0 0.0 0.0
3.026 0.013320112600922585 0.23264476656913757 0.6185052394866943 0.3700826168060303 0.0 0.0 0.0 0.0
3.027 0.016803491860628128 0.23249688744544983 0.6314345002174377 0.3419446349143982 0.0 0.0 0.0 0.0
3.028 0.008772711269557476 0.23208017647266388 0.637162446975708 0.3344772160053253 0.0 0.0 0.0 0.0
3.029 0.013779566623270512 0.23223772644996643 0.6589711308479309 0.29091814160346985 0.0 0.0 0.0 0.0
3.03 0.014364681206643581 0.23154285550117493 0.6556512713432312 0.2875955104827881 0.0 0.0 0.0 0.0
3.031 0.00989464670419693 0.23321335017681122 0.6776178479194641 0.24778445065021515 0.0 0.0 0.0 0.0
3.032 0.007277342490851879 0.23235590755939484 0.6758677363395691 0.2342764288187027 0.0 0.0 0.0 0.0
3.033 0.005326053127646446 0.23541493713855743 0.6829859614372253 0.20662464201450348 0.0 0.0 0.0 0.0
3.034 0.007775934413075447 0.23455409705638885 0.6886765360832214 0.18618091940879822 0.0 0.0 0.0 0.0
3.035 0.006846758536994457 0.2353752851486206 0.7000784277915955 0.15743131935596466 0.0 0.0 0.0 0.0
3.036 0.0016780775040388107 0.2374585121870041 0.7000777721405029 0.13394474983215332 0.0 0.0 0.0 0.0
3.037 0.002794354222714901 0.23753781616687775 0.7061867117881775 0.11218269914388657 0.0 0.0 0.0 0.0
3.038 0.003097650595009327 0.23870699107646942 0.705568253993988 0.08737870305776596 0.0 0.0 0.0 0.0
3.039 -0.002945910207927227 0.24099774658679962 0.7072339653968811 0.06657928228378296 0.0 0.0 0.0 0.0
3.04 0.0019073430448770523 0.24099946022033691 0.7074622511863708 0.03055776283144951 0.0 0.0 0.0 0.0
3.041 -0.0013948623090982437 0.2437550574541092 0.7051286697387695 0.025811444967985153 0.0 0.0 0.0 0.0
3.042 0.0055769989266991615 0.2437179684638977 0.7009153366088867 -0.023732809349894524 0.0 0.0 0.0 0.0
3.043 -0.0032121585682034492 0.24720007181167603 0.7038410305976868 -0.018329938873648643 0.0 0.0 0.0 0.0
3.044 0.00014328118413686752 0.24812477827072144 0.6984170079231262 -0.06263241171836853 0.0 0.0 0.0 0.0
3.045 -0.004367625340819359 0.24858500063419342 0.6965668797492981 -0.06581549346446991 0.0 0.0 0.0 0.0
3.046 0.00035883579403162 0.2517368793487549 0.692732572555542 -0.11045411229133606 0.0 0.0 0.0 0.0
3.047 -0.002108946442604065 0.25376683473587036 0.6835300922393799 -0.11990736424922943 0.0 0.0 0.0 0.0
3.048 -0.0015635360032320023 0.25649529695510864 0.6835665702819824 -0.1522056758403778 0.0 0.0 0.0 0.0
3.049 0.0006664618849754333 0.25805768370628357 0.6732909083366394 -0.16665580868721008 0.0 0.0 0.0 0.0
3.05 -0.0008475836366415024 0.258791446685791 0.6669102311134338 -0.1915259212255478 0.0 0.0 0.0 0.0
3.051 0.004540679045021534 0.26049163937568665 0.6560088992118835 -0.21100981533527374 0.0 0.0 0.0 0.0
3.052 0.0010292306542396545 0.26458555459976196 0.647683322429657 -0.2379179149866104 0.0 0.0 0.0 0.0
3.053 0.0019792895764112473 0.2670941650867462 0.6441205143928528 -0.2527482211589813 0.0 0.0 0.0 0.0
3.054 -0.000575672835111618 0.2683061361312866 0.631216287612915 -0.27426281571388245 0.0 0.0 0.0 0.0
3.055 0.008349195122718811 0.26960012316703796 0.6166843175888062 -0.30616289377212524 0.0 0.0 0.0 0.0
3.056 0.0050756968557834625 0.2720949947834015 0.610872745513916 -0.31343013048171997 0.0 0.0 0.0 0.0
3.057 0.010962973348796368 0.27481433749198914 0.5905037522315979 -0.3423433005809784 0.0 0.0 0.0 0.0
3.058 0.00818457081913948 0.2751157283782959 0.587439239025116 -0.34646397829055786 0.0 0.0 0.0 0.0
3.059 0.01410137489438057 0.2789158821105957 0.5667374730110168 -0.3793351352214813 0.0 0.0 0.0 0.0
3.06 0.019726237282156944 0.2803342044353485 0.5403155088424683 -0.4088272452354431 0.0 0.0 0.0 0.0
3.061 0.014877038076519966 0.28110018372535706 0.5442949533462524 -0.4111422598361969 0.0 0.0 0.0 0.0
3.062 0.02017034776508808 0.2825942933559418 0.5204369425773621 -0.42687752842903137 0.0 0.0 0.0 0.0
3.063 0.019680878147482872 0.28287261724472046 0.5154929161071777 -0.42933937907218933 0.0 0.0 0.0 0.0
3.064 0.02447369694709778 0.28562667965888977 0.4897780120372772 -0.46135979890823364 0.0 0.0 0.0 0.0
3.065 0.023367777466773987 0.2871973216533661 0.49040207266807556 -0.45908480882644653 0.0 0.0 0.0 0.0
3.066 0.024929828941822052 0.28737208247184753 0.4600408673286438 -0.48583751916885376 0.0 0.0 0.0 0.0
3.067 0.027082063257694244 0.28738316893577576 0.4528532326221466 -0.49269264936447144 0.0 0.0 0.0 0.0
3.068 0.03632223978638649 0.2877587676048279 0.42080211639404297 -0.5184945464134216 0.0 0.0 0.0 0.0
3.069 0.0377013199031353 0.28796902298927307 0.41400444507598877 -0.523840606212616 0.0 0.0 0.0 0.0
3.07 0.03835581988096237 0.2899031639099121 0.39850130677223206 -0.5448138117790222 0.0 0.0 0.0 0.0
3.071 0.04245816171169281 0.28866809606552124 0.3744533658027649 -0.54889315366745 0.0 0.0 0.0 0.0
3.072 0.046156346797943115 0.29009580612182617 0.3489800691604614 -0.568773627281189 0.0 0.0 0.0 0.0
3.073 0.04860391095280647 0.28922080993652344 0.33546796441078186 -0.569784939289093 0.0 0.0 0.0 0.0
3.074 0.04951369762420654 0.28835418820381165 0.32708290219306946 -0.5793115496635437 0.0 0.0 0.0 0.0
3.075 0.06206333264708519 0.28679174184799194 0.29538825154304504 -0.5940237045288086 0.0 0.0 0.0 0.0
3.076 0.056629348546266556 0.28812092542648315 0.28917667269706726 -0.5945409536361694 0.0 0.0 0.0 0.0
3.077 0.062159739434719086 0.28648051619529724 0.2560933232307434 -0.6133606433868408 0.0 0.0 0.0 0.0
3.078 0.05828728526830673 0.28775203227996826 0.2431861311197281 -0.6104211807250977 0.0 0.0 0.0 0.0
3.079 0.06781432032585144 0.28422433137893677 0.21153943240642548 -0.6232473254203796 0.0 0.0 0.0 0.0
3.08 0.06950805336236954 0.28375545144081116 0.20953747630119324 -0.6218221783638 0.0 0.0 0.0 0.0
3.081 0.06807202100753784 0.28145650029182434 0.18710638582706451 -0.6331669688224792 0.0 0.0 0.0 0.0
3.082 0.07592849433422089 0.2811734080314636 0.15962156653404236 -0.635650098323822 0.0 0.0 0.0 0.0
3.083 0.07579044997692108 0.27810049057006836 0.14391188323497772 -0.6380136013031006 0.0 0.0 0.0 0.0
3.084 0.07985281944274902 0.2775513231754303 0.11006036400794983 -0.6434996724128723 0.0 0.0 0.0 0.0
3.085 0.0809958353638649 0.2752526104450226 0.10030394792556763 -0.6462755799293518 0.0 0.0 0.0 0.0
3.086 0.08688507229089737 0.2717229425907135 0.07134229689836502 -0.6456863284111023 0.0 0.0 0.0 0.0
3.087 0.08204954862594604 0.271624356508255 0.061918746680021286 -0.6475634574890137 0.0 0.0 0.0 0.0
3.088 0.08846978843212128 0.2679642140865326 0.0403810478746891 -0.6502980589866638 0.0 0.0 0.0 0.0
3.089 0.09370440244674683 0.2642132341861725 0.018714968115091324 -0.6488205194473267 0.0 0.0 0.0 0.0
3.09 0.10068091750144958 0.26007598638534546 -0.020386412739753723 -0.654353141784668 0.0 0.0 0.0 0.0
3.091 0.09602329134941101 0.25881150364875793 -0.01941223442554474 -0.6506205797195435 0.0 0.0 0.0 0.0
3.092 0.09838074445724487 0.25634765625 -0.053396180272102356 -0.646407961845398 0.0 0.0 0.0 0.0
3.093 0.10024527460336685 0.252988338470459 -0.06639500707387924 -0.6425467133522034 0.0 0.0 0.0 0.0
3.094 0.10030575096607208 0.24914629757404327 -0.09487660229206085 -0.6407446265220642 0.0 0.0 0.0 0.0
3.095 0.10107012093067169 0.24668732285499573 -0.11017082631587982 -0.6364489197731018 0.0 0.0 0.0 0.0
3.096 0.10241290181875229 0.2449396401643753 -0.1287682056427002 -0.6377682685852051 0.0 0.0 0.0 0.0
3.097 0.10492143034934998 0.24038901925086975 -0.15407928824424744 -0.6301277875900269 0.0 0.0 0.0 0.0
3.098 0.10045164823532104 0.23830927908420563 -0.16309385001659393 -0.6268583536148071 0.0 0.0 0.0 0.0
3.099 0.1049654632806778 0.2347942292690277 -0.20142507553100586 -0.6117390394210815 0.0 0.0 0.0 0.0
3.1 0.10181573778390884 0.23341093957424164 -0.2060886025428772 -0.6100989580154419 0.0 0.0 0.0 0.0
3.101 0.11296265572309494 0.22310690581798553 -0.25256526470184326 -0.5912885665893555 0.0 0.0 0.0 0.0
3.102 0.10243754088878632 0.22760441899299622 -0.23512515425682068 -0.5980778336524963 0.0 0.0 0.0 0.0
3.103 0.10662238299846649 0.22035765647888184 -0.2763380706310272 -0.5823825597763062 0.0 0.0 0.0 0.0
3.104 0.10359153896570206 0.22078751027584076 -0.2882460951805115 -0.5728550553321838 0.0 0.0 0.0 0.0
3.105 0.10478106141090393 0.2160036712884903 -0.3109069764614105 -0.5636005401611328 0.0 0.0 0.0 0.0
3.106 0.10496772825717926 0.2125302404165268 -0.3222571015357971 -0.5533589720726013 0.0 0.0 0.0 0.0
3.107 0.09975568950176239 0.2120501697063446 -0.3386300802230835 -0.5417289733886719 0.0 0.0 0.0 0.0
3.108 0.10436044633388519 0.20591141283512115 -0.3661521077156067 -0.5233435034751892 0.0 0.0 0.0 0.0
3.109 0.09653831273317337 0.20613573491573334 -0.3697347342967987 -0.5250037312507629 0.0 0.0 0.0 0.0
3.11 0.09936373680830002 0.20352520048618317 -0.3944978415966034 -0.49867483973503113 0.0 0.0 0.0 0.0
3.111 0.093950055539608 0.2019491344690323 -0.39089667797088623 -0.504241943359375 0.0 0.0 0.0 0.0
3.112 0.09932106733322144 0.19765064120292664 -0.4316006004810333 -0.4675220847129822 0.0 0.0 0.0 0.0
3.113 0.09060419350862503 0.19682250916957855 -0.4286908507347107 -0.4716838598251343 0.0 0.0 0.0 0.0
3.114 0.0950961634516716 0.19263456761837006 -0.46141287684440613 -0.43993860483169556 0.0 0.0 0.0 0.0
3.115 0.0885486900806427 0.19161313772201538 -0.4545322060585022 -0.441957026720047 0.0 0.0 0.0 0.0
3.116 0.08844044059515 0.19093568623065948 -0.4785135090351105 -0.41696882247924805 0.0 0.0 0.0 0.0
3.117 0.08901908993721008 0.18708477914333344 -0.492072194814682 -0.39620283246040344 0.0 0.0 0.0 0.0
3.118 0.08257442712783813 0.18837577104568481 -0.49747171998023987 -0.3936879634857178 0.0 0.0 0.0 0.0
3.119 0.08506878465414047 0.18650443851947784 -0.5156053304672241 -0.36098748445510864 0.0 0.0 0.0 0.0
3.12 0.08091726899147034 0.18611812591552734 -0.5269678831100464 -0.3553004860877991 0.0 0.0 0.0 0.0
3.121 0.0815497413277626 0.18458908796310425 -0.5366235375404358 -0.3275126516819 0.0 0.0 0.0 0.0
3.122 0.07428412139415741 0.18413615226745605 -0.5402523875236511 -0.32006219029426575 0.0 0.0 0.0 0.0
3.123 0.0761171206831932 0.18297459185123444 -0.5560512542724609 -0.2921254336833954 0.0 0.0 0.0 0.0
3.124 0.07085133343935013 0.1835736781358719 -0.5583965182304382 -0.28190869092941284 0.0 0.0 0.0 0.0
3.125 0.0707469955086708 0.1813381314277649 -0.5738168954849243 -0.2551368474960327 0.0 0.0 0.0 0.0
3.126 0.06989778578281403 0.1825161725282669 -0.5743802189826965 -0.24186363816261292 0.0 0.0 0.0 0.0
3.127 0.06633970141410828 0.18274864554405212 -0.5880913734436035 -0.22039780020713806 0.0 0.0 0.0 0.0
3.128 0.06707849353551865 0.18129467964172363 -0.5880334973335266 -0.2017931491136551 0.0 0.0 0.0 0.0
3.129 0.06380274146795273 0.18385083973407745 -0.5993705987930298 -0.18445731699466705 0.0 0.0 0.0 0.0
3.13 0.0648982971906662 0.181964710354805 -0.5982885360717773 -0.16447356343269348 0.0 0.0 0.0 0.0
3.131 0.060461271554231644 0.18420414626598358 -0.6024134159088135 -0.14893396198749542 0.0 0.0 0.0 0.0
3.132 0.06457328051328659 0.18318966031074524 -0.608919620513916 -0.11778461933135986 0.0 0.0 0.0 0.0
3.133 0.05922028049826622 0.18472245335578918 -0.6071425676345825 -0.11002599447965622 0.0 0.0 0.0 0.0
3.134 0.059804562479257584 0.18614286184310913 -0.6160163879394531 -0.07541826367378235 0.0 0.0 0.0 0.0
3.135 0.05785394087433815 0.18611839413642883 -0.6128093004226685 -0.07356774061918259 0.0 0.0 0.0 0.0
3.136 0.05588696897029877 0.18825793266296387 -0.6159852147102356 -0.037433311343193054 0.0 0.0 0.0 0.0
3.137 0.054983384907245636 0.1871606558561325 -0.6163057684898376 -0.03355132415890694 0.0 0.0 0.0 0.0
3.138 0.05851784721016884 0.1884983777999878 -0.6167863607406616 0.0017177769914269447 0.0 0.0 0.0 0.0
3.139 0.054983098059892654 0.18851922452449799 -0.6142135858535767 0.007776397280395031 0.0 0.0 0.0 0.0
3.14 0.057571157813072205 0.18957097828388214 -0.613945722579956 0.03784269839525223 0.0 0.0 0.0 0.0
3.141 0.0581914447247982 0.19069911539554596 -0.6081035137176514 0.05084903538227081 0.0 0.0 0.0 0.0
3.142 0.056846536695957184 0.19159263372421265 -0.607573926448822 0.07169562578201294 0.0 0.0 0.0 0.0
3.143 0.05858451500535011 0.19300390779972076 -0.6018517017364502 0.09288714826107025 0.0 0.0 0.0 0.0
3.144 0.05523260310292244 0.1937456727027893 -0.6006879210472107 0.10680980980396271 0.0 0.0 0.0 0.0
3.145 0.05753520131111145 0.19345013797283173 -0.5964447855949402 0.12667229771614075 0.0 0.0 0.0 0.0
3.146 0.055958136916160583 0.19574953615665436 -0.5924654603004456 0.14327798783779144 0.0 0.0 0.0 0.0
3.147 0.059816230088472366 0.19415892660617828 -0.5847122669219971 0.1676977276802063 0.0 0.0 0.0 0.0
3.148 0.057680949568748474 0.19687913358211517 -0.5798212885856628 0.177995964884758 0.0 0.0 0.0 0.0
3.149 0.061889827251434326 0.1953696757555008 -0.5701094269752502 0.20707064867019653 0.0 0.0 0.0 0.0
3.15 0.05960676446557045 0.19802625477313995 -0.5660090446472168 0.207016721367836 0.0 0.0 0.0 0.0
3.151 0.06384554505348206 0.19573648273944855 -0.5535115003585815 0.24292628467082977 0.0 0.0 0.0 0.0
3.152 0.06629370152950287 0.19635434448719025 -0.5488582253456116 0.2523950934410095 0.0 0.0 0.0 0.0
3.153 0.06664485484361649 0.19645695388317108 -0.5409711003303528 0.2708924114704132 0.0 0.0 0.0 0.0
3.154 0.06949871778488159 0.19490113854408264 -0.5259367823600769 0.2904585599899292 0.0 0.0 0.0 0.0
3.155 0.06698446720838547 0.19675129652023315 -0.5230271220207214 0.2977496385574341 0.0 0.0 0.0 0.0
3.156 0.07063953578472137 0.19598612189292908 -0.5074207782745361 0.3204496204853058 0.0 0.0 0.0 0.0
3.157 0.07145588845014572 0.1949174702167511 -0.5019624829292297 0.3266696631908417 0.0 0.0 0.0 0.0
3.158 0.0753537192940712 0.1917427033185959 -0.4828028380870819 0.3550003170967102 0.0 0.0 0.0 0.0
3.159 0.07364256680011749 0.1938675343990326 -0.48491644859313965 0.3508278429508209 0.0 0.0 0.0 0.0
3.16 0.07828958332538605 0.1929377168416977 -0.46029719710350037 0.38544878363609314 0.0 0.0 0.0 0.0
3.161 0.07686831802129745 0.1895209699869156 -0.4564591646194458 0.385785311460495 0.0 0.0 0.0 0.0
3.162 0.08062281459569931 0.18879346549510956 -0.44087424874305725 0.40718892216682434 0.0 0.0 0.0 0.0
3.163 0.08133329451084137 0.18624509871006012 -0.42851004004478455 0.4160124659538269 0.0 0.0 0.0 0.0
3.164 0.08318059146404266 0.18593630194664001 -0.41625717282295227 0.4291096329689026 0.0 0.0 0.0 0.0
3.165 0.0852305218577385 0.18322381377220154 -0.3982306122779846 0.4445073902606964 0.0 0.0 0.0 0.0
3.166 0.08390244841575623 0.18133845925331116 -0.3920256197452545 0.4487887918949127 0.0 0.0 0.0 0.0
3.167 0.08989544212818146 0.1786770522594452 -0.3678496479988098 0.4687953591346741 0.0 0.0 0.0 0.0
3.168 0.08838995546102524 0.17533056437969208 -0.36075979471206665 0.47547197341918945 0.0 0.0 0.0 0.0
3.169 0.09233777225017548 0.17329223453998566 -0.3378264605998993 0.49309733510017395 0.0 0.0 0.0 0.0
3.17 0.08882620185613632 0.1724923849105835 -0.33259081840515137 0.4909549355506897 0.0 0.0 0.0 0.0
3.171 0.09399047493934631 0.16579747200012207 -0.30381596088409424 0.5121611952781677 0.0 0.0 0.0 0.0
3.172 0.09208625555038452 0.16634009778499603 -0.2988680899143219 0.5123634934425354 0.0 0.0 0.0 0.0
3.173 0.09289877116680145 0.16287066042423248 -0.27549490332603455 0.5277669429779053 0.0 0.0 0.0 0.0
3.174 0.09532817453145981 0.15899357199668884 -0.2641221582889557 0.5323533415794373 0.0 0.0 0.0 0.0
3.175 0.09367551654577255 0.15643267333507538 -0.24858339130878448 0.5435270071029663 0.0 0.0 0.0 0.0
3.176 0.09473846852779388 0.15042249858379364 -0.22577477991580963 0.5460004806518555 0.0 0.0 0.0 0.0
3.177 0.09324133396148682 0.14949871599674225 -0.21631093323230743 0.5570532083511353 0.0 0.0 0.0 0.0
3.178 0.09422827512025833 0.1447361409664154 -0.19235537946224213 0.5604055523872375 0.0 0.0 0.0 0.0
3.179 0.09265803545713425 0.14125928282737732 -0.1795048862695694 0.5644510984420776 0.0 0.0 0.0 0.0
3.18 0.09477246552705765 0.1388891190290451 -0.1442897766828537 0.5751549005508423 0.0 0.0 0.0 0.0
3.181 0.09280019998550415 0.13412649929523468 -0.1450658142566681 0.573312520980835 0.0 0.0 0.0 0.0
3.182 0.09256727993488312 0.1295701265335083 -0.11218912899494171 0.5806260704994202 0.0 0.0 0.0 0.0
3.183 0.08740352094173431 0.12679718434810638 -0.1097501739859581 0.5807169079780579 0.0 0.0 0.0 0.0
3.184 0.08963644504547119 0.12130708992481232 -0.07927551865577698 0.5877545475959778 0.0 0.0 0.0 0.0
3.185 0.08533681929111481 0.1201704889535904 -0.07522854208946228 0.5854953527450562 0.0 0.0 0.0 0.0
3.186 0.08206430822610855 0.1153964102268219 -0.04602093622088432 0.589515209197998 0.0 0.0 0.0 0.0
3.187 0.0823328047990799 0.11166515946388245 -0.03240375593304634 0.5897630453109741 0.0 0.0 0.0 0.0
3.188 0.0780857503414154 0.10835594683885574 -0.012859287671744823 0.5929007530212402 0.0 0.0 0.0 0.0
3.189 0.07715527713298798 0.1030917540192604 0.00877059530466795 0.5897876024246216 0.0 0.0 0.0 0.0
3.19 0.07243551313877106 0.1012391448020935 0.0245441235601902 0.5931992530822754 0.0 0.0 0.0 0.0
3.191 0.06886492669582367 0.09581887722015381 0.048126690089702606 0.5876325368881226 0.0 0.0 0.0 0.0
3.192 0.06520634889602661 0.0957680270075798 0.06089268624782562 0.5911398530006409 0.0 0.0 0.0 0.0
3.193 0.06359931081533432 0.09085088223218918 0.08788354694843292 0.5837531685829163 0.0 0.0 0.0 0.0
3.194 0.05733020603656769 0.08824930340051651 0.0906873345375061 0.5837084650993347 0.0 0.0 0.0 0.0
3.195 0.05372590571641922 0.08655036240816116 0.12616650760173798 0.5769070386886597 0.0 0.0 0.0 0.0
3.196 0.04786989092826843 0.08264047652482986 0.12389262765645981 0.576284646987915 0.0 0.0 0.0 0.0
3.197 0.043760936707258224 0.08237989991903305 0.16431231796741486 0.5669261813163757 0.0 0.0 0.0 0.0
3.198 0.03826477751135826 0.08022528141736984 0.15648828446865082 0.5678707361221313 0.0 0.0 0.0 0.0
3.199 0.03380109369754791 0.07901959866285324 0.18832817673683167 0.5608258843421936 0.0 0.0 0.0 0.0
3.2 0.03005041927099228 0.07644206285476685 0.20838899910449982 0.5488463044166565 0.0 0.0 0.0 0.0
3.201 0.024139374494552612 0.07550065964460373 0.22258388996124268 0.5476321578025818 0.0 0.0 0.0 0.0
3.202 0.020182669162750244 0.07572469115257263 0.24322174489498138 0.5342344045639038 0.0 0.0 0.0 0.0
3.203 0.013836745172739029 0.07546202838420868 0.25746098160743713 0.5309311151504517 0.0 0.0 0.0 0.0
3.204 0.009877326898276806 0.07245004177093506 0.2779836654663086 0.5168901681900024 0.0 0.0 0.0 0.0
3.205 0.0014742296189069748 0.07492321729660034 0.28224802017211914 0.5157371759414673 0.0 0.0 0.0 0.0
3.206 -0.002558194100856781 0.0756126418709755 0.31622034311294556 0.4948764443397522 0.0 0.0 0.0 0.0
3.207 -0.006246700882911682 0.07475589960813522 0.31674301624298096 0.4944239556789398 0.0 0.0 0.0 0.0
3.208 -0.011969054117798805 0.07759377360343933 0.3447466194629669 0.4781067371368408 0.0 0.0 0.0 0.0
3.209 -0.02004275843501091 0.07680363953113556 0.34676992893218994 0.4717828929424286 0.0 0.0 0.0 0.0
3.21 -0.0242929644882679 0.08040373772382736 0.36829477548599243 0.4591541588306427 0.0 0.0 0.0 0.0
3.211 -0.027621498331427574 0.0808841660618782 0.3856676518917084 0.44173532724380493 0.0 0.0 0.0 0.0
3.212 -0.034345127642154694 0.08349363505840302 0.3961554765701294 0.4354878067970276 0.0 0.0 0.0 0.0
3.213 -0.041199974715709686 0.08671524375677109 0.40448856353759766 0.42282262444496155 0.0 0.0 0.0 0.0
3.214 -0.04614119976758957 0.0880567729473114 0.42024314403533936 0.4120205044746399 0.0 0.0 0.0 0.0
3.215 -0.04839324206113815 0.09240976721048355 0.4347408413887024 0.3906640112400055 0.0 0.0 0.0 0.0
3.216 -0.054720476269721985 0.09638002514839172 0.44647112488746643 0.3793565034866333 0.0 0.0 0.0 0.0
3.217 -0.05810172110795975 0.09818420559167862 0.4574425220489502 0.36477383971214294 0.0 0.0 0.0 0.0
3.218 -0.06405694037675858 0.10353407263755798 0.4657518267631531 0.3553667962551117 0.0 0.0 0.0 0.0
3.219 -0.06704902648925781 0.10698214173316956 0.483919620513916 0.3287554085254669 0.0 0.0 0.0 0.0
3.22 -0.0710793286561966 0.11143436282873154 0.48466718196868896 0.32667961716651917 0.0 0.0 0.0 0.0
3.221 -0.07546153664588928 0.11877583712339401 0.4990793466567993 0.3006074130535126 0.0 0.0 0.0 0.0
3.222 -0.07809307426214218 0.12108110636472702 0.5026604533195496 0.29644978046417236 0.0 0.0 0.0 0.0
3.223 -0.08030256628990173 0.12696772813796997 0.5193475484848022 0.2715204954147339 0.0 0.0 0.0 0.0
3.224 -0.0857873260974884 0.13143135607242584 0.5200443863868713 0.2620626389980316 0.0 0.0 0.0 0.0
3.225 -0.08718080818653107 0.13692334294319153 0.5315702557563782 0.2440507560968399 0.0 0.0 0.0 0.0
3.226 -0.08909539878368378 0.1442101150751114 0.5341998934745789 0.21854640543460846 0.0 0.0 0.0 0.0
3.227 -0.09356459975242615 0.14858783781528473 0.543457567691803 0.2097121775150299 0.0 0.0 0.0 0.0
3.228 -0.09232963621616364 0.15581101179122925 0.548129677772522 0.18467289209365845 0.0 0.0 0.0 0.0
3.229 -0.09589503705501556 0.15940526127815247 0.5521634817123413 0.18207386136054993 0.0 0.0 0.0 0.0
3.23 -0.09383413195610046 0.16916610300540924 0.556513249874115 0.1521865278482437 0.0 0.0 0.0 0.0
3.231 -0.09710367023944855 0.17306013405323029 0.5589829683303833 0.14758248627185822 0.0 0.0 0.0 0.0
3.232 -0.09354334324598312 0.17981745302677155 0.5723487734794617 0.11368019878864288 0.0 0.0 0.0 0.0
3.233 -0.09918873012065887 0.18484802544116974 0.5680256485939026 0.1091839000582695 0.0 0.0 0.0 0.0
3.234 -0.09678556025028229 0.1930101364850998 0.5725582838058472 0.07925289124250412 0.0 0.0 0.0 0.0
3.235 -0.09787137061357498 0.19652053713798523 0.5742059946060181 0.07677847892045975 0.0 0.0 0.0 0.0
3.236 -0.09517192840576172 0.2063388079404831 0.5769902467727661 0.04682580754160881 0.0 0.0 0.0 0.0
3.237 -0.09205925464630127 0.210366353392601 0.5746162533760071 0.037735726684331894 0.0 0.0 0.0 0.0
3.238 -0.09206026047468185 0.21697761118412018 0.5768143534660339 0.014374555088579655 0.0 0.0 0.0 0.0
3.239 -0.09038323163986206 0.2219962477684021 0.5746609568595886 -0.0029466059058904648 0.0 0.0 0.0 0.0
3.24 -0.08929470181465149 0.22737741470336914 0.579101026058197 -0.021538155153393745 0.0 0.0 0.0 0.0
3.241 -0.083053357899189 0.23356714844703674 0.5761637687683105 -0.040727272629737854 0.0 0.0 0.0 0.0
3.242 -0.08456012606620789 0.239042267203331 0.576492965221405 -0.05212083086371422 0.0 0.0 0.0 0.0
3.243 -0.07913897931575775 0.24401718378067017 0.5718173980712891 -0.07606243342161179 0.0 0.0 0.0 0.0
3.244 -0.08042249828577042 0.24890094995498657 0.571347713470459 -0.06811714172363281 0.0 0.0 0.0 0.0
3.245 -0.07183577120304108 0.2584843039512634 0.5658309459686279 -0.11501849442720413 0.0 0.0 0.0 0.0
3.246 -0.06788316369056702 0.2583921253681183 0.5613855123519897 -0.12067213654518127 0.0 0.0 0.0 0.0
3.247 -0.06507512927055359 0.26614972949028015 0.5577375888824463 -0.1434176117181778 0.0 0.0 0.0 0.0
3.248 -0.05692699924111366 0.26890698075294495 0.5537087321281433 -0.15864892303943634 0.0 0.0 0.0 0.0
3.249 -0.056310929358005524 0.27431029081344604 0.5500973463058472 -0.1749153733253479 0.0 0.0 0.0 0.0
3.25 -0.04993923380970955 0.27711665630340576 0.54401695728302 -0.19005391001701355 0.0 0.0 0.0 0.0
3.251 -0.04815385863184929 0.2809413969516754 0.5416344404220581 -0.20363302528858185 0.0 0.0 0.0 0.0
3.252 -0.03796989843249321 0.2834304869174957 0.5276338458061218 -0.22326348721981049 0.0 0.0 0.0 0.0
3.253 -0.03511519357562065 0.28872039914131165 0.5215871334075928 -0.2389955073595047 0.0 0.0 0.0 0.0
3.254 -0.0284560676664114 0.2907281517982483 0.5131116509437561 -0.2587563097476959 0.0 0.0 0.0 0.0
3.255 -0.025784160941839218 0.292580783367157 0.5114042162895203 -0.2610858082771301 0.0 0.0 0.0 0.0
3.256 -0.018117211759090424 0.29749321937561035 0.4971667230129242 -0.2911163866519928 0.0 0.0 0.0 0.0
3.257 -0.011764644645154476 0.29645588994026184 0.49390026926994324 -0.2973441779613495 0.0 0.0 0.0 0.0
3.258 -0.007458837702870369 0.30117788910865784 0.4806367754936218 -0.318081796169281 0.0 0.0 0.0 0.0
3.259 0.0003846222534775734 0.3002488613128662 0.47307392954826355 -0.3281669318675995 0.0 0.0 0.0 0.0
3.26 0.0039019333198666573 0.3019884526729584 0.466950386762619 -0.3451825976371765 0.0 0.0 0.0 0.0
3.261 0.013350443914532661 0.30209583044052124 0.45254644751548767 -0.3601042628288269 0.0 0.0 0.0 0.0
3.262 0.014180431142449379 0.30523985624313354 0.4474214017391205 -0.3715784251689911 0.0 0.0 0.0 0.0
3.263 0.023976406082510948 0.30375728011131287 0.4325012266635895 -0.38209155201911926 0.0 0.0 0.0 0.0
3.264 0.03011956438422203 0.3050544261932373 0.4240512549877167 -0.3985440731048584 0.0 0.0 0.0 0.0
3.265 0.03854610025882721 0.304394006729126 0.4018247723579407 -0.4150397479534149 0.0 0.0 0.0 0.0
3.266 0.037417199462652206 0.3051002025604248 0.40409553050994873 -0.41560959815979004 0.0 0.0 0.0 0.0
3.267 0.05220611020922661 0.30370742082595825 0.3753761947154999 -0.4419311583042145 0.0 0.0 0.0 0.0
3.268 0.04843735694885254 0.3028813600540161 0.3848024308681488 -0.43850308656692505 0.0 0.0 0.0 0.0
3.269 0.0641331598162651 0.30032479763031006 0.35210105776786804 -0.46572384238243103 0.0 0.0 0.0 0.0
3.27 0.06048031896352768 0.30012425780296326 0.35573434829711914 -0.46106693148612976 0.0 0.0 0.0 0.0
3.271 0.07276120036840439 0.2987290322780609 0.3225417733192444 -0.4830745756626129 0.0 0.0 0.0 0.0
3.272 0.07248680293560028 0.295797199010849 0.3196121156215668 -0.488097220659256 0.0 0.0 0.0 0.0
3.273 0.08143386244773865 0.2968539893627167 0.29828670620918274 -0.503870964050293 0.0 0.0 0.0 0.0
3.274 0.08498544991016388 0.2896419167518616 0.28679555654525757 -0.5100129842758179 0.0 0.0 0.0 0.0
3.275 0.08861088752746582 0.28897756338119507 0.27781981229782104 -0.5182173252105713 0.0 0.0 0.0 0.0
3.276 0.09733595699071884 0.2858007550239563 0.26220229268074036 -0.523643434047699 0.0 0.0 0.0 0.0
3.277 0.09865818917751312 0.28494998812675476 0.24305538833141327 -0.5382546186447144 0.0 0.0 0.0 0.0
3.278 0.10403301566839218 0.2808242440223694 0.22565744817256927 -0.5397509336471558 0.0 0.0 0.0 0.0
3.279 0.1050032451748848 0.27938902378082275 0.2122585028409958 -0.5491490960121155 0.0 0.0 0.0 0.0
3.28 0.11460641026496887 0.273434579372406 0.19109149277210236 -0.5617279410362244 0.0 0.0 0.0 0.0
3.281 0.1159193366765976 0.2717944085597992 0.17923566699028015 -0.5672600865364075 0.0 0.0 0.0 0.0
3.282 0.12336577475070953 0.26641160249710083 0.15650039911270142 -0.5686193704605103 0.0 0.0 0.0 0.0
3.283 0.11982353031635284 0.26569172739982605 0.15588364005088806 -0.576255738735199 0.0 0.0 0.0 0.0
3.284 0.1307356357574463 0.2597881257534027 0.1210666373372078 -0.5829198956489563 0.0 0.0 0.0 0.0
3.285 0.12795238196849823 0.25753602385520935 0.11688321828842163 -0.5820560455322266 0.0 0.0 0.0 0.0
3.286 0.13201665878295898 0.25293490290641785 0.08110200613737106 -0.5931789875030518 0.0 0.0 0.0 0.0
3.287 0.13277430832386017 0.24824585020542145 0.07752180844545364 -0.5936772227287292 0.0 0.0 0.0 0.0
3.288 0.13817697763442993 0.24676832556724548 0.04509345069527626 -0.5971046090126038 0.0 0.0 0.0 0.0
3.289 0.13980159163475037 0.24259796738624573 0.04455426707863808 -0.5966945290565491 0.0 0.0 0.0 0.0
3.29 0.13405480980873108 0.2412193864583969 0.03415793552994728 -0.6040193438529968 0.0 0.0 0.0 0.0
3.291 0.14601343870162964 0.2329472303390503 -0.005583769641816616 -0.5986504554748535 0.0 0.0 0.0 0.0
3.292 0.14481361210346222 0.22999726235866547 -0.010143606923520565 -0.604709267616272 0.0 0.0 0.0 0.0
3.293 0.15077760815620422 0.22453124821186066 -0.044193509966135025 -0.6020926833152771 0.0 0.0 0.0 0.0
3.294 0.14859654009342194 0.22203025221824646 -0.04914167523384094 -0.6057664155960083 0.0 0.0 0.0 0.0
3.295 0.15210242569446564 0.21833667159080505 -0.0806332603096962 -0.6010801196098328 0.0 0.0 0.0 0.0
3.296 0.1472872644662857 0.21565105020999908 -0.08669301122426987 -0.6029256582260132 0.0 0.0 0.0 0.0
3.297 0.15149225294589996 0.21241143345832825 -0.12268207222223282 -0.5990514159202576 0.0 0.0 0.0 0.0
3.298 0.15238335728645325 0.20756909251213074 -0.12853094935417175 -0.5959374308586121 0.0 0.0 0.0 0.0
3.299 0.15473146736621857 0.20505395531654358 -0.1581110656261444 -0.5924073457717896 0.0 0.0 0.0 0.0
3.3 0.15659017860889435 0.19949357211589813 -0.1667499840259552 -0.5883939862251282 0.0 0.0 0.0 0.0
3.301 0.15582498908042908 0.197269007563591 -0.19569295644760132 -0.5822728276252747 0.0 0.0 0.0 0.0
3.302 0.15596920251846313 0.1918681412935257 -0.20008498430252075 -0.5830867290496826 0.0 0.0 0.0 0.0
3.303 0.15408854186534882 0.19143714010715485 -0.22222977876663208 -0.5762578248977661 0.0 0.0 0.0 0.0
3.304 0.15661558508872986 0.18592315912246704 -0.2401716411113739 -0.5722805857658386 0.0 0.0 0.0 0.0
3.305 0.15471284091472626 0.1843772828578949 -0.2552189528942108 -0.5676586031913757 0.0 0.0 0.0 0.0
3.306 0.15501725673675537 0.1815875619649887 -0.2840149402618408 -0.5509772896766663 0.0 0.0 0.0 0.0
3.307 0.15359747409820557 0.18007732927799225 -0.2867882549762726 -0.5548753142356873 0.0 0.0 0.0 0.0
3.308 0.15887248516082764 0.17464230954647064 -0.31574586033821106 -0.5359447002410889 0.0 0.0 0.0 0.0
3.309 0.15463508665561676 0.17338618636131287 -0.32566559314727783 -0.539063572883606 0.0 0.0 0.0 0.0
3.31 0.15910138189792633 0.16868281364440918 -0.3535080850124359 -0.5189515948295593 0.0 0.0 0.0 0.0
3.311 0.15544065833091736 0.17006178200244904 -0.3540695905685425 -0.5155096054077148 0.0 0.0 0.0 0.0
3.312 0.15795131027698517 0.1610286384820938 -0.3875601291656494 -0.49762842059135437 0.0 0.0 0.0 0.0
3.313 0.1570037454366684 0.16331468522548676 -0.39346712827682495 -0.4909003674983978 0.0 0.0 0.0 0.0
3.314 0.15545880794525146 0.1636512279510498 -0.41905948519706726 -0.4786735475063324 0.0 0.0 0.0 0.0
3.315 0.15524691343307495 0.15902575850486755 -0.42293038964271545 -0.4696836769580841 0.0 0.0 0.0 0.0
3.316 0.15440788865089417 0.15940511226654053 -0.4439322352409363 -0.4536442756652832 0.0 0.0 0.0 0.0
3.317 0.15451528131961823 0.15497706830501556 -0.45935720205307007 -0.43932288885116577 0.0 0.0 0.0 0.0
3.318 0.15458044409751892 0.1531994640827179 -0.47118690609931946 -0.4286936819553375 0.0 0.0 0.0 0.0
3.319 0.1559571921825409 0.1510668694972992 -0.49131959676742554 -0.407768577337265 0.0 0.0 0.0 0.0
3.32 0.1544204205274582 0.15190009772777557 -0.5035901665687561 -0.3975546061992645 0.0 0.0 0.0 0.0
3.321 0.1579221487045288 0.14811521768569946 -0.5186280012130737 -0.3769508898258209 0.0 0.0 0.0 0.0
3.322 0.15438172221183777 0.14740057289600372 -0.5233065485954285 -0.37750959396362305 0.0 0.0 0.0 0.0
3.323 0.15602725744247437 0.14333376288414001 -0.545549750328064 -0.34638893604278564 0.0 0.0 0.0 0.0
3.324 0.15663732588291168 0.1437722146511078 -0.5491335988044739 -0.33951234817504883 0.0 0.0 0.0 0.0
3.325 0.15555204451084137 0.14184440672397614 -0.5661883354187012 -0.3126596212387085 0.0 0.0 0.0 0.0
3.326 0.155918151140213 0.13919340074062347 -0.572650671005249 -0.30836427211761475 0.0 0.0 0.0 0.0
3.327 0.15957286953926086 0.1398620903491974 -0.5881783962249756 -0.27946358919143677 0.0 0.0 0.0 0.0
3.328 0.1563485860824585 0.13741517066955566 -0.592764675617218 -0.2708476185798645 0.0 0.0 0.0 0.0
3.329 0.16179198026657104 0.1334906667470932 -0.6056767106056213 -0.24448931217193604 0.0 0.0 0.0 0.0
3.33 0.16284404695034027 0.12928584218025208 -0.611184298992157 -0.22943900525569916 0.0 0.0 0.0 0.0
3.331 0.16028058528900146 0.12956610321998596 -0.6244948506355286 -0.2135496586561203 0.0 0.0 0.0 0.0
3.332 0.15967516601085663 0.12859487533569336 -0.6262551546096802 -0.20044487714767456 0.0 0.0 0.0 0.0
3.333 0.16412143409252167 0.12481724470853806 -0.6407181024551392 -0.16867411136627197 0.0 0.0 0.0 0.0
3.334 0.16466198861598969 0.12218933552503586 -0.6389250159263611 -0.1506020724773407 0.0 0.0 0.0 0.0
3.335 0.16454946994781494 0.12256472557783127 -0.6500651836395264 -0.13913920521736145 0.0 0.0 0.0 0.0
3.336 0.16519728302955627 0.11870558559894562 -0.6532512903213501 -0.11542461812496185 0.0 0.0 0.0 0.0
3.337 0.16600868105888367 0.11996840685606003 -0.6563861966133118 -0.10300292074680328 0.0 0.0 0.0 0.0
3.338 0.16678504645824432 0.11443870514631271 -0.6654335260391235 -0.061212167143821716 0.0 0.0 0.0 0.0
3.339 0.16751569509506226 0.1121717318892479 -0.6638485789299011 -0.06522341072559357 0.0 0.0 0.0 0.0
3.34 0.170166015625 0.10687103122472763 -0.6723329424858093 -0.02116130292415619 0.0 0.0 0.0 0.0
3.341 0.16768354177474976 0.10622266680002213 -0.6725872755050659 -0.015427231788635254 0.0 0.0 0.0 0.0
3.342 0.17212627828121185 0.10172748565673828 -0.6746628880500793 0.013198738917708397 0.0 0.0 0.0 0.0
3.343 0.17132045328617096 0.09782253950834274 -0.6744158864021301 0.030043164268136024 0.0 0.0 0.0 0.0
3.344 0.17233216762542725 0.09815255552530289 -0.6789166331291199 0.060358237475156784 0.0 0.0 0.0 0.0
3.345 0.17266614735126495 0.09096791595220566 -0.6767047047615051 0.07990739494562149 0.0 0.0 0.0 0.0
3.346 0.17292113602161407 0.0901857540011406 -0.6754305958747864 0.09456811845302582 0.0 0.0 0.0 0.0
3.347 0.1737063080072403 0.08709724247455597 -0.6686685085296631 0.12732328474521637 0.0 0.0 0.0 0.0
3.348 0.17432548105716705 0.08625150471925735 -0.6705661416053772 0.13245199620723724 0.0 0.0 0.0 0.0
3.349 0.1748286932706833 0.07748881727457047 -0.6648208498954773 0.16871175169944763 0.0 0.0 0.0 0.0
3.35 0.17342747747898102 0.07867677509784698 -0.664254903793335 0.17635095119476318 0.0 0.0 0.0 0.0
3.351 0.17414090037345886 0.07047133892774582 -0.6580051779747009 0.21245117485523224 0.0 0.0 0.0 0.0
3.352 0.17538565397262573 0.06602329760789871 -0.6562283635139465 0.21692007780075073 0.0 0.0 0.0 0.0
3.353 0.1781780868768692 0.0628591999411583 -0.6475072503089905 0.25293442606925964 0.0 0.0 0.0 0.0
3.354 0.17504000663757324 0.05901804193854332 -0.6429092884063721 0.26242557168006897 0.0 0.0 0.0 0.0
3.355 0.17650103569030762 0.05458468943834305 -0.630211353302002 0.2965450584888458 0.0 0.0 0.0 0.0
3.356 0.17408113181591034 0.05155368521809578 -0.6242031455039978 0.3085997998714447 0.0 0.0 0.0 0.0
3.357 0.1730538159608841 0.04642451927065849 -0.6211048364639282 0.3309178352355957 0.0 0.0 0.0 0.0
3.358 0.17393378913402557 0.0428449846804142 -0.6069455146789551 0.35334891080856323 0.0 0.0 0.0 0.0
3.359 0.17075155675411224 0.039990510791540146 -0.6016978025436401 0.3709045946598053 0.0 0.0 0.0 0.0
3.36 0.17081117630004883 0.029678093269467354 -0.5824848413467407 0.39926135540008545 0.0 0.0 0.0 0.0
3.361 0.16877113282680511 0.03195444867014885 -0.5824984312057495 0.40607017278671265 0.0 0.0 0.0 0.0
3.362 0.1648377925157547 0.02605379931628704 -0.5593734979629517 0.44151318073272705 0.0 0.0 0.0 0.0
3.363 0.16599006950855255 0.022323591634631157 -0.5589158535003662 0.43830999732017517 0.0 0.0 0.0 0.0
3.364 0.1657397300004959 0.0142262177541852 -0.5336303114891052 0.4795823097229004 0.0 0.0 0.0 0.0
3.365 0.15862581133842468 0.01124873198568821 -0.533740222454071 0.484027624130249 0.0 0.0 0.0 0.0
3.366 0.1579401046037674 0.009300692938268185 -0.5074227452278137 0.5123565196990967 0.0 0.0 0.0 0.0
3.367 0.15287943184375763 0.00286739319562912 -0.500937283039093 0.518078088760376 0.0 0.0 0.0 0.0
3.368 0.15104423463344574 -0.0010913815349340439 -0.47510266304016113 0.5498979687690735 0.0 0.0 0.0 0.0
3.369 0.1500965654850006 -0.004085361957550049 -0.4707687199115753 0.552097499370575 0.0 0.0 0.0 0.0
3.37 0.1463865041732788 -0.010467899031937122 -0.44251951575279236 0.5801666975021362 0.0 0.0 0.0 0.0
3.371 0.14172300696372986 -0.012692124582827091 -0.43612635135650635 0.5833591222763062 0.0 0.0 0.0 0.0
3.372 0.14017777144908905 -0.017145581543445587 -0.4080536365509033 0.612500786781311 0.0 0.0 0.0 0.0
3.373 0.13395890593528748 -0.01728285662829876 -0.3938669264316559 0.6155586242675781 0.0 0.0 0.0 0.0
3.374 0.1314130574464798 -0.02284746989607811 -0.38065168261528015 0.6333526968955994 0.0 0.0 0.0 0.0
3.375 0.12528850138187408 -0.027456844225525856 -0.35046565532684326 0.6497014164924622 0.0 0.0 0.0 0.0
3.376 0.12397509068250656 -0.02797081135213375 -0.34925734996795654 0.6531789302825928 0.0 0.0 0.0 0.0
3.377 0.11861570179462433 -0.03406800702214241 -0.306568443775177 0.6777148842811584 0.0 0.0 0.0 0.0
3.378 0.11555646359920502 -0.0332145094871521 -0.3019699454307556 0.6832653880119324 0.0 0.0 0.0 0.0
3.379 0.1069573312997818 -0.04092927277088165 -0.26068195700645447 0.701063871383667 0.0 0.0 0.0 0.0
3.38 0.10527659207582474 -0.0390290729701519 -0.2625278830528259 0.7050845623016357 0.0 0.0 0.0 0.0
3.381 0.10014397650957108 -0.04168779030442238 -0.2189178168773651 0.721125602722168 0.0 0.0 0.0 0.0
3.382 0.09109948575496674 -0.0444609560072422 -0.20854638516902924 0.7221685647964478 0.0 0.0 0.0 0.0
3.383 0.0882338359951973 -0.04562388360500336 -0.1795801818370819 0.7387097477912903 0.0 0.0 0.0 0.0
3.384 0.07969330251216888 -0.046036433428525925 -0.15745636820793152 0.740172803401947 0.0 0.0 0.0 0.0
3.385 0.0761328935623169 -0.048705071210861206 -0.13465532660484314 0.7504239082336426 0.0 0.0 0.0 0.0
3.386 0.07133927941322327 -0.04904801398515701 -0.10134199261665344 0.7567927837371826 0.0 0.0 0.0 0.0
3.387 0.06738188117742538 -0.04831642284989357 -0.09381209313869476 0.7633303999900818 0.0 0.0 0.0 0.0
3.388 0.06050393730401993 -0.051219332963228226 -0.05007820203900337 0.7713757753372192 0.0 0.0 0.0 0.0
3.389 0.05651550740003586 -0.04833761602640152 -0.047489821910858154 0.7703495621681213 0.0 0.0 0.0 0.0
3.39 0.046297598630189896 -0.0503225177526474 -0.0013722879812121391 0.7746938467025757 0.0 0.0 0.0 0.0
3.391 0.04497437924146652 -0.049462586641311646 0.004131820052862167 0.7766767740249634 0.0 0.0 0.0 0.0
3.392 0.03978671506047249 -0.046736881136894226 0.05442122742533684 0.7788252234458923 0.0 0.0 0.0 0.0
3.393 0.03421010076999664 -0.046651557087898254 0.05959390103816986 0.7783718109130859 0.0 0.0 0.0 0.0
3.394 0.027978617697954178 -0.045430634170770645 0.1033930629491806 0.7804421186447144 0.0 0.0 0.0 0.0
3.395 0.021557606756687164 -0.04433165118098259 0.11181716620922089 0.7766472101211548 0.0 0.0 0.0 0.0
3.396 0.014230276457965374 -0.04214467480778694 0.15691258013248444 0.7774387001991272 0.0 0.0 0.0 0.0
3.397 0.010392273776233196 -0.036253273487091064 0.17489267885684967 0.7685428857803345 0.0 0.0 0.0 0.0
3.398 0.004409066401422024 -0.03450308367609978 0.20061156153678894 0.7685713768005371 0.0 0.0 0.0 0.0
3.399 0.00033322442322969437 -0.035340286791324615 0.2325023114681244 0.758121132850647 0.0 0.0 0.0 0.0
3.4 -0.0023869285359978676 -0.02965524047613144 0.24384503066539764 0.7587420344352722 0.0 0.0 0.0 0.0
3.401 -0.010215592570602894 -0.02697838470339775 0.2865387201309204 0.7457699775695801 0.0 0.0 0.0 0.0
3.402 -0.011633219197392464 -0.025654111057519913 0.28954288363456726 0.7516079545021057 0.0 0.0 0.0 0.0
3.403 -0.01750354841351509 -0.017603114247322083 0.3378564715385437 0.7285315990447998 0.0 0.0 0.0 0.0
3.404 -0.02142437919974327 -0.01424430776387453 0.3415241539478302 0.730212390422821 0.0 0.0 0.0 0.0
3.405 -0.02382645197212696 -0.014523766934871674 0.3868650197982788 0.7129087448120117 0.0 0.0 0.0 0.0
3.406 -0.02616199292242527 -0.0056852540001273155 0.38884642720222473 0.7112791538238525 0.0 0.0 0.0 0.0
3.407 -0.03327251225709915 -0.0029100384563207626 0.4370577931404114 0.6873302459716797 0.0 0.0 0.0 0.0
3.408 -0.031618427485227585 7.031206041574478e-05 0.44227349758148193 0.6842237114906311 0.0 0.0 0.0 0.0
3.409 -0.03766762837767601 0.0056664664298295975 0.47758230566978455 0.6665871739387512 0.0 0.0 0.0 0.0
3.41 -0.04102800041437149 0.008989010006189346 0.4950869083404541 0.6467300057411194 0.0 0.0 0.0 0.0
3.411 -0.0404866524040699 0.01414877362549305 0.5251071453094482 0.6397905349731445 0.0 0.0 0.0 0.0
3.412 -0.04579932242631912 0.019056852906942368 0.5430184006690979 0.6181793212890625 0.0 0.0 0.0 0.0
3.413 -0.04760867357254028 0.023578815162181854 0.5681171417236328 0.6070495247840881 0.0 0.0 0.0 0.0
3.414 -0.044993747025728226 0.030312277376651764 0.5921090245246887 0.576896607875824 0.0 0.0 0.0 0.0
3.415 -0.049338649958372116 0.03533996641635895 0.6081966757774353 0.5666549801826477 0.0 0.0 0.0 0.0
3.416 -0.048339810222387314 0.03795798495411873 0.6382491588592529 0.5393437147140503 0.0 0.0 0.0 0.0
3.417 -0.04819931462407112 0.04411033168435097 0.6419952511787415 0.5347771644592285 0.0 0.0 0.0 0.0
3.418 -0.05044496804475784 0.051560189574956894 0.6746500730514526 0.49092140793800354 0.0 0.0 0.0 0.0
3.419 -0.054057423025369644 0.053545016795396805 0.6795625686645508 0.48787882924079895 0.0 0.0 0.0 0.0
3.42 -0.048531435430049896 0.060457345098257065 0.7093307375907898 0.4571154713630676 0.0 0.0 0.0 0.0
3.421 -0.050017982721328735 0.06029423698782921 0.7145588994026184 0.4482477903366089 0.0 0.0 0.0 0.0
3.422 -0.05279359593987465 0.06967899203300476 0.7452939748764038 0.40056803822517395 0.0 0.0 0.0 0.0
3.423 -0.05042851343750954 0.076112762093544 0.7469319701194763 0.39355525374412537 0.0 0.0 0.0 0.0
3.424 -0.04760095104575157 0.07927056401968002 0.7702600359916687 0.3629019260406494 0.0 0.0 0.0 0.0
3.425 -0.04570866748690605 0.08326750248670578 0.7759534120559692 0.34090209007263184 0.0 0.0 0.0 0.0
3.426 -0.04685106500983238 0.08733421564102173 0.7919560670852661 0.3167034387588501 0.0 0.0 0.0 0.0
3.427 -0.0433388277888298 0.09020016342401505 0.8106026649475098 0.2794139087200165 0.0 0.0 0.0 0.0
3.428 -0.04154062271118164 0.09303904324769974 0.8142991065979004 0.2752443850040436 0.0 0.0 0.0 0.0
3.429 -0.041015639901161194 0.10402784496545792 0.8309088945388794 0.21950842440128326 0.0 0.0 0.0 0.0
3.43 -0.0366952084004879 0.1059582307934761 0.8322528600692749 0.22073578834533691 0.0 0.0 0.0 0.0
3.431 -0.033501606434583664 0.10555870085954666 0.8530017137527466 0.1693567931652069 0.0 0.0 0.0 0.0
3.432 -0.03108842298388481 0.11085663735866547 0.848806619644165 0.16080737113952637 0.0 0.0 0.0 0.0
3.433 -0.031244955956935883 0.11302319914102554 0.8669949173927307 0.10686364769935608 0.0 0.0 0.0 0.0
3.434 -0.028750842437148094 0.11709286272525787 0.8652626872062683 0.080069899559021 0.0 0.0 0.0 0.0
3.435 -0.025843545794487 0.12055158615112305 0.8728048801422119 0.06957236677408218 0.0 0.0 0.0 0.0
3.436 -0.024591652676463127 0.12615805864334106 0.8673206567764282 0.03260884806513786 0.0 0.0 0.0 0.0
3.437 -0.01989925280213356 0.12811411917209625 0.875684380531311 -0.005679901689291 0.0 0.0 0.0 0.0
3.438 -0.015821918845176697 0.1318175196647644 0.8703644871711731 -0.020558282732963562 0.0 0.0 0.0 0.0
3.439 -0.01354626752436161 0.13511711359024048 0.8774780631065369 -0.0513765774667263 0.0 0.0 0.0 0.0
3.44 -0.00967483501881361 0.13363100588321686 0.8785313367843628 -0.09766503423452377 0.0 0.0 0.0 0.0
3.441 -0.005519759841263294 0.138042151927948 0.8747206330299377 -0.10417494922876358 0.0 0.0 0.0 0.0
3.442 4.918593913316727e-05 0.13851825892925262 0.8770298361778259 -0.15325933694839478 0.0 0.0 0.0 0.0
3.443 -7.713679224252701e-05 0.14371511340141296 0.8701971769332886 -0.16263334453105927 0.0 0.0 0.0 0.0
3.444 0.0065121715888381 0.14377914369106293 0.8637227416038513 -0.22236616909503937 0.0 0.0 0.0 0.0
3.445 0.006121587939560413 0.1473967581987381 0.8535630106925964 -0.22673699259757996 0.0 0.0 0.0 0.0
3.446 0.010519424453377724 0.14985041320323944 0.8494595885276794 -0.26988980174064636 0.0 0.0 0.0 0.0
3.447 0.013781857676804066 0.14559978246688843 0.8424267768859863 -0.2882993519306183 0.0 0.0 0.0 0.0
3.448 0.01743653230369091 0.1522158533334732 0.8338779211044312 -0.3278023302555084 0.0 0.0 0.0 0.0
3.449 0.01940794102847576 0.15123562514781952 0.8214189410209656 -0.3555498421192169 0.0 0.0 0.0 0.0
3.45 0.022555675357580185 0.15172883868217468 0.819217324256897 -0.3766304850578308 0.0 0.0 0.0 0.0
3.451 0.0293464083224535 0.15364842116832733 0.7993729114532471 -0.406154066324234 0.0 0.0 0.0 0.0
3.452 0.02828626148402691 0.15474368631839752 0.7912988662719727 -0.4346761107444763 0.0 0.0 0.0 0.0
3.453 0.03683937340974808 0.15448924899101257 0.7732970118522644 -0.470087468624115 0.0 0.0 0.0 0.0
3.454 0.03569835424423218 0.1569271981716156 0.7648727893829346 -0.48362910747528076 0.0 0.0 0.0 0.0
3.455 0.03706357628107071 0.15602236986160278 0.7326986193656921 -0.531234085559845 0.0 0.0 0.0 0.0
3.456 0.044912923127412796 0.15751975774765015 0.7392861843109131 -0.5284594893455505 0.0 0.0 0.0 0.0
3.457 0.04497939720749855 0.16000202298164368 0.7014797925949097 -0.577398419380188 0.0 0.0 0.0 0.0
3.458 0.04419838264584541 0.15687979757785797 0.6953853964805603 -0.5905451774597168 0.0 0.0 0.0 0.0
3.459 0.05461069941520691 0.1596153974533081 0.6700128316879272 -0.6261385679244995 0.0 0.0 0.0 0.0
3.46 0.05140268802642822 0.1596071422100067 0.6514520049095154 -0.6331765651702881 0.0 0.0 0.0 0.0
3.461 0.055969640612602234 0.15847651660442352 0.6230020523071289 -0.6755438446998596 0.0 0.0 0.0 0.0
3.462 0.0629778504371643 0.16021621227264404 0.6110081076622009 -0.6777891516685486 0.0 0.0 0.0 0.0
3.463 0.06277402490377426 0.15988986194133759 0.5760027766227722 -0.7198657393455505 0.0 0.0 0.0 0.0
3.464 0.0680648684501648 0.15621615946292877 0.5712148547172546 -0.7256920337677002 0.0 0.0 0.0 0.0
3.465 0.07023179531097412 0.16057944297790527 0.5402371883392334 -0.7479791045188904 0.0 0.0 0.0 0.0
3.466 0.07198549807071686 0.15930230915546417 0.5064433813095093 -0.7696602940559387 0.0 0.0 0.0 0.0
3.467 0.07273398339748383 0.159739688038826 0.48649176955223083 -0.7982470989227295 0.0 0.0 0.0 0.0
3.468 0.08085114508867264 0.16069291532039642 0.457308828830719 -0.809962809085846 0.0 0.0 0.0 0.0
3.469 0.07943937927484512 0.16222378611564636 0.43523380160331726 -0.8245277404785156 0.0 0.0 0.0 0.0
3.47 0.08535966277122498 0.16014455258846283 0.41297465562820435 -0.8329662084579468 0.0 0.0 0.0 0.0
3.471 0.08554136753082275 0.16067171096801758 0.3873850107192993 -0.8529630899429321 0.0 0.0 0.0 0.0
3.472 0.09210679680109024 0.15859830379486084 0.34671324491500854 -0.8734831809997559 0.0 0.0 0.0 0.0
3.473 0.09443487226963043 0.1631428748369217 0.33471769094467163 -0.8750406503677368 0.0 0.0 0.0 0.0
3.474 0.0997840166091919 0.16362568736076355 0.28453174233436584 -0.895135223865509 0.0 0.0 0.0 0.0
3.475 0.09828624129295349 0.16322121024131775 0.2625780999660492 -0.9002280235290527 0.0 0.0 0.0 0.0
3.476 0.10411172360181808 0.15999191999435425 0.22666814923286438 -0.9165690541267395 0.0 0.0 0.0 0.0
3.477 0.10832555592060089 0.16202175617218018 0.20163758099079132 -0.9106608033180237 0.0 0.0 0.0 0.0
3.478 0.11027885973453522 0.16298431158065796 0.16058345139026642 -0.9280460476875305 0.0 0.0 0.0 0.0
3.479 0.11283457279205322 0.15886786580085754 0.12631510198116302 -0.9379294514656067 0.0 0.0 0.0 0.0
3.48 0.1138736754655838 0.16359096765518188 0.11066225916147232 -0.9358289241790771 0.0 0.0 0.0 0.0
3.481 0.1227986216545105 0.15894103050231934 0.06949359178543091 -0.9468705654144287 0.0 0.0 0.0 0.0
3.482 0.12235929816961288 0.16421128809452057 0.05267195776104927 -0.9431757926940918 0.0 0.0 0.0 0.0
3.483 0.1289985179901123 0.16277574002742767 0.003703700378537178 -0.9444541931152344 0.0 0.0 0.0 0.0
3.484 0.12728360295295715 0.1618453413248062 -0.016768760979175568 -0.9467574954032898 0.0 0.0 0.0 0.0
3.485 0.1330259144306183 0.1571917086839676 -0.07502096891403198 -0.9506497979164124 0.0 0.0 0.0 0.0
3.486 0.13587000966072083 0.15935537219047546 -0.06964394450187683 -0.9489269852638245 0.0 0.0 0.0 0.0
3.487 0.1426989734172821 0.16038256883621216 -0.13618946075439453 -0.9430417418479919 0.0 0.0 0.0 0.0
3.488 0.14628887176513672 0.15710066258907318 -0.12732550501823425 -0.9425675272941589 0.0 0.0 0.0 0.0
3.489 0.14904935657978058 0.1583542674779892 -0.15482939779758453 -0.936217188835144 0.0 0.0 0.0 0.0
3.49 0.15633469820022583 0.15747523307800293 -0.19629241526126862 -0.9316004514694214 0.0 0.0 0.0 0.0
3.491 0.1607620120048523 0.15750652551651 -0.2208029180765152 -0.9146685004234314 0.0 0.0 0.0 0.0
3.492 0.1642547994852066 0.1554567813873291 -0.2695649564266205 -0.9133156538009644 0.0 0.0 0.0 0.0
3.493 0.17046499252319336 0.15293870866298676 -0.28295013308525085 -0.9033491015434265 0.0 0.0 0.0 0.0
3.494 0.17377033829689026 0.15612481534481049 -0.31708723306655884 -0.8991805911064148 0.0 0.0 0.0 0.0
3.495 0.17604359984397888 0.15224725008010864 -0.35378339886665344 -0.8847804069519043 0.0 0.0 0.0 0.0
3.496 0.18234218657016754 0.15106262266635895 -0.3668607473373413 -0.8830386400222778 0.0 0.0 0.0 0.0
3.497 0.18989714980125427 0.1487526297569275 -0.4119192063808441 -0.8545106649398804 0.0 0.0 0.0 0.0
3.498 0.19129306077957153 0.14763855934143066 -0.42779189348220825 -0.8609367609024048 0.0 0.0 0.0 0.0
3.499 0.20214618742465973 0.14633296430110931 -0.47348108887672424 -0.8325369358062744 0.0 0.0 0.0 0.0
3.5 0.20018534362316132 0.1463375836610794 -0.4826434552669525 -0.8192528486251831 0.0 0.0 0.0 0.0
3.501 0.20764558017253876 0.13375641405582428 -0.5413557887077332 -0.7936797738075256 0.0 0.0 0.0 0.0
3.502 0.21299642324447632 0.1421099156141281 -0.5348328351974487 -0.7947518825531006 0.0 0.0 0.0 0.0
3.503 0.22005124390125275 0.1358727663755417 -0.5931566953659058 -0.752561092376709 0.0 0.0 0.0 0.0
3.504 0.22458957135677338 0.12837859988212585 -0.6000236868858337 -0.7546182870864868 0.0 0.0 0.0 0.0
3.505 0.22600050270557404 0.12484607845544815 -0.6513673067092896 -0.7106685042381287 0.0 0.0 0.0 0.0
3.506 0.23002409934997559 0.12291697412729263 -0.648515522480011 -0.7112076282501221 0.0 0.0 0.0 0.0
3.507 0.23635749518871307 0.12102871388196945 -0.6812562942504883 -0.690158486366272 0.0 0.0 0.0 0.0
3.508 0.24315613508224487 0.1176702156662941 -0.6944136023521423 -0.659522533416748 0.0 0.0 0.0 0.0
3.509 0.24753205478191376 0.11398656666278839 -0.7239041328430176 -0.6372642517089844 0.0 0.0 0.0 0.0
3.51 0.24987664818763733 0.10839121043682098 -0.7459578514099121 -0.6057071685791016 0.0 0.0 0.0 0.0
3.511 0.25535112619400024 0.10534486919641495 -0.7575152516365051 -0.5990561246871948 0.0 0.0 0.0 0.0
3.512 0.2589336931705475 0.09651702642440796 -0.7889282703399658 -0.5463343262672424 0.0 0.0 0.0 0.0
3.513 0.2637854814529419 0.09460867941379547 -0.8033851385116577 -0.5405604839324951 0.0 0.0 0.0 0.0
3.514 0.27258116006851196 0.08368965983390808 -0.8341578841209412 -0.49943825602531433 0.0 0.0 0.0 0.0
3.515 0.2730739712715149 0.08848541975021362 -0.830915629863739 -0.49661287665367126 0.0 0.0 0.0 0.0
3.516 0.2743566334247589 0.07944342494010925 -0.8592835664749146 -0.4426543116569519 0.0 0.0 0.0 0.0
3.517 0.27720510959625244 0.07252252101898193 -0.8670880794525146 -0.43806490302085876 0.0 0.0 0.0 0.0
3.518 0.2821224629878998 0.06221597641706467 -0.8946388363838196 -0.38595011830329895 0.0 0.0 0.0 0.0
3.519 0.288672536611557 0.06290023773908615 -0.8872840404510498 -0.40484485030174255 0.0 0.0 0.0 0.0
3.52 0.29248470067977905 0.05465342476963997 -0.9221060276031494 -0.3414205312728882 0.0 0.0 0.0 0.0
3.521 0.2937464118003845 0.046937406063079834 -0.9212722182273865 -0.30936938524246216 0.0 0.0 0.0 0.0
3.522 0.29848921298980713 0.04006050527095795 -0.9380915760993958 -0.29193416237831116 0.0 0.0 0.0 0.0
3.523 0.2970888614654541 0.027933472767472267 -0.943791925907135 -0.23440182209014893 0.0 0.0 0.0 0.0
3.524 0.3033868670463562 0.02111470140516758 -0.9596545100212097 -0.23281830549240112 0.0 0.0 0.0 0.0
3.525 0.306996613740921 0.0075254011899232864 -0.9703120589256287 -0.17827089130878448 0.0 0.0 0.0 0.0
3.526 0.30761539936065674 0.009216235019266605 -0.9633681774139404 -0.1682131141424179 0.0 0.0 0.0 0.0
3.527 0.31137463450431824 -0.006008299998939037 -0.9829711318016052 -0.10941120982170105 0.0 0.0 0.0 0.0
3.528 0.3114287853240967 -0.0052470797672867775 -0.9764896631240845 -0.1017582044005394 0.0 0.0 0.0 0.0
3.529 0.30665266513824463 -0.01653788425028324 -0.9854058027267456 -0.039329446852207184 0.0 0.0 0.0 0.0
3.53 0.31290122866630554 -0.019197924062609673 -0.9875141978263855 -0.03676050528883934 0.0 0.0 0.0 0.0
3.531 0.31013867259025574 -0.030539145693182945 -0.9922155737876892 0.019085345789790154 0.0 0.0 0.0 0.0
3.532 0.3098420798778534 -0.03460733965039253 -0.9880322217941284 0.02495964989066124 0.0 0.0 0.0 0.0
3.533 0.30802103877067566 -0.05123792961239815 -0.9943010807037354 0.07755589485168457 0.0 0.0 0.0 0.0
3.534 0.31043100357055664 -0.058807309716939926 -0.987535297870636 0.09814086556434631 0.0 0.0 0.0 0.0
3.535 0.3123061954975128 -0.065177783370018 -0.9898079633712769 0.1340329349040985 0.0 0.0 0.0 0.0
3.536 0.30577197670936584 -0.07218199968338013 -0.9772928953170776 0.17144426703453064 0.0 0.0 0.0 0.0
3.537 0.30928903818130493 -0.08187077939510345 -0.9869154691696167 0.1963135004043579 0.0 0.0 0.0 0.0
3.538 0.30369171500205994 -0.09488779306411743 -0.9738823175430298 0.24196818470954895 0.0 0.0 0.0 0.0
3.539 0.30108630657196045 -0.09397423267364502 -0.9655393958091736 0.25995609164237976 0.0 0.0 0.0 0.0
3.54 0.30293041467666626 -0.10297597944736481 -0.9545075297355652 0.29925036430358887 0.0 0.0 0.0 0.0
3.541 0.2948656380176544 -0.11229062080383301 -0.9597885608673096 0.32167643308639526 0.0 0.0 0.0 0.0
3.542 0.28660401701927185 -0.12691737711429596 -0.936686098575592 0.3765146732330322 0.0 0.0 0.0 0.0
3.543 0.2867177724838257 -0.1316959410905838 -0.9383386969566345 0.385886013507843 0.0 0.0 0.0 0.0
3.544 0.2834037244319916 -0.14541468024253845 -0.917262077331543 0.4322271943092346 0.0 0.0 0.0 0.0
3.545 0.2878073453903198 -0.14371463656425476 -0.9162550568580627 0.44018906354904175 0.0 0.0 0.0 0.0
3.546 0.2724534869194031 -0.16133132576942444 -0.8825181722640991 0.5086102485656738 0.0 0.0 0.0 0.0
3.547 0.27306461334228516 -0.1640039086341858 -0.8869855403900146 0.49877139925956726 0.0 0.0 0.0 0.0
3.548 0.27122217416763306 -0.16647735238075256 -0.8655148148536682 0.5513057708740234 0.0 0.0 0.0 0.0
3.549 0.262420654296875 -0.17745031416416168 -0.8508238792419434 0.5641776919364929 0.0 0.0 0.0 0.0
3.55 0.2568102478981018 -0.1785428822040558 -0.8306082487106323 0.6127173900604248 0.0 0.0 0.0 0.0
3.551 0.24698230624198914 -0.19150057435035706 -0.8062431812286377 0.6406208872795105 0.0 0.0 0.0 0.0
3.552 0.24409639835357666 -0.19576935470104218 -0.7880552411079407 0.671133279800415 0.0 0.0 0.0 0.0
3.553 0.23047856986522675 -0.19896943867206573 -0.7601011395454407 0.6934290528297424 0.0 0.0 0.0 0.0
3.554 0.23337288200855255 -0.20587792992591858 -0.7609483003616333 0.7167149186134338 0.0 0.0 0.0 0.0
3.555 0.22221101820468903 -0.21373926103115082 -0.7325657606124878 0.7429670691490173 0.0 0.0 0.0 0.0
3.556 0.2165074199438095 -0.2146509736776352 -0.7033713459968567 0.7707898616790771 0.0 0.0 0.0 0.0
3.557 0.20885038375854492 -0.2275659292936325 -0.6690841913223267 0.8062310218811035 0.0 0.0 0.0 0.0
3.558 0.20455333590507507 -0.21860000491142273 -0.6649615168571472 0.8090186715126038 0.0 0.0 0.0 0.0
3.559 0.19172699749469757 -0.23460088670253754 -0.6122440099716187 0.8533421158790588 0.0 0.0 0.0 0.0
3.56 0.19006909430027008 -0.23289969563484192 -0.6154701709747314 0.8558690547943115 0.0 0.0 0.0 0.0
3.561 0.1755264550447464 -0.2317579835653305 -0.5593703985214233 0.8934578895568848 0.0 0.0 0.0 0.0
3.562 0.1703602820634842 -0.24204188585281372 -0.5587047338485718 0.893936038017273 0.0 0.0 0.0 0.0
3.563 0.1715216189622879 -0.24139085412025452 -0.5230702757835388 0.9288188219070435 0.0 0.0 0.0 0.0
3.564 0.15817765891551971 -0.24451221525669098 -0.4998469948768616 0.9309733510017395 0.0 0.0 0.0 0.0
3.565 0.15125606954097748 -0.24291428923606873 -0.49194392561912537 0.9447097778320312 0.0 0.0 0.0 0.0
3.566 0.13559764623641968 -0.24566635489463806 -0.4167655408382416 0.9791907072067261 0.0 0.0 0.0 0.0
3.567 0.13720165193080902 -0.24892547726631165 -0.41748106479644775 0.9980100989341736 0.0 0.0 0.0 0.0
3.568 0.12361790984869003 -0.255143940448761 -0.35004377365112305 1.0265929698944092 0.0 0.0 0.0 0.0
3.569 0.11574073880910873 -0.25189802050590515 -0.3249506652355194 1.032474398612976 0.0 0.0 0.0 0.0
3.57 0.11153807491064072 -0.2473297119140625 -0.28949639201164246 1.0406482219696045 0.0 0.0 0.0 0.0
3.571 0.10312800854444504 -0.24752427637577057 -0.2785348892211914 1.0434370040893555 0.0 0.0 0.0 0.0
3.572 0.08472631126642227 -0.24431654810905457 -0.21041417121887207 1.0650180578231812 0.0 0.0 0.0 0.0
3.573 0.07957912236452103 -0.24086910486221313 -0.20012328028678894 1.067732572555542 0.0 0.0 0.0 0.0
3.574 0.0720164105296135 -0.24204197525978088 -0.14373280107975006 1.0901985168457031 0.0 0.0 0.0 0.0
3.575 0.06175584718585014 -0.2451404184103012 -0.12045284360647202 1.0903366804122925 0.0 0.0 0.0 0.0
3.576 0.05610532686114311 -0.24508170783519745 -0.05640760436654091 1.1087342500686646 0.0 0.0 0.0 0.0
3.577 0.04603910818696022 -0.238533154129982 -0.043811265379190445 1.1014546155929565 0.0 0.0 0.0 0.0
3.578 0.043799687176942825 -0.23398630321025848 -0.0006528906524181366 1.1111682653427124 0.0 0.0 0.0 0.0
3.579 0.032900359481573105 -0.23055769503116608 0.042965132743120193 1.1077698469161987 0.0 0.0 0.0 0.0
3.58 0.03138381987810135 -0.2299245446920395 0.06252980977296829 1.1111412048339844 0.0 0.0 0.0 0.0
3.581 0.027546707540750504 -0.22367292642593384 0.12526147067546844 1.1088649034500122 0.0 0.0 0.0 0.0
3.582 0.021789463236927986 -0.21850457787513733 0.13525298237800598 1.1088911294937134 0.0 0.0 0.0 0.0
3.583 0.016580013558268547 -0.21596409380435944 0.19520634412765503 1.1088285446166992 0.0 0.0 0.0 0.0
3.584 0.0013926057144999504 -0.20978963375091553 0.2177090048789978 1.1006903648376465 0.0 0.0 0.0 0.0
3.585 0.0024322690442204475 -0.20915435254573822 0.2734019160270691 1.1010984182357788 0.0 0.0 0.0 0.0
3.586 -0.008326386101543903 -0.20645372569561005 0.2958601713180542 1.0988589525222778 0.0 0.0 0.0 0.0
3.587 -0.017299985513091087 -0.1991029679775238 0.3673244118690491 1.0757313966751099 0.0 0.0 0.0 0.0
3.588 -0.015416639856994152 -0.18569672107696533 0.3752628266811371 1.0655232667922974 0.0 0.0 0.0 0.0
3.589 -0.017226912081241608 -0.18426011502742767 0.42968693375587463 1.0615555047988892 0.0 0.0 0.0 0.0
3.59 -0.02582617849111557 -0.18351534008979797 0.4583902657032013 1.0500231981277466 0.0 0.0 0.0 0.0
3.591 -0.024561475962400436 -0.17575997114181519 0.4949594736099243 1.0475419759750366 0.0 0.0 0.0 0.0
3.592 -0.033357132226228714 -0.17144091427326202 0.5387334227561951 1.0195302963256836 0.0 0.0 0.0 0.0
3.593 -0.03092603199183941 -0.16375380754470825 0.5780590176582336 0.9993064403533936 0.0 0.0 0.0 0.0
3.594 -0.03714767470955849 -0.16079872846603394 0.6080077290534973 0.991730272769928 0.0 0.0 0.0 0.0
3.595 -0.03354738652706146 -0.15032027661800385 0.6389483213424683 0.9695335626602173 0.0 0.0 0.0 0.0
3.596 -0.04439948871731758 -0.1466667652130127 0.7118233442306519 0.9275206327438354 0.0 0.0 0.0 0.0
3.597 -0.03713531047105789 -0.1421424150466919 0.7051091194152832 0.9361478686332703 0.0 0.0 0.0 0.0
3.598 -0.04641642048954964 -0.13276241719722748 0.7566289305686951 0.8787311911582947 0.0 0.0 0.0 0.0
3.599 -0.03773510828614235 -0.12980622053146362 0.7765506505966187 0.8807274103164673 0.0 0.0 0.0 0.0
3.6 -0.04373561218380928 -0.11642346531152725 0.8389542102813721 0.8201985359191895 0.0 0.0 0.0 0.0
3.601 -0.04320048168301582 -0.1140848770737648 0.8463133573532104 0.8269162178039551 0.0 0.0 0.0 0.0
3.602 -0.043629780411720276 -0.10903257876634598 0.9059975147247314 0.7598157525062561 0.0 0.0 0.0 0.0
3.603 -0.045245204120874405 -0.10905950516462326 0.9065925478935242 0.7649800181388855 0.0 0.0 0.0 0.0
3.604 -0.04499484598636627 -0.1028023287653923 0.9604320526123047 0.7024504542350769 0.0 0.0 0.0 0.0
3.605 -0.04513760656118393 -0.09536977112293243 0.9519023895263672 0.7110061049461365 0.0 0.0 0.0 0.0
3.606 -0.040420033037662506 -0.09706296026706696 1.0213314294815063 0.6380946636199951 0.0 0.0 0.0 0.0
3.607 -0.034302592277526855 -0.09150898456573486 1.0155749320983887 0.6301062107086182 0.0 0.0 0.0 0.0
3.608 -0.03725328668951988 -0.08439914882183075 1.0488173961639404 0.5973272919654846 0.0 0.0 0.0 0.0
3.609 -0.03179538622498512 -0.08111052215099335 1.0686358213424683 0.5506436228752136 0.0 0.0 0.0 0.0
3.61 -0.03317669779062271 -0.07483194768428802 1.0938760042190552 0.4980787932872772 0.0 0.0 0.0 0.0
3.611 -0.030879342928528786 -0.0794793963432312 1.0970478057861328 0.5071869492530823 0.0 0.0 0.0 0.0
3.612 -0.025228964164853096 -0.06865245848894119 1.1193873882293701 0.46086210012435913 0.0 0.0 0.0 0.0
3.613 -0.030532915145158768 -0.06980957090854645 1.1555083990097046 0.37752607464790344 0.0 0.0 0.0 0.0
3.614 -0.020782984793186188 -0.06519411504268646 1.154483675956726 0.37202227115631104 0.0 0.0 0.0 0.0
3.615 -0.021968070417642593 -0.055619560182094574 1.1785844564437866 0.30358678102493286 0.0 0.0 0.0 0.0
3.616 -0.01516026072204113 -0.061485569924116135 1.180397391319275 0.28795745968818665 0.0 0.0 0.0 0.0
3.617 -0.01380847953259945 -0.05546941980719566 1.206783413887024 0.22265996038913727 0.0 0.0 0.0 0.0
3.618 -0.017618920654058456 -0.052935436367988586 1.2062944173812866 0.18718989193439484 0.0 0.0 0.0 0.0
3.619 -0.010791735723614693 -0.05297913774847984 1.2211170196533203 0.1410803496837616 0.0 0.0 0.0 0.0
3.62 -0.012082960456609726 -0.04989120364189148 1.2201119661331177 0.09046600013971329 0.0 0.0 0.0 0.0
3.621 -0.006480672396719456 -0.051242344081401825 1.226822018623352 0.057521868497133255 0.0 0.0 0.0 0.0
3.622 -0.002952796407043934 -0.05126819759607315 1.2339659929275513 0.014496360905468464 0.0 0.0 0.0 0.0
3.623 -0.0015924740582704544 -0.04575873911380768 1.231019377708435 -0.02181675098836422 0.0 0.0 0.0 0.0
3.624 0.0010388167575001717 -0.04994228482246399 1.2331604957580566 -0.0885172188282013 0.0 0.0 0.0 0.0
3.625 0.0014719581231474876 -0.04433004930615425 1.2319384813308716 -0.1006581112742424 0.0 0.0 0.0 0.0
3.626 0.007141793146729469 -0.04577338695526123 1.2235610485076904 -0.1667114943265915 0.0 0.0 0.0 0.0
3.627 0.0055252667516469955 -0.042946528643369675 1.2177952527999878 -0.18063974380493164 0.0 0.0 0.0 0.0
3.628 0.008939438499510288 -0.04746837168931961 1.2126108407974243 -0.2711661756038666 0.0 0.0 0.0 0.0
3.629 0.010909336619079113 -0.04517100006341934 1.21112060546875 -0.2800222635269165 0.0 0.0 0.0 0.0
3.63 0.004669950343668461 -0.04728345200419426 1.19473397731781 -0.347787082195282 0.0 0.0 0.0 0.0
3.631 0.0086318738758564 -0.04017343372106552 1.1815985441207886 -0.3567066788673401 0.0 0.0 0.0 0.0
3.632 0.014001891948282719 -0.040333446115255356 1.1717002391815186 -0.4303155243396759 0.0 0.0 0.0 0.0
3.633 0.015120216645300388 -0.03858031705021858 1.1556521654129028 -0.45132413506507874 0.0 0.0 0.0 0.0
3.634 0.010595472529530525 -0.042344994843006134 1.142447590827942 -0.5204107761383057 0.0 0.0 0.0 0.0
3.635 0.015006384812295437 -0.04523563012480736 1.127934217453003 -0.5418260097503662 0.0 0.0 0.0 0.0
3.636 0.015799198299646378 -0.04355894774198532 1.1051255464553833 -0.5963916778564453 0.0 0.0 0.0 0.0
3.637 0.014245395548641682 -0.041055500507354736 1.0742892026901245 -0.6246711015701294 0.0 0.0 0.0 0.0
3.638 0.014028330333530903 -0.042297445237636566 1.0719537734985352 -0.6635774374008179 0.0 0.0 0.0 0.0
3.639 0.014118523336946964 -0.04066199064254761 1.0315190553665161 -0.7079524397850037 0.0 0.0 0.0 0.0
3.64 0.019403820857405663 -0.042191192507743835 1.0266319513320923 -0.7333582043647766 0.0 0.0 0.0 0.0
3.641 0.018058568239212036 -0.044402334839105606 0.984596312046051 -0.7945236563682556 0.0 0.0 0.0 0.0
3.642 0.01532402541488409 -0.03918411210179329 0.9758153557777405 -0.8009210228919983 0.0 0.0 0.0 0.0
3.643 0.0142149543389678 -0.042565420269966125 0.9149213433265686 -0.8666749596595764 0.0 0.0 0.0 0.0
3.644 0.01980566419661045 -0.041390661150217056 0.9325381517410278 -0.8589637279510498 0.0 0.0 0.0 0.0
3.645 0.011078406125307083 -0.03565538674592972 0.8463172912597656 -0.934568464756012 0.0 0.0 0.0 0.0
3.646 0.01551701221615076 -0.04070613905787468 0.8625539541244507 -0.930296778678894 0.0 0.0 0.0 0.0
3.647 0.020745184272527695 -0.03687715530395508 0.7995863556861877 -0.9872065186500549 0.0 0.0 0.0 0.0
3.648 0.011959114111959934 -0.033367857336997986 0.7916245460510254 -0.9933274388313293 0.0 0.0 0.0 0.0
3.649 0.014465187676250935 -0.03540738672018051 0.7268383502960205 -1.0524241924285889 0.0 0.0 0.0 0.0
3.65 0.01578209362924099 -0.028248857706785202 0.732833743095398 -1.0306025743484497 0.0 0.0 0.0 0.0
3.651 0.012280244380235672 -0.030591459944844246 0.6453740000724792 -1.1102464199066162 0.0 0.0 0.0 0.0
3.652 0.020778700709342957 -0.029124192893505096 0.6411639451980591 -1.1011543273925781 0.0 0.0 0.0 0.0
3.653 0.015192589722573757 -0.02168593741953373 0.602940022945404 -1.1310217380523682 0.0 0.0 0.0 0.0
3.654 0.016373516991734505 -0.022649260237812996 0.5274490714073181 -1.1618719100952148 0.0 0.0 0.0 0.0
3.655 0.018108593299984932 -0.017723448574543 0.5269225239753723 -1.1747556924819946 0.0 0.0 0.0 0.0
3.656 0.015780087560415268 -0.019383933395147324 0.46112555265426636 -1.1977996826171875 0.0 0.0 0.0 0.0
3.657 0.020645275712013245 -0.013982249423861504 0.47299501299858093 -1.191328525543213 0.0 0.0 0.0 0.0
3.658 0.01883634738624096 -0.017661064863204956 0.3524962067604065 -1.2356698513031006 0.0 0.0 0.0 0.0
3.659 0.022951640188694 -0.00869812909513712 0.3697400689125061 -1.2296620607376099 0.0 0.0 0.0 0.0
3.66 0.02595086395740509 -0.011446884833276272 0.2771313488483429 -1.2635362148284912 0.0 0.0 0.0 0.0
3.661 0.023560553789138794 -0.006956052966415882 0.2651064693927765 -1.256340503692627 0.0 0.0 0.0 0.0
3.662 0.019765455275774002 0.0031763138249516487 0.1919793337583542 -1.2717620134353638 0.0 0.0 0.0 0.0
3.663 0.028210198506712914 0.00012880191206932068 0.17553220689296722 -1.2750006914138794 0.0 0.0 0.0 0.0
3.664 0.02903706580400467 0.009550407528877258 0.09630653262138367 -1.2891902923583984 0.0 0.0 0.0 0.0
3.665 0.031273264437913895 0.010075458325445652 0.0577336847782135 -1.289937973022461 0.0 0.0 0.0 0.0
3.666 0.035494957119226456 0.0102544529363513 0.0224123727530241 -1.287792682647705 0.0 0.0 0.0 0.0
3.667 0.036626797169446945 0.015782630071043968 -0.04093518853187561 -1.2879968881607056 0.0 0.0 0.0 0.0
3.668 0.0405777208507061 0.018621981143951416 -0.06629540026187897 -1.2826614379882812 0.0 0.0 0.0 0.0
3.669 0.04361366853117943 0.025704270228743553 -0.14091631770133972 -1.2768803834915161 0.0 0.0 0.0 0.0
3.67 0.04959381744265556 0.024354567751288414 -0.15933139622211456 -1.289365291595459 0.0 0.0 0.0 0.0
3.671 0.05730830132961273 0.02333838678896427 -0.22128060460090637 -1.2739884853363037 0.0 0.0 0.0 0.0
3.672 0.05594900622963905 0.030833609402179718 -0.24521847069263458 -1.2720496654510498 0.0 0.0 0.0 0.0
3.673 0.06470570713281631 0.03037368692457676 -0.32270658016204834 -1.253842830657959 0.0 0.0 0.0 0.0
3.674 0.0682879313826561 0.03983316570520401 -0.33929911255836487 -1.2387056350708008 0.0 0.0 0.0 0.0
3.675 0.07054547965526581 0.0352187417447567 -0.41374671459198 -1.2305670976638794 0.0 0.0 0.0 0.0
3.676 0.0719461664557457 0.03831079974770546 -0.42972689867019653 -1.2138317823410034 0.0 0.0 0.0 0.0
3.677 0.08178078383207321 0.04783918336033821 -0.49163588881492615 -1.197791337966919 0.0 0.0 0.0 0.0
3.678 0.0870625451207161 0.03695407509803772 -0.5277438163757324 -1.1723679304122925 0.0 0.0 0.0 0.0
3.679 0.09638189524412155 0.04484677314758301 -0.5635855793952942 -1.160886526107788 0.0 0.0 0.0 0.0
3.68 0.1026211753487587 0.044241100549697876 -0.6115735173225403 -1.1189666986465454 0.0 0.0 0.0 0.0
3.681 0.10721462965011597 0.04752505570650101 -0.6584643125534058 -1.113642692565918 0.0 0.0 0.0 0.0
3.682 0.1139584556221962 0.04828488826751709 -0.6910687685012817 -1.0820022821426392 0.0 0.0 0.0 0.0
3.683 0.11842060089111328 0.04874526709318161 -0.7189093232154846 -1.0749082565307617 0.0 0.0 0.0 0.0
3.684 0.12738235294818878 0.047866154462099075 -0.7795039415359497 -1.008316993713379 0.0 0.0 0.0 0.0
3.685 0.13052400946617126 0.0458080880343914 -0.7893289923667908 -1.0165963172912598 0.0 0.0 0.0 0.0
3.686 0.13704898953437805 0.04744675010442734 -0.8462252020835876 -0.9667702913284302 0.0 0.0 0.0 0.0
3.687 0.1474873125553131 0.049145180732011795 -0.857814610004425 -0.9457637071609497 0.0 0.0 0.0 0.0
3.688 0.15766222774982452 0.04427444934844971 -0.9052813053131104 -0.9154754877090454 0.0 0.0 0.0 0.0
3.689 0.15778793394565582 0.040862809866666794 -0.9239267706871033 -0.8743959069252014 0.0 0.0 0.0 0.0
3.69 0.16318175196647644 0.0407564714550972 -0.9727677702903748 -0.8309588432312012 0.0 0.0 0.0 0.0
3.691 0.17285111546516418 0.038095347583293915 -0.9773843288421631 -0.8152982592582703 0.0 0.0 0.0 0.0
3.692 0.18383529782295227 0.02492453157901764 -1.022281289100647 -0.7745525240898132 0.0 0.0 0.0 0.0
3.693 0.18345490097999573 0.03318982198834419 -1.0312094688415527 -0.7450578808784485 0.0 0.0 0.0 0.0
3.694 0.18939423561096191 0.02241635136306286 -1.068105936050415 -0.6951331496238708 0.0 0.0 0.0 0.0
3.695 0.2029140591621399 0.022231146693229675 -1.0822075605392456 -0.6575925350189209 0.0 0.0 0.0 0.0
3.696 0.20641550421714783 0.018705375492572784 -1.1206995248794556 -0.6187116503715515 0.0 0.0 0.0 0.0
3.697 0.2139047533273697 0.012985967099666595 -1.1342840194702148 -0.551576554775238 0.0 0.0 0.0 0.0
3.698 0.21837465465068817 0.011101128533482552 -1.1338915824890137 -0.567764401435852 0.0 0.0 0.0 0.0
3.699 0.22925977408885956 0.004870198667049408 -1.164582371711731 -0.5012868642807007 0.0 0.0 0.0 0.0
3.7 0.22974783182144165 0.001868750900030136 -1.164812445640564 -0.49203214049339294 0.0 0.0 0.0 0.0
3.701 0.23135925829410553 -0.008991509675979614 -1.1983129978179932 -0.39333418011665344 0.0 0.0 0.0 0.0
3.702 0.24176059663295746 -0.011537013575434685 -1.196492314338684 -0.3901752233505249 0.0 0.0 0.0 0.0
3.703 0.24735184013843536 -0.012068924494087696 -1.219722867012024 -0.3529782295227051 0.0 0.0 0.0 0.0
3.704 0.24741283059120178 -0.02764509618282318 -1.2332487106323242 -0.2746308743953705 0.0 0.0 0.0 0.0
3.705 0.2588648200035095 -0.031970854848623276 -1.2382713556289673 -0.2531818747520447 0.0 0.0 0.0 0.0
3.706 0.2558131217956543 -0.04402376711368561 -1.2447724342346191 -0.18294641375541687 0.0 0.0 0.0 0.0
3.707 0.26318779587745667 -0.048976313322782516 -1.252406120300293 -0.1654711812734604 0.0 0.0 0.0 0.0
3.708 0.26336202025413513 -0.0563177689909935 -1.2473772764205933 -0.09738447517156601 0.0 0.0 0.0 0.0
3.709 0.26808884739875793 -0.06648670136928558 -1.2540009021759033 -0.07998419553041458 0.0 0.0 0.0 0.0
3.71 0.2627779543399811 -0.07822433114051819 -1.2524932622909546 -0.0053802309557795525 0.0 0.0 0.0 0.0
3.711 0.26812976598739624 -0.08104126900434494 -1.2467719316482544 -0.00029968470335006714 0.0 0.0 0.0 0.0
3.712 0.2702936828136444 -0.09360713511705399 -1.248045563697815 0.05702370032668114 0.0 0.0 0.0 0.0
3.713 0.28025588393211365 -0.09853046387434006 -1.2418935298919678 0.08716103434562683 0.0 0.0 0.0 0.0
3.714 0.27560102939605713 -0.10102575272321701 -1.2410006523132324 0.1489412635564804 0.0 0.0 0.0 0.0
3.715 0.27299559116363525 -0.11070284992456436 -1.2278950214385986 0.1820947527885437 0.0 0.0 0.0 0.0
3.716 0.27957960963249207 -0.12276890873908997 -1.22956383228302 0.2237815409898758 0.0 0.0 0.0 0.0
3.717 0.2749224007129669 -0.12679074704647064 -1.2013638019561768 0.27229005098342896 0.0 0.0 0.0 0.0
3.718 0.27952316403388977 -0.1385745257139206 -1.2072731256484985 0.2918443977832794 0.0 0.0 0.0 0.0
3.719 0.27297818660736084 -0.1440797746181488 -1.1854190826416016 0.3554905354976654 0.0 0.0 0.0 0.0
3.72 0.27697959542274475 -0.1515270620584488 -1.1866374015808105 0.36520636081695557 0.0 0.0 0.0 0.0
3.721 0.2742018401622772 -0.16380906105041504 -1.1586178541183472 0.44141122698783875 0.0 0.0 0.0 0.0
3.722 0.2729536294937134 -0.16414310038089752 -1.1538642644882202 0.4265121817588806 0.0 0.0 0.0 0.0
3.723 0.2730867564678192 -0.17587906122207642 -1.1308079957962036 0.5092828869819641 0.0 0.0 0.0 0.0
3.724 0.26510089635849 -0.18549667298793793 -1.118688702583313 0.5221593976020813 0.0 0.0 0.0 0.0
3.725 0.2614329755306244 -0.18726490437984467 -1.0888704061508179 0.5805635452270508 0.0 0.0 0.0 0.0
3.726 0.2548826336860657 -0.20396515727043152 -1.0850292444229126 0.5901834964752197 0.0 0.0 0.0 0.0
3.727 0.24925103783607483 -0.20294609665870667 -1.0472230911254883 0.6561152935028076 0.0 0.0 0.0 0.0
3.728 0.24950696527957916 -0.2164636254310608 -1.0362365245819092 0.6725408434867859 0.0 0.0 0.0 0.0
3.729 0.24529066681861877 -0.2226879745721817 -1.0130000114440918 0.703944981098175 0.0 0.0 0.0 0.0
3.73 0.24456404149532318 -0.22954228520393372 -0.9776322841644287 0.7516754269599915 0.0 0.0 0.0 0.0
3.731 0.24150609970092773 -0.22747088968753815 -0.9781820774078369 0.7710053324699402 0.0 0.0 0.0 0.0
3.732 0.2295939326286316 -0.23517009615898132 -0.9279072880744934 0.8172101974487305 0.0 0.0 0.0 0.0
3.733 0.2286292463541031 -0.24145402014255524 -0.9166375398635864 0.838962197303772 0.0 0.0 0.0 0.0
3.734 0.2264338880777359 -0.25381892919540405 -0.8638599514961243 0.883587121963501 0.0 0.0 0.0 0.0
3.735 0.22225578129291534 -0.2509710490703583 -0.8631995320320129 0.884168267250061 0.0 0.0 0.0 0.0
3.736 0.21819500625133514 -0.2581041753292084 -0.8208310604095459 0.9234006404876709 0.0 0.0 0.0 0.0
3.737 0.2120436429977417 -0.26420947909355164 -0.8013370633125305 0.9567764401435852 0.0 0.0 0.0 0.0
3.738 0.2063271403312683 -0.26528266072273254 -0.7672734260559082 0.972511887550354 0.0 0.0 0.0 0.0
3.739 0.19502998888492584 -0.2699161469936371 -0.7377145886421204 0.9913203120231628 0.0 0.0 0.0 0.0
3.74 0.18372388184070587 -0.2827165126800537 -0.6855462789535522 1.0461734533309937 0.0 0.0 0.0 0.0
3.741 0.17995429039001465 -0.27285680174827576 -0.649540901184082 1.0521291494369507 0.0 0.0 0.0 0.0
3.742 0.1716763973236084 -0.2786989212036133 -0.6363667845726013 1.068907380104065 0.0 0.0 0.0 0.0
3.743 0.17431773245334625 -0.2883976101875305 -0.5826333165168762 1.109254240989685 0.0 0.0 0.0 0.0
3.744 0.16389037668704987 -0.2804621458053589 -0.5645188689231873 1.1110652685165405 0.0 0.0 0.0 0.0
3.745 0.15380603075027466 -0.29512643814086914 -0.5126131176948547 1.1438404321670532 0.0 0.0 0.0 0.0
3.746 0.15915489196777344 -0.2882063686847687 -0.5012412667274475 1.1564323902130127 0.0 0.0 0.0 0.0
3.747 0.14246946573257446 -0.2949202060699463 -0.4315681457519531 1.178599238395691 0.0 0.0 0.0 0.0
3.748 0.14020749926567078 -0.2955271005630493 -0.4213259220123291 1.188407301902771 0.0 0.0 0.0 0.0
3.749 0.13745740056037903 -0.2894308567047119 -0.349098265171051 1.21415114402771 0.0 0.0 0.0 0.0
3.75 0.12120760977268219 -0.2977392375469208 -0.33464014530181885 1.2225329875946045 0.0 0.0 0.0 0.0
3.751 0.11562575399875641 -0.2993476688861847 -0.29950574040412903 1.2278655767440796 0.0 0.0 0.0 0.0
3.752 0.11833932995796204 -0.29966720938682556 -0.24404418468475342 1.2453259229660034 0.0 0.0 0.0 0.0
3.753 0.09669660031795502 -0.2831084132194519 -0.20045584440231323 1.2398265600204468 0.0 0.0 0.0 0.0
3.754 0.09195464849472046 -0.2935050427913666 -0.1627897173166275 1.2503418922424316 0.0 0.0 0.0 0.0
3.755 0.09987133741378784 -0.29081034660339355 -0.12248242646455765 1.2553266286849976 0.0 0.0 0.0 0.0
3.756 0.08183230459690094 -0.27856138348579407 -0.07950062304735184 1.2565686702728271 0.0 0.0 0.0 0.0
3.757 0.08528897911310196 -0.2909887731075287 -0.023283855989575386 1.2701590061187744 0.0 0.0 0.0 0.0
3.758 0.07850899547338486 -0.2871066927909851 -0.017856834456324577 1.2726635932922363 0.0 0.0 0.0 0.0
3.759 0.06254513561725616 -0.2779489755630493 0.07920980453491211 1.2654073238372803 0.0 0.0 0.0 0.0
3.76 0.07641690224409103 -0.2733350098133087 0.07215995341539383 1.2652668952941895 0.0 0.0 0.0 0.0
3.761 0.06502767652273178 -0.2841774523258209 0.15346220135688782 1.2777652740478516 0.0 0.0 0.0 0.0
3.762 0.06261681765317917 -0.2687208652496338 0.17023630440235138 1.2642085552215576 0.0 0.0 0.0 0.0
3.763 0.06269053369760513 -0.2843003273010254 0.23694273829460144 1.2720272541046143 0.0 0.0 0.0 0.0
3.764 0.047597579658031464 -0.26152440905570984 0.2646510601043701 1.2592105865478516 0.0 0.0 0.0 0.0
3.765 0.05920184403657913 -0.2591688632965088 0.3076537549495697 1.2507928609848022 0.0 0.0 0.0 0.0
3.766 0.030335640534758568 -0.25194916129112244 0.3641076385974884 1.2306400537490845 0.0 0.0 0.0 0.0
3.767 0.040108710527420044 -0.26718372106552124 0.40387290716171265 1.2323092222213745 0.0 0.0 0.0 0.0
3.768 0.03792564198374748 -0.24490195512771606 0.4514041841030121 1.204158067703247 0.0 0.0 0.0 0.0
3.769 0.05486910417675972 -0.24903661012649536 0.4705958068370819 1.213975429534912 0.0 0.0 0.0 0.0
3.77 0.043810274451971054 -0.25119805335998535 0.5433921813964844 1.1924248933792114 0.0 0.0 0.0 0.0
3.771 0.03684357926249504 -0.23556652665138245 0.5692052245140076 1.1752166748046875 0.0 0.0 0.0 0.0
3.772 0.028622999787330627 -0.23490725457668304 0.6469666957855225 1.1273465156555176 0.0 0.0 0.0 0.0
3.773 0.042733341455459595 -0.23717395961284637 0.637570858001709 1.1433405876159668 0.0 0.0 0.0 0.0
3.774 0.03799055889248848 -0.23992305994033813 0.7200512886047363 1.1063814163208008 0.0 0.0 0.0 0.0
3.775 0.03756612166762352 -0.223201721906662 0.7100412845611572 1.095926284790039 0.0 0.0 0.0 0.0
3.776 0.03898634761571884 -0.21723978221416473 0.7832754254341125 1.0348396301269531 0.0 0.0 0.0 0.0
3.777 0.04248665273189545 -0.22568969428539276 0.7845074534416199 1.0598605871200562 0.0 0.0 0.0 0.0
3.778 0.02190776914358139 -0.22060537338256836 0.8772133588790894 0.9946218132972717 0.0 0.0 0.0 0.0
3.779 0.04130624979734421 -0.22771862149238586 0.8883794546127319 0.9854208827018738 0.0 0.0 0.0 0.0
3.78 0.04453067108988762 -0.20255766808986664 0.9261921644210815 0.9431081414222717 0.0 0.0 0.0 0.0
3.781 0.03460222855210304 -0.22395645081996918 0.9523319602012634 0.9310036301612854 0.0 0.0 0.0 0.0
3.782 0.054509613662958145 -0.214508056640625 1.0061849355697632 0.8786121606826782 0.0 0.0 0.0 0.0
3.783 0.027575846761465073 -0.20950548350811005 1.0368953943252563 0.8236658573150635 0.0 0.0 0.0 0.0
3.784 0.0520269051194191 -0.20582929253578186 1.0506222248077393 0.8253949284553528 0.0 0.0 0.0 0.0
3.785 0.050356484949588776 -0.20531348884105682 1.0790343284606934 0.7568662762641907 0.0 0.0 0.0 0.0
3.786 0.052453093230724335 -0.19851486384868622 1.0963395833969116 0.7520126700401306 0.0 0.0 0.0 0.0
3.787 0.03312503173947334 -0.2090715616941452 1.161900520324707 0.6818981766700745 0.0 0.0 0.0 0.0
3.788 0.05414484068751335 -0.2042817920446396 1.1463890075683594 0.6699503064155579 0.0 0.0 0.0 0.0
3.789 0.03798507899045944 -0.20974989235401154 1.2292628288269043 0.5679554343223572 0.0 0.0 0.0 0.0
3.79 0.0575486421585083 -0.20035409927368164 1.1853395700454712 0.5970022678375244 0.0 0.0 0.0 0.0
3.791 0.05226747319102287 -0.19164738059043884 1.2218337059020996 0.5154947638511658 0.0 0.0 0.0 0.0
3.792 0.05756614729762077 -0.2142777442932129 1.2509347200393677 0.4883396029472351 0.0 0.0 0.0 0.0
3.793 0.07008329033851624 -0.19379442930221558 1.259361982345581 0.4527934193611145 0.0 0.0 0.0 0.0
3.794 0.057849254459142685 -0.20278549194335938 1.2767912149429321 0.41053828597068787 0.0 0.0 0.0 0.0
3.795 0.048731688410043716 -0.21225865185260773 1.2936773300170898 0.3648560047149658 0.0 0.0 0.0 0.0
3.796 0.06388837844133377 -0.19322241842746735 1.2908052206039429 0.2751341462135315 0.0 0.0 0.0 0.0
3.797 0.061043549329042435 -0.20097662508487701 1.3139046430587769 0.26051875948905945 0.0 0.0 0.0 0.0
3.798 0.07158302515745163 -0.21767167747020721 1.3342201709747314 0.21178008615970612 0.0 0.0 0.0 0.0
3.799 0.05825133994221687 -0.20842233300209045 1.3112759590148926 0.1617075651884079 0.0 0.0 0.0 0.0
3.8 0.042041730135679245 -0.22309525310993195 1.3524291515350342 0.0788157656788826 0.0 0.0 0.0 0.0
3.801 0.0479663647711277 -0.21235774457454681 1.32711660861969 0.05664105713367462 0.0 0.0 0.0 0.0
3.802 0.052232809364795685 -0.2338867336511612 1.3615906238555908 0.0010043513029813766 0.0 0.0 0.0 0.0
3.803 0.05835868790745735 -0.23203547298908234 1.351789116859436 -0.03530324622988701 0.0 0.0 0.0 0.0
3.804 0.054894838482141495 -0.20273831486701965 1.3310861587524414 -0.07433303445577621 0.0 0.0 0.0 0.0
3.805 0.05126374959945679 -0.21864236891269684 1.3145767450332642 -0.17061884701251984 0.0 0.0 0.0 0.0
3.806 0.04949695244431496 -0.22658248245716095 1.3421742916107178 -0.1722276359796524 0.0 0.0 0.0 0.0
3.807 0.05572976544499397 -0.2205408364534378 1.2991381883621216 -0.23265250027179718 0.0 0.0 0.0 0.0
3.808 0.05291139706969261 -0.22456054389476776 1.3205476999282837 -0.25228676199913025 0.0 0.0 0.0 0.0
3.809 0.054070331156253815 -0.241621732711792 1.3129757642745972 -0.34063854813575745 0.0 0.0 0.0 0.0
3.81 0.04293918237090111 -0.24551615118980408 1.3009299039840698 -0.3616769313812256 0.0 0.0 0.0 0.0
3.811 0.03507806360721588 -0.2493342161178589 1.2845728397369385 -0.43866491317749023 0.0 0.0 0.0 0.0
3.812 0.048270151019096375 -0.22409671545028687 1.2524197101593018 -0.4433123767375946 0.0 0.0 0.0 0.0
3.813 0.06177957355976105 -0.24436363577842712 1.261542797088623 -0.48411765694618225 0.0 0.0 0.0 0.0
3.814 0.0509805902838707 -0.23175853490829468 1.2100820541381836 -0.5408313870429993 0.0 0.0 0.0 0.0
3.815 0.033081330358982086 -0.23138129711151123 1.20888352394104 -0.5806201100349426 0.0 0.0 0.0 0.0
3.816 0.04288096725940704 -0.24554340541362762 1.1765375137329102 -0.6281805634498596 0.0 0.0 0.0 0.0
3.817 0.0307054053992033 -0.2354026585817337 1.1560229063034058 -0.6580511331558228 0.0 0.0 0.0 0.0
3.818 0.0306668970733881 -0.23497070372104645 1.1168313026428223 -0.7218828201293945 0.0 0.0 0.0 0.0
3.819 0.03572339564561844 -0.23995806276798248 1.1171977519989014 -0.730620265007019 0.0 0.0 0.0 0.0
3.82 0.008431337773799896 -0.24469231069087982 1.0789105892181396 -0.81236332654953 0.0 0.0 0.0 0.0
3.821 0.01842404715716839 -0.24156926572322845 1.0549567937850952 -0.8198394179344177 0.0 0.0 0.0 0.0
3.822 -0.0022203074768185616 -0.24003903567790985 1.0088680982589722 -0.8937726020812988 0.0 0.0 0.0 0.0
3.823 -0.004809885285794735 -0.2425355762243271 0.9820122122764587 -0.8992794752120972 0.0 0.0 0.0 0.0
3.824 0.022530630230903625 -0.24883724749088287 0.9817509055137634 -0.9259393811225891 0.0 0.0 0.0 0.0
3.825 0.010399064980447292 -0.25218284130096436 0.9506310820579529 -0.9641591906547546 0.0 0.0 0.0 0.0
3.826 0.006975455209612846 -0.22125881910324097 0.8840011954307556 -1.0002468824386597 0.0 0.0 0.0 0.0
3.827 -0.0008044429123401642 -0.22975143790245056 0.8501852750778198 -1.0188250541687012 0.0 0.0 0.0 0.0
3.828 -0.0048915669322013855 -0.23111136257648468 0.8346419334411621 -1.0527174472808838 0.0 0.0 0.0 0.0
3.829 -0.034720271825790405 -0.22928979992866516 0.7447052597999573 -1.1186728477478027 0.0 0.0 0.0 0.0
3.83 -0.01669151708483696 -0.22634725272655487 0.7517403960227966 -1.1083251237869263 0.0 0.0 0.0 0.0
3.831 -0.0384240448474884 -0.23542016744613647 0.6768177151679993 -1.194615364074707 0.0 0.0 0.0 0.0
3.832 -0.03408610820770264 -0.23323693871498108 0.690319836139679 -1.1820504665374756 0.0 0.0 0.0 0.0
3.833 -0.037990134209394455 -0.2404491901397705 0.6371172070503235 -1.2308841943740845 0.0 0.0 0.0 0.0
3.834 -0.04234534502029419 -0.21437090635299683 0.5746445655822754 -1.2151446342468262 0.0 0.0 0.0 0.0
3.835 -0.054416924715042114 -0.2106875479221344 0.5388237237930298 -1.247877836227417 0.0 0.0 0.0 0.0
3.836 -0.03320102393627167 -0.21977826952934265 0.5233300924301147 -1.257353663444519 0.0 0.0 0.0 0.0
3.837 -0.06773561984300613 -0.20278893411159515 0.4216897785663605 -1.2942384481430054 0.0 0.0 0.0 0.0
3.838 -0.055707961320877075 -0.2138359397649765 0.4262470304965973 -1.2986425161361694 0.0 0.0 0.0 0.0
3.839 -0.03169582411646843 -0.20489585399627686 0.3816477954387665 -1.3109503984451294 0.0 0.0 0.0 0.0
3.84 -0.055712394416332245 -0.19952648878097534 0.31652122735977173 -1.3209463357925415 0.0 0.0 0.0 0.0
3.841 -0.06710325926542282 -0.19774869084358215 0.311964213848114 -1.341091513633728 0.0 0.0 0.0 0.0
3.842 -0.04248884320259094 -0.18857546150684357 0.22721907496452332 -1.3231457471847534 0.0 0.0 0.0 0.0
3.843 -0.05638524144887924 -0.16399236023426056 0.1708928495645523 -1.3270668983459473 0.0 0.0 0.0 0.0
3.844 -0.05313839390873909 -0.1895494908094406 0.1385502964258194 -1.3690136671066284 0.0 0.0 0.0 0.0
3.845 -0.051868561655282974 -0.16419322788715363 0.10385825484991074 -1.3354761600494385 0.0 0.0 0.0 0.0
3.846 -0.06356430798768997 -0.17710228264331818 0.02280827797949314 -1.391679048538208 0.0 0.0 0.0 0.0
3.847 -0.05695461481809616 -0.14891761541366577 -0.004707339219748974 -1.3433780670166016 0.0 0.0 0.0 0.0
3.848 -0.04474740847945213 -0.1300591230392456 -0.05983272194862366 -1.3419018983840942 0.0 0.0 0.0 0.0
3.849 -0.049338530749082565 -0.141296848654747 -0.10815929621458054 -1.3521701097488403 0.0 0.0 0.0 0.0
3.85 -0.0438775010406971 -0.1435449868440628 -0.14616374671459198 -1.3534018993377686 0.0 0.0 0.0 0.0
3.851 -0.06019538268446922 -0.10839599370956421 -0.23979264497756958 -1.3115252256393433 0.0 0.0 0.0 0.0
3.852 -0.06785653531551361 -0.11002872884273529 -0.2550138235092163 -1.3446637392044067 0.0 0.0 0.0 0.0
3.853 -0.042684826999902725 -0.10777261853218079 -0.3236372768878937 -1.2929524183273315 0.0 0.0 0.0 0.0
3.854 -0.047246623784303665 -0.0952695682644844 -0.3523389399051666 -1.2936500310897827 0.0 0.0 0.0 0.0
3.855 -0.04171790927648544 -0.08926893770694733 -0.42196372151374817 -1.267183542251587 0.0 0.0 0.0 0.0
3.856 -0.04264575615525246 -0.0842587947845459 -0.44182705879211426 -1.2516158819198608 0.0 0.0 0.0 0.0
3.857 -0.02924954891204834 -0.08152490854263306 -0.49230605363845825 -1.252147912979126 0.0 0.0 0.0 0.0
3.858 -0.05128658935427666 -0.078226238489151 -0.5543920993804932 -1.228570580482483 0.0 0.0 0.0 0.0
3.859 -0.02591940201818943 -0.09618820995092392 -0.5905716419219971 -1.236034870147705 0.0 0.0 0.0 0.0
3.86 -0.03414276987314224 -0.08101343363523483 -0.6543148159980774 -1.194737195968628 0.0 0.0 0.0 0.0
3.861 -0.033556725829839706 -0.07435241341590881 -0.6813914775848389 -1.1816376447677612 0.0 0.0 0.0 0.0
3.862 -0.025378916412591934 -0.05577840656042099 -0.7362469434738159 -1.1130189895629883 0.0 0.0 0.0 0.0
3.863 -0.013749757781624794 -0.06448140740394592 -0.741121232509613 -1.1399004459381104 0.0 0.0 0.0 0.0
3.864 -0.0015246476978063583 -0.045784350484609604 -0.8146533370018005 -1.0579898357391357 0.0 0.0 0.0 0.0
3.865 -0.0008297646418213844 -0.05397956818342209 -0.8333523273468018 -1.080223560333252 0.0 0.0 0.0 0.0
3.866 0.007370179519057274 -0.03995180502533913 -0.8886888027191162 -0.9935830235481262 0.0 0.0 0.0 0.0
3.867 0.029584921896457672 -0.05492975562810898 -0.864872932434082 -1.0126192569732666 0.0 0.0 0.0 0.0
3.868 0.04056955501437187 -0.03603580966591835 -0.9299190640449524 -0.9493952989578247 0.0 0.0 0.0 0.0
3.869 0.04382451996207237 -0.050980813801288605 -0.9464039206504822 -0.9244503378868103 0.0 0.0 0.0 0.0
3.87 0.02835983783006668 -0.04876074939966202 -1.0295002460479736 -0.8826658725738525 0.0 0.0 0.0 0.0
3.871 0.05419151112437248 -0.048101022839546204 -1.0248605012893677 -0.8589374423027039 0.0 0.0 0.0 0.0
3.872 0.06549188494682312 -0.05549297854304314 -1.0708727836608887 -0.828499972820282 0.0 0.0 0.0 0.0
3.873 0.0801592618227005 -0.036985285580158234 -1.0723782777786255 -0.7623304128646851 0.0 0.0 0.0 0.0
3.874 0.0866166278719902 -0.04452984780073166 -1.1044856309890747 -0.7552808523178101 0.0 0.0 0.0 0.0
3.875 0.07337184995412827 -0.0504327230155468 -1.1491349935531616 -0.6861547231674194 0.0 0.0 0.0 0.0
3.876 0.10248138010501862 -0.04561687260866165 -1.1504241228103638 -0.6527010202407837 0.0 0.0 0.0 0.0
3.877 0.0962151512503624 -0.051300711929798126 -1.1812716722488403 -0.6025751233100891 0.0 0.0 0.0 0.0
3.878 0.10915112495422363 -0.042463626712560654 -1.1668293476104736 -0.5663921236991882 0.0 0.0 0.0 0.0
3.879 0.11687144637107849 -0.055442363023757935 -1.2112261056900024 -0.5068272352218628 0.0 0.0 0.0 0.0
3.88 0.12305406481027603 -0.041073646396398544 -1.213505744934082 -0.4775732159614563 0.0 0.0 0.0 0.0
3.881 0.13134369254112244 -0.044015150517225266 -1.2367578744888306 -0.395576149225235 0.0 0.0 0.0 0.0
3.882 0.13821576535701752 -0.051417265087366104 -1.22147798538208 -0.41208547353744507 0.0 0.0 0.0 0.0
3.883 0.13347867131233215 -0.04325297847390175 -1.2559165954589844 -0.3066285252571106 0.0 0.0 0.0 0.0
3.884 0.12871727347373962 -0.07552696019411087 -1.2784637212753296 -0.3009468913078308 0.0 0.0 0.0 0.0
3.885 0.1394909769296646 -0.05654294788837433 -1.2761255502700806 -0.22786930203437805 0.0 0.0 0.0 0.0
3.886 0.1422644704580307 -0.07216451317071915 -1.2873997688293457 -0.2316543459892273 0.0 0.0 0.0 0.0
3.887 0.14460982382297516 -0.0838538333773613 -1.2920790910720825 -0.15982210636138916 0.0 0.0 0.0 0.0
3.888 0.1577737033367157 -0.07880695164203644 -1.2732137441635132 -0.08397001028060913 0.0 0.0 0.0 0.0
3.889 0.1711832731962204 -0.08358244597911835 -1.2718037366867065 -0.0612935870885849 0.0 0.0 0.0 0.0
3.89 0.16454072296619415 -0.08035725355148315 -1.263218879699707 0.01759485714137554 0.0 0.0 0.0 0.0
3.891 0.16802741587162018 -0.09593848884105682 -1.2809169292449951 0.01777338981628418 0.0 0.0 0.0 0.0
3.892 0.1625155359506607 -0.11753140389919281 -1.2906663417816162 0.10149404406547546 0.0 0.0 0.0 0.0
3.893 0.18322117626667023 -0.11599556356668472 -1.2737287282943726 0.0930757075548172 0.0 0.0 0.0 0.0
3.894 0.16497482359409332 -0.11728980392217636 -1.2642115354537964 0.1694996953010559 0.0 0.0 0.0 0.0
3.895 0.18749240040779114 -0.13607725501060486 -1.2637577056884766 0.21887539327144623 0.0 0.0 0.0 0.0
3.896 0.19627289474010468 -0.13655400276184082 -1.2563273906707764 0.2392549365758896 0.0 0.0 0.0 0.0
3.897 0.18014271557331085 -0.14928947389125824 -1.2402592897415161 0.3028007447719574 0.0 0.0 0.0 0.0
3.898 0.18091881275177002 -0.1469082236289978 -1.229963779449463 0.31650739908218384 0.0 0.0 0.0 0.0
3.899 0.19754146039485931 -0.14340709149837494 -1.186463713645935 0.3928411900997162 0.0 0.0 0.0 0.0
3.9 0.19203174114227295 -0.14853647351264954 -1.1987875699996948 0.3914678394794464 0.0 0.0 0.0 0.0
3.901 0.20523247122764587 -0.15754783153533936 -1.1594136953353882 0.4475264549255371 0.0 0.0 0.0 0.0
3.902 0.19511044025421143 -0.15975718200206757 -1.1505088806152344 0.4843136966228485 0.0 0.0 0.0 0.0
3.903 0.20804326236248016 -0.18701320886611938 -1.1438311338424683 0.5351977348327637 0.0 0.0 0.0 0.0
3.904 0.1976763904094696 -0.18513090908527374 -1.1309921741485596 0.5344146490097046 0.0 0.0 0.0 0.0
3.905 0.2119389772415161 -0.1777883768081665 -1.0985602140426636 0.5874000191688538 0.0 0.0 0.0 0.0
3.906 0.1793471723794937 -0.20093950629234314 -1.0719224214553833 0.6414867043495178 0.0 0.0 0.0 0.0
3.907 0.20158089697360992 -0.21619153022766113 -1.0520613193511963 0.6838662028312683 0.0 0.0 0.0 0.0
3.908 0.20063184201717377 -0.18893960118293762 -1.011710286140442 0.7033886909484863 0.0 0.0 0.0 0.0
3.909 0.20055313408374786 -0.198126420378685 -1.0113977193832397 0.7172585129737854 0.0 0.0 0.0 0.0
3.91 0.1907423585653305 -0.22177401185035706 -0.9608714580535889 0.7751806378364563 0.0 0.0 0.0 0.0
3.911 0.19480839371681213 -0.20512643456459045 -0.9553388953208923 0.7878276109695435 0.0 0.0 0.0 0.0
3.912 0.17940130829811096 -0.21015335619449615 -0.8800715208053589 0.8467743396759033 0.0 0.0 0.0 0.0
3.913 0.18783558905124664 -0.22337763011455536 -0.900039553642273 0.832155168056488 0.0 0.0 0.0 0.0
3.914 0.17808066308498383 -0.23890654742717743 -0.8469321727752686 0.9008115530014038 0.0 0.0 0.0 0.0
3.915 0.17682895064353943 -0.2457568198442459 -0.84453946352005 0.9036806225776672 0.0 0.0 0.0 0.0
3.916 0.18790094554424286 -0.23048682510852814 -0.777053713798523 0.9353533983230591 0.0 0.0 0.0 0.0
3.917 0.1613861620426178 -0.22958743572235107 -0.7484870553016663 0.9653610587120056 0.0 0.0 0.0 0.0
3.918 0.14939750730991364 -0.24309617280960083 -0.7104926109313965 1.0141912698745728 0.0 0.0 0.0 0.0
3.919 0.16865555942058563 -0.23046040534973145 -0.6945650577545166 0.9909136295318604 0.0 0.0 0.0 0.0
3.92 0.14633120596408844 -0.23522676527500153 -0.6476882100105286 1.03557550907135 0.0 0.0 0.0 0.0
3.921 0.14519697427749634 -0.23831988871097565 -0.6042641997337341 1.0577195882797241 0.0 0.0 0.0 0.0
3.922 0.16897667944431305 -0.2614666521549225 -0.6044027805328369 1.0810320377349854 0.0 0.0 0.0 0.0
3.923 0.13410630822181702 -0.2548912465572357 -0.5308170318603516 1.1055065393447876 0.0 0.0 0.0 0.0
3.924 0.16577944159507751 -0.2591564655303955 -0.5386080741882324 1.1137436628341675 0.0 0.0 0.0 0.0
3.925 0.12623754143714905 -0.2617674767971039 -0.438763290643692 1.1520649194717407 0.0 0.0 0.0 0.0
3.926 0.1357126533985138 -0.2527921497821808 -0.44416090846061707 1.140420913696289 0.0 0.0 0.0 0.0
3.927 0.13856858015060425 -0.27075624465942383 -0.37618279457092285 1.1738183498382568 0.0 0.0 0.0 0.0
3.928 0.1341032236814499 -0.24929232895374298 -0.3612177073955536 1.166757583618164 0.0 0.0 0.0 0.0
3.929 0.11884038150310516 -0.2659169137477875 -0.27917051315307617 1.205568552017212 0.0 0.0 0.0 0.0
3.93 0.11841799318790436 -0.254935085773468 -0.26769113540649414 1.1992080211639404 0.0 0.0 0.0 0.0
3.931 0.12036790698766708 -0.24855494499206543 -0.21748536825180054 1.2067500352859497 0.0 0.0 0.0 0.0
3.932 0.11771512776613235 -0.26648080348968506 -0.20473219454288483 1.2043339014053345 0.0 0.0 0.0 0.0
3.933 0.137224018573761 -0.261573851108551 -0.16032427549362183 1.2244285345077515 0.0 0.0 0.0 0.0
3.934 0.11265619844198227 -0.25825950503349304 -0.07492546737194061 1.215213418006897 0.0 0.0 0.0 0.0
3.935 0.11180228739976883 -0.25976407527923584 -0.06938407570123672 1.2318733930587769 0.0 0.0 0.0 0.0
3.936 0.11925478279590607 -0.2537096440792084 -0.017026327550411224 1.2095434665679932 0.0 0.0 0.0 0.0
3.937 0.11950626224279404 -0.2583288848400116 0.011162161827087402 1.2253979444503784 0.0 0.0 0.0 0.0
3.938 0.10349863022565842 -0.25872817635536194 0.10432922840118408 1.2262179851531982 0.0 0.0 0.0 0.0
3.939 0.11784180253744125 -0.24755482375621796 0.09445641934871674 1.2192250490188599 0.0 0.0 0.0 0.0
3.94 0.1342046558856964 -0.26802167296409607 0.15605071187019348 1.2350283861160278 0.0 0.0 0.0 0.0
3.941 0.10862968862056732 -0.2760508954524994 0.1799657791852951 1.2276862859725952 0.0 0.0 0.0 0.0
3.942 0.09089469909667969 -0.2718636691570282 0.2706650197505951 1.2141332626342773 0.0 0.0 0.0 0.0
3.943 0.10806935280561447 -0.2756020426750183 0.277047723531723 1.2091660499572754 0.0 0.0 0.0 0.0
3.944 0.10852287709712982 -0.27882397174835205 0.3142334222793579 1.2085387706756592 0.0 0.0 0.0 0.0
3.945 0.09453041106462479 -0.2577170133590698 0.40257421135902405 1.151745319366455 0.0 0.0 0.0 0.0
3.946 0.10513950884342194 -0.2568439245223999 0.39045795798301697 1.1674964427947998 0.0 0.0 0.0 0.0
3.947 0.11925259232521057 -0.26351460814476013 0.4534052014350891 1.149038314819336 0.0 0.0 0.0 0.0
3.948 0.10658463090658188 -0.2584206163883209 0.48915955424308777 1.1281708478927612 0.0 0.0 0.0 0.0
3.949 0.11952590942382812 -0.27108654379844666 0.5339347720146179 1.1189887523651123 0.0 0.0 0.0 0.0
3.95 0.10012102127075195 -0.2676737308502197 0.5663664937019348 1.1069270372390747 0.0 0.0 0.0 0.0
3.951 0.10021132230758667 -0.26131966710090637 0.6184379458427429 1.0683999061584473 0.0 0.0 0.0 0.0
3.952 0.10941806435585022 -0.28267815709114075 0.6488747000694275 1.0611622333526611 0.0 0.0 0.0 0.0
3.953 0.13058267533779144 -0.2737106382846832 0.6967499852180481 1.0389546155929565 0.0 0.0 0.0 0.0
3.954 0.097373366355896 -0.2699950635433197 0.7228823900222778 0.9911632537841797 0.0 0.0 0.0 0.0
3.955 0.11769938468933105 -0.2887711822986603 0.7686817646026611 0.9831904172897339 0.0 0.0 0.0 0.0
3.956 0.12631063163280487 -0.27274253964424133 0.7777736783027649 0.952569842338562 0.0 0.0 0.0 0.0
3.957 0.10121331363916397 -0.2747665047645569 0.8350155353546143 0.9125537276268005 0.0 0.0 0.0 0.0
3.958 0.11856836825609207 -0.2886035740375519 0.8673458695411682 0.8900524377822876 0.0 0.0 0.0 0.0
3.959 0.12769544124603271 -0.2759762406349182 0.8743950128555298 0.8657082915306091 0.0 0.0 0.0 0.0
3.96 0.10433152318000793 -0.2897794544696808 0.940263569355011 0.8061418533325195 0.0 0.0 0.0 0.0
3.961 0.1294717788696289 -0.2885771095752716 0.9313333630561829 0.8097054362297058 0.0 0.0 0.0 0.0
3.962 0.12385687977075577 -0.2776191532611847 0.964418888092041 0.7404897809028625 0.0 0.0 0.0 0.0
3.963 0.11543651670217514 -0.2969426214694977 0.9965744614601135 0.7331357002258301 0.0 0.0 0.0 0.0
3.964 0.1273052841424942 -0.29601556062698364 1.0215113162994385 0.6636307239532471 0.0 0.0 0.0 0.0
3.965 0.11787919700145721 -0.2890044152736664 1.0258703231811523 0.6386349201202393 0.0 0.0 0.0 0.0
3.966 0.12390177696943283 -0.31327199935913086 1.078980803489685 0.6036841869354248 0.0 0.0 0.0 0.0
3.967 0.1231040358543396 -0.29790952801704407 1.0577069520950317 0.571018636226654 0.0 0.0 0.0 0.0
3.968 0.13304150104522705 -0.31234416365623474 1.1052131652832031 0.528807520866394 0.0 0.0 0.0 0.0
3.969 0.1209615096449852 -0.3217751979827881 1.1173616647720337 0.48967069387435913 0.0 0.0 0.0 0.0
3.97 0.12744109332561493 -0.30461153388023376 1.1157253980636597 0.45447102189064026 0.0 0.0 0.0 0.0
3.971 0.10008574277162552 -0.3142777383327484 1.1394578218460083 0.3750993609428406 0.0 0.0 0.0 0.0
3.972 0.125747412443161 -0.3306255638599396 1.1576886177062988 0.3750903308391571 0.0 0.0 0.0 0.0
3.973 0.1077614352107048 -0.31973835825920105 1.1494390964508057 0.30272427201271057 0.0 0.0 0.0 0.0
3.974 0.10366634279489517 -0.3248024582862854 1.1621458530426025 0.28317990899086 0.0 0.0 0.0 0.0
3.975 0.1134454756975174 -0.3369675278663635 1.1713898181915283 0.23363028466701508 0.0 0.0 0.0 0.0
3.976 0.10310319066047668 -0.33207815885543823 1.167123556137085 0.20472142100334167 0.0 0.0 0.0 0.0
3.977 0.08112159371376038 -0.35073667764663696 1.1921943426132202 0.11991091072559357 0.0 0.0 0.0 0.0
3.978 0.10515754669904709 -0.34617942571640015 1.1768680810928345 0.11942452937364578 0.0 0.0 0.0 0.0
3.979 0.09402099996805191 -0.337004691362381 1.1774548292160034 0.06736481934785843 0.0 0.0 0.0 0.0
3.98 0.07006879150867462 -0.34911686182022095 1.1737098693847656 0.012230993248522282 0.0 0.0 0.0 0.0
3.981 0.10210277140140533 -0.3671831488609314 1.1937302350997925 0.0021138712763786316 0.0 0.0 0.0 0.0
3.982 0.07224956899881363 -0.3560594320297241 1.1661970615386963 -0.0679754987359047 0.0 0.0 0.0 0.0
3.983 0.06892723590135574 -0.3573056161403656 1.170844316482544 -0.08813777565956116 0.0 0.0 0.0 0.0
3.984 0.07482018321752548 -0.3665894567966461 1.151317834854126 -0.13565772771835327 0.0 0.0 0.0 0.0
3.985 0.058849088847637177 -0.36348438262939453 1.1447420120239258 -0.17158697545528412 0.0 0.0 0.0 0.0
3.986 0.0415276400744915 -0.3839477598667145 1.1477981805801392 -0.24747630953788757 0.0 0.0 0.0 0.0
3.987 0.05842341110110283 -0.3757084012031555 1.1304744482040405 -0.24219052493572235 0.0 0.0 0.0 0.0
3.988 0.03618423640727997 -0.3700205385684967 1.1091728210449219 -0.3062453269958496 0.0 0.0 0.0 0.0
3.989 0.03015580214560032 -0.3951725661754608 1.119053602218628 -0.3270322382450104 0.0 0.0 0.0 0.0
3.99 0.04789917171001434 -0.3758111596107483 1.0892146825790405 -0.35916730761528015 0.0 0.0 0.0 0.0
3.991 0.013946054503321648 -0.38912031054496765 1.0745623111724854 -0.41162532567977905 0.0 0.0 0.0 0.0
3.992 0.014826856553554535 -0.3751325011253357 1.0534647703170776 -0.4441432058811188 0.0 0.0 0.0 0.0
3.993 0.007602357305586338 -0.3844229280948639 1.0347670316696167 -0.4695564806461334 0.0 0.0 0.0 0.0
3.994 -0.003369351848959923 -0.3860909044742584 1.0236091613769531 -0.5141394734382629 0.0 0.0 0.0 0.0
3.995 -0.019677167758345604 -0.3912883698940277 0.993087887763977 -0.5696503520011902 0.0 0.0 0.0 0.0
3.996 -0.01626703515648842 -0.4032772183418274 1.0017390251159668 -0.5741738677024841 0.0 0.0 0.0 0.0
3.997 -0.004742209799587727 -0.4028148055076599 0.9745891690254211 -0.5867979526519775 0.0 0.0 0.0 0.0
3.998 -0.02236616425216198 -0.3906354010105133 0.9377279281616211 -0.6296944618225098 0.0 0.0 0.0 0.0
3.999 -0.043975308537483215 -0.38156986236572266 0.9065869450569153 -0.6820282340049744 0.0 0.0 0.0 0.0
4.0 -0.0348893441259861 -0.38414856791496277 0.8962822556495667 -0.673446536064148 0.0 0.0 0.0 0.0
