!Created with skrf (http://scikit-rf.org).
# GHz S RI R 50.0 
!freq ReS11 ImS11 ReS21 ImS21 ReS12 ImS12 ReS22 ImS22
0.001 -0.13835762441158295 0.014654895290732384 1.2136518955230713 -0.14433743059635162 0.0 0.0 0.0 0.0
0.002 -0.07993554323911667 0.12999983131885529 1.0728676319122314 -0.27874231338500977 0.0 0.0 0.0 0.0
0.003 -0.03195968270301819 0.20097564160823822 0.9818258285522461 -0.3642330765724182 0.0 0.0 0.0 0.0
0.004 0.01923719234764576 0.25379678606987 0.9035574197769165 -0.42823949456214905 0.0 0.0 0.0 0.0
0.005 0.07340075820684433 0.29423654079437256 0.833601713180542 -0.47983062267303467 0.0 0.0 0.0 0.0
0.006 0.12954771518707275 0.3235514163970947 0.7672008872032166 -0.5234774947166443 0.0 0.0 0.0 0.0
0.007 0.18693749606609344 0.3443661332130432 0.703249990940094 -0.5609317421913147 0.0 0.0 0.0 0.0
0.008 0.24546422064304352 0.3564233183860779 0.6400374174118042 -0.5922086834907532 0.0 0.0 0.0 0.0
0.009 0.3030153810977936 0.3602203130722046 0.5786069631576538 -0.6181701421737671 0.0 0.0 0.0 0.0
0.01 0.35969308018684387 0.35664770007133484 0.5182346701622009 -0.638293981552124 0.0 0.0 0.0 0.0
0.011 0.41390278935432434 0.34565073251724243 0.4585123360157013 -0.652356743812561 0.0 0.0 0.0 0.0
0.012 0.46623286604881287 0.3287290036678314 0.4004986584186554 -0.6628414988517761 0.0 0.0 0.0 0.0
0.013 0.5150831937789917 0.30549511313438416 0.3441675007343292 -0.6674651503562927 0.0 0.0 0.0 0.0
0.014 0.5603579878807068 0.27777791023254395 0.2904900014400482 -0.6682111620903015 0.0 0.0 0.0 0.0
0.015 0.6017743945121765 0.2460489720106125 0.2395593374967575 -0.664835512638092 0.0 0.0 0.0 0.0
0.016 0.6393504738807678 0.21055208146572113 0.19103455543518066 -0.6581441164016724 0.0 0.0 0.0 0.0
0.017 0.6721077561378479 0.17142647504806519 0.14492714405059814 -0.6478150486946106 0.0 0.0 0.0 0.0
0.018 0.7010255455970764 0.13028191030025482 0.10205400735139847 -0.6352444887161255 0.0 0.0 0.0 0.0
0.019 0.7259410619735718 0.08764010667800903 0.06247791647911072 -0.6205635666847229 0.0 0.0 0.0 0.0
0.02 0.7462068796157837 0.042781371623277664 0.02491138130426407 -0.6039677262306213 0.0 0.0 0.0 0.0
0.021 0.7626667022705078 -0.0025685513392090797 -0.009232575073838234 -0.5856016874313354 0.0 0.0 0.0 0.0
0.022 0.7753793597221375 -0.04824453964829445 -0.04044967517256737 -0.5660944581031799 0.0 0.0 0.0 0.0
0.023 0.7837585806846619 -0.09457844495773315 -0.06917423754930496 -0.545703649520874 0.0 0.0 0.0 0.0
0.024 0.789207935333252 -0.14109161496162415 -0.09590676426887512 -0.524326741695404 0.0 0.0 0.0 0.0
0.025 0.7911006808280945 -0.1874476820230484 -0.12024302035570145 -0.5025936961174011 0.0 0.0 0.0 0.0
0.026 0.7901860475540161 -0.23319587111473083 -0.1418490707874298 -0.4804251194000244 0.0 0.0 0.0 0.0
0.027 0.785930335521698 -0.2780003249645233 -0.16151395440101624 -0.4583163559436798 0.0 0.0 0.0 0.0
0.028 0.7785612940788269 -0.32206398248672485 -0.17907966673374176 -0.4356372654438019 0.0 0.0 0.0 0.0
0.029 0.768807053565979 -0.36542290449142456 -0.19477058947086334 -0.4134101867675781 0.0 0.0 0.0 0.0
0.03 0.7567192316055298 -0.40766921639442444 -0.20836153626441956 -0.3908006250858307 0.0 0.0 0.0 0.0
0.031 0.741563618183136 -0.448054701089859 -0.21994276344776154 -0.3690510392189026 0.0 0.0 0.0 0.0
0.032 0.7249108552932739 -0.4873461425304413 -0.23021438717842102 -0.3477494418621063 0.0 0.0 0.0 0.0
0.033 0.7054884433746338 -0.524955153465271 -0.23951582610607147 -0.3258279263973236 0.0 0.0 0.0 0.0
0.034 0.6854286789894104 -0.5624337792396545 -0.24746626615524292 -0.3050925135612488 0.0 0.0 0.0 0.0
0.035 0.6629384160041809 -0.5979359149932861 -0.2537834048271179 -0.28457579016685486 0.0 0.0 0.0 0.0
0.036 0.6382859945297241 -0.6320074796676636 -0.25051021575927734 -0.26722416281700134 0.0 0.0 0.0 0.0
0.037 0.6122741103172302 -0.6635496020317078 -0.25464755296707153 -0.24773819744586945 0.0 0.0 0.0 0.0
0.038 0.5853331089019775 -0.6945796012878418 -0.25798043608665466 -0.22887606918811798 0.0 0.0 0.0 0.0
0.039 0.5568476319313049 -0.7238587737083435 -0.26025471091270447 -0.2103377878665924 0.0 0.0 0.0 0.0
0.04 0.5271978974342346 -0.7509328722953796 -0.2611015737056732 -0.1922459453344345 0.0 0.0 0.0 0.0
0.041 0.49634116888046265 -0.7767521142959595 -0.26140379905700684 -0.17519722878932953 0.0 0.0 0.0 0.0
0.042 0.46454885601997375 -0.8012475371360779 -0.2607318162918091 -0.1584462970495224 0.0 0.0 0.0 0.0
0.043 0.4321332573890686 -0.8237037062644958 -0.25918424129486084 -0.1422254741191864 0.0 0.0 0.0 0.0
0.044 0.39813610911369324 -0.8439269661903381 -0.25703221559524536 -0.12676851451396942 0.0 0.0 0.0 0.0
0.045 0.36383047699928284 -0.8641302585601807 -0.254288911819458 -0.11178315430879593 0.0 0.0 0.0 0.0
0.046 0.3287830650806427 -0.8809537887573242 -0.2506588399410248 -0.09740840643644333 0.0 0.0 0.0 0.0
0.047 0.2931472361087799 -0.8968018293380737 -0.2465648204088211 -0.08376021683216095 0.0 0.0 0.0 0.0
0.048 0.2575301229953766 -0.9111216068267822 -0.2419320046901703 -0.07075085490942001 0.0 0.0 0.0 0.0
0.049 0.21325813233852386 -0.9327057003974915 -0.23701104521751404 -0.05846245959401131 0.0 0.0 0.0 0.0
0.05 0.17619973421096802 -0.9434830546379089 -0.2315600961446762 -0.046899184584617615 0.0 0.0 0.0 0.0
0.051 0.1387152522802353 -0.9527439475059509 -0.22561179101467133 -0.035592418164014816 0.0 0.0 0.0 0.0
0.052 0.1006731167435646 -0.9599915146827698 -0.21937862038612366 -0.025144819170236588 0.0 0.0 0.0 0.0
0.053 0.0629822388291359 -0.9658505320549011 -0.212747722864151 -0.015431400388479233 0.0 0.0 0.0 0.0
0.054 0.025459250435233116 -0.9701300859451294 -0.20600906014442444 -0.006236466579139233 0.0 0.0 0.0 0.0
0.055 -0.01198718510568142 -0.9720900654792786 -0.19880980253219604 0.002086399123072624 0.0 0.0 0.0 0.0
0.056 -0.04995819553732872 -0.9737054109573364 -0.19081558287143707 0.008374196477234364 0.0 0.0 0.0 0.0
0.057 -0.08743955194950104 -0.9736359119415283 -0.18344838917255402 0.01566479541361332 0.0 0.0 0.0 0.0
0.058 -0.1249895766377449 -0.9705786108970642 -0.17585226893424988 0.022358842194080353 0.0 0.0 0.0 0.0
0.059 -0.16146303713321686 -0.9674835801124573 -0.16824615001678467 0.028384489938616753 0.0 0.0 0.0 0.0
0.06 -0.19887690246105194 -0.9624879360198975 -0.16052772104740143 0.033960554748773575 0.0 0.0 0.0 0.0
0.061 -0.23494912683963776 -0.9563558101654053 -0.15279032289981842 0.0387890562415123 0.0 0.0 0.0 0.0
0.062 -0.27097442746162415 -0.9485136866569519 -0.1450754702091217 0.043052081018686295 0.0 0.0 0.0 0.0
0.063 -0.3061387240886688 -0.9394357800483704 -0.13727574050426483 0.04676492512226105 0.0 0.0 0.0 0.0
0.064 -0.3410065472126007 -0.9288057088851929 -0.12962757050991058 0.04998115450143814 0.0 0.0 0.0 0.0
0.065 -0.3758416473865509 -0.9172368049621582 -0.12207953631877899 0.05283204838633537 0.0 0.0 0.0 0.0
0.066 -0.4092476963996887 -0.9045937061309814 -0.11450369656085968 0.05486799776554108 0.0 0.0 0.0 0.0
0.067 -0.4422648251056671 -0.8893669843673706 -0.10686925798654556 0.05528142675757408 0.0 0.0 0.0 0.0
0.068 -0.47526562213897705 -0.8747815489768982 -0.09965477138757706 0.056596074253320694 0.0 0.0 0.0 0.0
0.069 -0.5070288181304932 -0.8575788736343384 -0.09271562844514847 0.05750856548547745 0.0 0.0 0.0 0.0
0.07 -0.5383971333503723 -0.8404595255851746 -0.08589652180671692 0.05798131972551346 0.0 0.0 0.0 0.0
0.071 -0.5680471658706665 -0.821448802947998 -0.07912921905517578 0.05784527212381363 0.0 0.0 0.0 0.0
0.072 -0.5978029370307922 -0.8009169101715088 -0.0727473571896553 0.05741528049111366 0.0 0.0 0.0 0.0
0.073 -0.6262649893760681 -0.7801623344421387 -0.06649664789438248 0.05656253546476364 0.0 0.0 0.0 0.0
0.074 -0.6537481546401978 -0.7578521370887756 -0.060623571276664734 0.05548856034874916 0.0 0.0 0.0 0.0
0.075 -0.6813154816627502 -0.7357064485549927 -0.05501460283994675 0.05408488214015961 0.0 0.0 0.0 0.0
0.076 -0.7068358659744263 -0.7117753624916077 -0.04953904449939728 0.05232396721839905 0.0 0.0 0.0 0.0
0.077 -0.731196939945221 -0.6872415542602539 -0.044308099895715714 0.05034269392490387 0.0 0.0 0.0 0.0
0.078 -0.7560084462165833 -0.6615492105484009 -0.039374254643917084 0.0479363277554512 0.0 0.0 0.0 0.0
0.079 -0.7782156467437744 -0.6357297301292419 -0.034860529005527496 0.04525693878531456 0.0 0.0 0.0 0.0
0.08 -0.8000335097312927 -0.6088417768478394 -0.03066626563668251 0.04231280833482742 0.0 0.0 0.0 0.0
0.081 -0.8204734921455383 -0.581389844417572 -0.026765964925289154 0.03927526995539665 0.0 0.0 0.0 0.0
0.082 -0.8402026295661926 -0.5531790852546692 -0.02323342114686966 0.03602869063615799 0.0 0.0 0.0 0.0
0.083 -0.8592336773872375 -0.5248051285743713 -0.019974568858742714 0.032788001000881195 0.0 0.0 0.0 0.0
0.084 -0.8763684034347534 -0.4949869215488434 -0.016914181411266327 0.029288705438375473 0.0 0.0 0.0 0.0
0.085 -0.8936094045639038 -0.4650961756706238 -0.014225006103515625 0.02556493692100048 0.0 0.0 0.0 0.0
0.086 -0.9087363481521606 -0.4349369704723358 -0.011922614648938179 0.021787812933325768 0.0 0.0 0.0 0.0
0.087 -0.9229564666748047 -0.40332362055778503 -0.009940816089510918 0.018005669116973877 0.0 0.0 0.0 0.0
0.088 -0.9364186525344849 -0.3719600439071655 -0.008230526000261307 0.014143899083137512 0.0 0.0 0.0 0.0
0.089 -0.9492842555046082 -0.3401772975921631 -0.006794300861656666 0.010140795260667801 0.0 0.0 0.0 0.0
0.09 -0.9601556658744812 -0.30741778016090393 -0.005634082481265068 0.0062136100605130196 0.0 0.0 0.0 0.0
0.091 -0.9703179001808167 -0.27471432089805603 -0.004781731404364109 0.002075357362627983 0.0 0.0 0.0 0.0
0.092 -0.9792582392692566 -0.24138414859771729 -0.0043938737362623215 -0.0021382849663496017 0.0 0.0 0.0 0.0
0.093 -0.9871244430541992 -0.20729507505893707 -0.0042967768386006355 -0.006286518648266792 0.0 0.0 0.0 0.0
0.094 -0.9939742684364319 -0.17332252860069275 -0.004618157632648945 -0.010396131314337254 0.0 0.0 0.0 0.0
0.095 -0.9993329644203186 -0.13957656919956207 -0.005181676708161831 -0.014513391070067883 0.0 0.0 0.0 0.0
0.096 -1.0021802186965942 -0.10489852726459503 -0.006283390335738659 -0.018469782546162605 0.0 0.0 0.0 0.0
0.097 -1.0052121877670288 -0.07077944278717041 -0.007426093332469463 -0.022236663848161697 0.0 0.0 0.0 0.0
0.098 -1.0065702199935913 -0.036169782280921936 -0.009038652293384075 -0.026085440069437027 0.0 0.0 0.0 0.0
0.099 -1.0062288045883179 -0.0012086816132068634 -0.01108510047197342 -0.02964981086552143 0.0 0.0 0.0 0.0
0.1 -1.0142457485198975 0.055874668061733246 -0.014325307682156563 -0.03309463709592819 0.0 0.0 0.0 0.0
0.101 -0.9398127198219299 0.0762624740600586 -0.015785779803991318 -0.0335991233587265 0.0 0.0 0.0 0.0
0.102 -0.9363270998001099 0.10642000287771225 -0.01845860294997692 -0.03561375290155411 0.0 0.0 0.0 0.0
0.103 -0.9325467348098755 0.1363547444343567 -0.020547717809677124 -0.037532683461904526 0.0 0.0 0.0 0.0
0.104 -0.9280348420143127 0.16672441363334656 -0.022820500656962395 -0.03986788168549538 0.0 0.0 0.0 0.0
0.105 -0.922248899936676 0.19659726321697235 -0.025302957743406296 -0.04208831116557121 0.0 0.0 0.0 0.0
0.106 -0.916031002998352 0.2269572913646698 -0.027809521183371544 -0.044123709201812744 0.0 0.0 0.0 0.0
0.107 -0.9083144664764404 0.2574863135814667 -0.030543718487024307 -0.046650152653455734 0.0 0.0 0.0 0.0
0.108 -0.8990697264671326 0.2877224385738373 -0.03398182615637779 -0.04884444922208786 0.0 0.0 0.0 0.0
0.109 -0.8887838125228882 0.31814754009246826 -0.037737637758255005 -0.05065193027257919 0.0 0.0 0.0 0.0
0.11 -0.8777943253517151 0.34711506962776184 -0.04162273183465004 -0.05225253850221634 0.0 0.0 0.0 0.0
0.111 -0.8657519221305847 0.3764429986476898 -0.04579569026827812 -0.05326410010457039 0.0 0.0 0.0 0.0
0.112 -0.8521479368209839 0.4043067991733551 -0.049649566411972046 -0.05377166345715523 0.0 0.0 0.0 0.0
0.113 -0.8381863832473755 0.4327874779701233 -0.053466927260160446 -0.05429878830909729 0.0 0.0 0.0 0.0
0.114 -0.8234813809394836 0.46096980571746826 -0.05729000270366669 -0.05489233136177063 0.0 0.0 0.0 0.0
0.115 -0.8078620433807373 0.4885225296020508 -0.061355143785476685 -0.05545898154377937 0.0 0.0 0.0 0.0
0.116 -0.7908422350883484 0.5156124830245972 -0.06570415943861008 -0.05562809482216835 0.0 0.0 0.0 0.0
0.117 -0.772858738899231 0.5421549081802368 -0.07011730968952179 -0.055455632507801056 0.0 0.0 0.0 0.0
0.118 -0.7537930011749268 0.5682084560394287 -0.07447349280118942 -0.05500129610300064 0.0 0.0 0.0 0.0
0.119 -0.7338890433311462 0.5934351086616516 -0.07894843816757202 -0.05441376194357872 0.0 0.0 0.0 0.0
0.12 -0.7124712467193604 0.6179539561271667 -0.08347093313932419 -0.05355731397867203 0.0 0.0 0.0 0.0
0.121 -0.691033124923706 0.6426233053207397 -0.08824741095304489 -0.052716489881277084 0.0 0.0 0.0 0.0
0.122 -0.6674888730049133 0.6660884618759155 -0.09327985346317291 -0.05110720172524452 0.0 0.0 0.0 0.0
0.123 -0.6434208750724792 0.6882856488227844 -0.09812543541193008 -0.04890714958310127 0.0 0.0 0.0 0.0
0.124 -0.6188252568244934 0.709455132484436 -0.10261257737874985 -0.046528592705726624 0.0 0.0 0.0 0.0
0.125 -0.5931302309036255 0.7302316427230835 -0.10712875425815582 -0.04380831494927406 0.0 0.0 0.0 0.0
0.126 -0.5681086778640747 0.7498579621315002 -0.1112937480211258 -0.040685076266527176 0.0 0.0 0.0 0.0
0.127 -0.5409888029098511 0.7684908509254456 -0.11500512063503265 -0.03771406039595604 0.0 0.0 0.0 0.0
0.128 -0.5146149396896362 0.7864994406700134 -0.11880316585302353 -0.035123635083436966 0.0 0.0 0.0 0.0
0.129 -0.48648178577423096 0.8048673272132874 -0.12300901114940643 -0.031971462070941925 0.0 0.0 0.0 0.0
0.13 -0.45682746171951294 0.8215405344963074 -0.12714453041553497 -0.028592076152563095 0.0 0.0 0.0 0.0
0.131 -0.4271734356880188 0.8364527821540833 -0.1323951929807663 -0.023668913170695305 0.0 0.0 0.0 0.0
0.132 -0.39694899320602417 0.850655734539032 -0.13627108931541443 -0.019300544634461403 0.0 0.0 0.0 0.0
0.133 -0.3665317893028259 0.8636245727539062 -0.13955605030059814 -0.014976887963712215 0.0 0.0 0.0 0.0
0.134 -0.3355594873428345 0.8766219615936279 -0.1429525911808014 -0.010874778032302856 0.0 0.0 0.0 0.0
0.135 -0.3036682605743408 0.8881089091300964 -0.14652757346630096 -0.006493043154478073 0.0 0.0 0.0 0.0
0.136 -0.27082359790802 0.8982989192008972 -0.1499307006597519 -0.0017713988199830055 0.0 0.0 0.0 0.0
0.137 -0.23784354329109192 0.9070242643356323 -0.15328434109687805 0.0033631538972258568 0.0 0.0 0.0 0.0
0.138 -0.20419247448444366 0.9143391251564026 -0.15653380751609802 0.008781428448855877 0.0 0.0 0.0 0.0
0.139 -0.1699923723936081 0.9211021661758423 -0.1596534103155136 0.014475776813924313 0.0 0.0 0.0 0.0
0.14 -0.13557013869285583 0.9257228374481201 -0.16247600317001343 0.020456574857234955 0.0 0.0 0.0 0.0
0.141 -0.10050132125616074 0.9290251731872559 -0.16495345532894135 0.026669904589653015 0.0 0.0 0.0 0.0
0.142 -0.06602227687835693 0.9315910935401917 -0.16740062832832336 0.03301479294896126 0.0 0.0 0.0 0.0
0.143 -0.03132015839219093 0.9327352046966553 -0.16945330798625946 0.03953620791435242 0.0 0.0 0.0 0.0
0.144 0.0040056463330984116 0.9324529767036438 -0.1711544692516327 0.0463174469769001 0.0 0.0 0.0 0.0
0.145 0.038464825600385666 0.9303845763206482 -0.1728287935256958 0.05314524099230766 0.0 0.0 0.0 0.0
0.146 0.07419561594724655 0.9277506470680237 -0.1745101809501648 0.06030776724219322 0.0 0.0 0.0 0.0
0.147 0.10982763022184372 0.9231921434402466 -0.17586982250213623 0.06790535897016525 0.0 0.0 0.0 0.0
0.148 0.14459338784217834 0.9165840744972229 -0.17651626467704773 0.07587824761867523 0.0 0.0 0.0 0.0
0.149 0.17854027450084686 0.9093630909919739 -0.17674966156482697 0.08348728716373444 0.0 0.0 0.0 0.0
0.15 0.21351966261863708 0.9010208249092102 -0.17725419998168945 0.09123028069734573 0.0 0.0 0.0 0.0
0.151 0.24808980524539948 0.8904466032981873 -0.17740827798843384 0.09962966293096542 0.0 0.0 0.0 0.0
0.152 0.2819936275482178 0.878440797328949 -0.17695558071136475 0.10834429413080215 0.0 0.0 0.0 0.0
0.153 0.3151189684867859 0.8648768663406372 -0.17553246021270752 0.11694558709859848 0.0 0.0 0.0 0.0
0.154 0.34715867042541504 0.8512744903564453 -0.17427898943424225 0.12538127601146698 0.0 0.0 0.0 0.0
0.155 0.3797692656517029 0.8351719379425049 -0.1724037528038025 0.13420425355434418 0.0 0.0 0.0 0.0
0.156 0.4106155037879944 0.8180764317512512 -0.16995972394943237 0.14284424483776093 0.0 0.0 0.0 0.0
0.157 0.4417245090007782 0.7996909022331238 -0.1676480919122696 0.15157824754714966 0.0 0.0 0.0 0.0
0.158 0.4723576605319977 0.7800890207290649 -0.16467587649822235 0.1605606973171234 0.0 0.0 0.0 0.0
0.159 0.5013586282730103 0.7589457035064697 -0.16115795075893402 0.1695319265127182 0.0 0.0 0.0 0.0
0.16 0.5290286540985107 0.7369452118873596 -0.1572243571281433 0.17841088771820068 0.0 0.0 0.0 0.0
0.161 0.556382954120636 0.7141660451889038 -0.15275032818317413 0.18734566867351532 0.0 0.0 0.0 0.0
0.162 0.582627534866333 0.689727783203125 -0.14778916537761688 0.19629715383052826 0.0 0.0 0.0 0.0
0.163 0.6077246069908142 0.6643630862236023 -0.1422715187072754 0.20492397248744965 0.0 0.0 0.0 0.0
0.164 0.631283700466156 0.6384098529815674 -0.13618190586566925 0.21349883079528809 0.0 0.0 0.0 0.0
0.165 0.6543034911155701 0.6111796498298645 -0.1298588365316391 0.22197331488132477 0.0 0.0 0.0 0.0
0.166 0.6763961911201477 0.5832182168960571 -0.12295791506767273 0.2303464114665985 0.0 0.0 0.0 0.0
0.167 0.6963182091712952 0.5547360181808472 -0.11575920134782791 0.23817044496536255 0.0 0.0 0.0 0.0
0.168 0.7156266570091248 0.5245118737220764 -0.10815153270959854 0.24605605006217957 0.0 0.0 0.0 0.0
0.169 0.7337111830711365 0.4941136837005615 -0.09979157149791718 0.2541639804840088 0.0 0.0 0.0 0.0
0.17 0.7501696348190308 0.46377554535865784 -0.09127095341682434 0.2617003321647644 0.0 0.0 0.0 0.0
0.171 0.7659897208213806 0.4320458173751831 -0.0822952464222908 0.2690541744232178 0.0 0.0 0.0 0.0
0.172 0.7794041633605957 0.3997175991535187 -0.07276337593793869 0.2763734459877014 0.0 0.0 0.0 0.0
0.173 0.7921002507209778 0.36632367968559265 -0.0623684898018837 0.28366345167160034 0.0 0.0 0.0 0.0
0.174 0.8030067086219788 0.33296945691108704 -0.05145779997110367 0.29049238562583923 0.0 0.0 0.0 0.0
0.175 0.811994731426239 0.299102783203125 -0.03968223184347153 0.2969668507575989 0.0 0.0 0.0 0.0
0.176 0.8189008831977844 0.26401108503341675 -0.02682720683515072 0.3029074966907501 0.0 0.0 0.0 0.0
0.177 0.8240540027618408 0.23131884634494781 -0.013694694265723228 0.3080384433269501 0.0 0.0 0.0 0.0
0.178 0.8276379108428955 0.19808489084243774 0.00014389771968126297 0.3120668828487396 0.0 0.0 0.0 0.0
0.179 0.8296507000923157 0.16600759327411652 0.014022584073245525 0.3154858648777008 0.0 0.0 0.0 0.0
0.18 0.8303444981575012 0.1331690549850464 0.028984224423766136 0.31776970624923706 0.0 0.0 0.0 0.0
0.181 0.8296433091163635 0.1006198301911354 0.04421362280845642 0.31947100162506104 0.0 0.0 0.0 0.0
0.182 0.8271436095237732 0.07062571495771408 0.05951263755559921 0.31904336810112 0.0 0.0 0.0 0.0
0.183 0.82541424036026 0.04138391837477684 0.07380900532007217 0.31766292452812195 0.0 0.0 0.0 0.0
0.184 0.8220366835594177 0.0117772426456213 0.08775050193071365 0.31622424721717834 0.0 0.0 0.0 0.0
0.185 0.8180686831474304 -0.017961250618100166 0.10187982022762299 0.31392529606819153 0.0 0.0 0.0 0.0
0.186 0.8136113882064819 -0.046741072088479996 0.11538779735565186 0.3113185167312622 0.0 0.0 0.0 0.0
0.187 0.807198166847229 -0.0758257582783699 0.1296495944261551 0.3084350824356079 0.0 0.0 0.0 0.0
0.188 0.7989223599433899 -0.10416112095117569 0.14457854628562927 0.3042767643928528 0.0 0.0 0.0 0.0
0.189 0.7899420857429504 -0.12954948842525482 0.15915241837501526 0.29793980717658997 0.0 0.0 0.0 0.0
0.19 0.7816124558448792 -0.15332554280757904 0.17205287516117096 0.28988033533096313 0.0 0.0 0.0 0.0
0.191 0.7742812633514404 -0.1766212433576584 0.1828915774822235 0.2813687026500702 0.0 0.0 0.0 0.0
0.192 0.7676585912704468 -0.1995139867067337 0.19244839251041412 0.27305394411087036 0.0 0.0 0.0 0.0
0.193 0.7617291212081909 -0.2244722694158554 0.20063041150569916 0.265774130821228 0.0 0.0 0.0 0.0
0.194 0.7549035549163818 -0.24921254813671112 0.2085832953453064 0.2590608596801758 0.0 0.0 0.0 0.0
0.195 0.748208224773407 -0.27416932582855225 0.2155018001794815 0.2530296742916107 0.0 0.0 0.0 0.0
0.196 0.7407898306846619 -0.3022397458553314 0.22279565036296844 0.24904213845729828 0.0 0.0 0.0 0.0
0.197 0.7310817241668701 -0.3304898142814636 0.23124904930591583 0.2451469898223877 0.0 0.0 0.0 0.0
0.198 0.719024121761322 -0.35839328169822693 0.24050773680210114 0.24161411821842194 0.0 0.0 0.0 0.0
0.199 0.7056804895401001 -0.38702014088630676 0.2511231303215027 0.23832805454730988 0.0 0.0 0.0 0.0
0.2 0.6886626482009888 -0.4146258533000946 0.26367729902267456 0.23409678041934967 0.0 0.0 0.0 0.0
0.201 0.6704471111297607 -0.4400654137134552 0.2764619290828705 0.22727960348129272 0.0 0.0 0.0 0.0
0.202 0.6521920561790466 -0.4639212489128113 0.28849828243255615 0.2203051596879959 0.0 0.0 0.0 0.0
0.203 0.631591260433197 -0.4881080985069275 0.3015784025192261 0.212349534034729 0.0 0.0 0.0 0.0
0.204 0.6102707386016846 -0.5095729827880859 0.31476128101348877 0.20237579941749573 0.0 0.0 0.0 0.0
0.205 0.5892320275306702 -0.5283043384552002 0.3261147737503052 0.19088031351566315 0.0 0.0 0.0 0.0
0.206 0.5682575106620789 -0.5476627349853516 0.33705204725265503 0.1795378178358078 0.0 0.0 0.0 0.0
0.207 0.5464881658554077 -0.5656635761260986 0.34754687547683716 0.1675746887922287 0.0 0.0 0.0 0.0
0.208 0.5239607095718384 -0.5832244753837585 0.3572935163974762 0.15495961904525757 0.0 0.0 0.0 0.0
0.209 0.5015583038330078 -0.5991000533103943 0.36657506227493286 0.14207005500793457 0.0 0.0 0.0 0.0
0.21 0.47866544127464294 -0.6155279278755188 0.37556374073028564 0.12917745113372803 0.0 0.0 0.0 0.0
0.211 0.45454153418540955 -0.6312321424484253 0.38492587208747864 0.11590827256441116 0.0 0.0 0.0 0.0
0.212 0.4301002025604248 -0.6449642777442932 0.39404618740081787 0.10154082626104355 0.0 0.0 0.0 0.0
0.213 0.40521353483200073 -0.657561719417572 0.4025900363922119 0.08647742122411728 0.0 0.0 0.0 0.0
0.214 0.3788434863090515 -0.668573260307312 0.4111192524433136 0.07016894221305847 0.0 0.0 0.0 0.0
0.215 0.352789044380188 -0.6790388822555542 0.41857168078422546 0.05317683517932892 0.0 0.0 0.0 0.0
0.216 0.32673269510269165 -0.6869046688079834 0.42522963881492615 0.035731229931116104 0.0 0.0 0.0 0.0
0.217 0.3000226616859436 -0.6944888234138489 0.43172264099121094 0.01675422303378582 0.0 0.0 0.0 0.0
0.218 0.2737511396408081 -0.7001229524612427 0.43713951110839844 -0.0032381974160671234 0.0 0.0 0.0 0.0
0.219 0.2480589598417282 -0.7037617564201355 0.4406900703907013 -0.024043342098593712 0.0 0.0 0.0 0.0
0.22 0.22303269803524017 -0.7067911624908447 0.4429318606853485 -0.04505740478634834 0.0 0.0 0.0 0.0
0.221 0.1975616067647934 -0.7082127928733826 0.44440391659736633 -0.06701115518808365 0.0 0.0 0.0 0.0
0.222 0.1731267124414444 -0.7085165977478027 0.44312432408332825 -0.08974088728427887 0.0 0.0 0.0 0.0
0.223 0.15154600143432617 -0.7080753445625305 0.4400840401649475 -0.1111033707857132 0.0 0.0 0.0 0.0
0.224 0.12925036251544952 -0.7076186537742615 0.4358524978160858 -0.1318655163049698 0.0 0.0 0.0 0.0
0.225 0.10697028785943985 -0.7073996663093567 0.4305475950241089 -0.152255579829216 0.0 0.0 0.0 0.0
0.226 0.08528506755828857 -0.7074285745620728 0.42560791969299316 -0.1709153652191162 0.0 0.0 0.0 0.0
0.227 0.06166080757975578 -0.7047263979911804 0.42100536823272705 -0.192042738199234 0.0 0.0 0.0 0.0
0.228 0.04171156883239746 -0.6997509598731995 0.411227285861969 -0.2141171097755432 0.0 0.0 0.0 0.0
0.229 0.024030957370996475 -0.697826087474823 0.4003318250179291 -0.23139885067939758 0.0 0.0 0.0 0.0
0.23 0.0033266711980104446 -0.6962596774101257 0.3909190595149994 -0.24785961210727692 0.0 0.0 0.0 0.0
0.231 -0.017737897112965584 -0.6931212544441223 0.3823181688785553 -0.2652125358581543 0.0 0.0 0.0 0.0
0.232 -0.03953542560338974 -0.6881774067878723 0.3723094165325165 -0.28352007269859314 0.0 0.0 0.0 0.0
0.233 -0.05810672044754028 -0.6828851699829102 0.3587697148323059 -0.3069944977760315 0.0 0.0 0.0 0.0
0.234 -0.07741396129131317 -0.6792598366737366 0.3458009362220764 -0.32128599286079407 0.0 0.0 0.0 0.0
0.235 -0.09792760014533997 -0.6752208471298218 0.33538100123405457 -0.33541929721832275 0.0 0.0 0.0 0.0
0.236 -0.12038873881101608 -0.6694048047065735 0.32468223571777344 -0.35040149092674255 0.0 0.0 0.0 0.0
0.237 -0.1449318528175354 -0.6604991555213928 0.3158920705318451 -0.369341105222702 0.0 0.0 0.0 0.0
0.238 -0.166631817817688 -0.6467775702476501 0.30226898193359375 -0.3906044661998749 0.0 0.0 0.0 0.0
0.239 -0.18548960983753204 -0.6325948238372803 0.28546762466430664 -0.4111136794090271 0.0 0.0 0.0 0.0
0.24 -0.2029314637184143 -0.6149960160255432 0.26558613777160645 -0.4314557909965515 0.0 0.0 0.0 0.0
0.241 -0.21580027043819427 -0.598193883895874 0.2419559508562088 -0.45170602202415466 0.0 0.0 0.0 0.0
0.242 -0.22619269788265228 -0.5807087421417236 0.2154189795255661 -0.4692405164241791 0.0 0.0 0.0 0.0
0.243 -0.23183278739452362 -0.5644151568412781 0.183871328830719 -0.48266345262527466 0.0 0.0 0.0 0.0
0.244 -0.2370091825723648 -0.5536438226699829 0.15467287600040436 -0.48950111865997314 0.0 0.0 0.0 0.0
0.245 -0.24559253454208374 -0.5407699346542358 0.12781327962875366 -0.4982089102268219 0.0 0.0 0.0 0.0
0.246 -0.24886447191238403 -0.5248838663101196 0.0947534367442131 -0.5064210295677185 0.0 0.0 0.0 0.0
0.247 -0.24588823318481445 -0.5136123299598694 0.05759527534246445 -0.5074740052223206 0.0 0.0 0.0 0.0
0.248 -0.24492871761322021 -0.5094172358512878 0.025278365239501 -0.5004144310951233 0.0 0.0 0.0 0.0
0.249 -0.24768415093421936 -0.5048686265945435 -0.002603287808597088 -0.4944424331188202 0.0 0.0 0.0 0.0
0.25 -0.24789275228977203 -0.5005723834037781 -0.03297562524676323 -0.4864000380039215 0.0 0.0 0.0 0.0
0.251 -0.24848122894763947 -0.5007844567298889 -0.06023754924535751 -0.4729903042316437 0.0 0.0 0.0 0.0
0.252 -0.2530005872249603 -0.5011579394340515 -0.08323623985052109 -0.4603999853134155 0.0 0.0 0.0 0.0
0.253 -0.2568955421447754 -0.5003033876419067 -0.10627325624227524 -0.44701531529426575 0.0 0.0 0.0 0.0
0.254 -0.25958919525146484 -0.5001617670059204 -0.13054713606834412 -0.4317634105682373 0.0 0.0 0.0 0.0
0.255 -0.261635959148407 -0.5039077401161194 -0.15360227227210999 -0.4124048352241516 0.0 0.0 0.0 0.0
0.256 -0.2661541700363159 -0.5116829872131348 -0.1718616783618927 -0.3885442316532135 0.0 0.0 0.0 0.0
0.257 -0.27652254700660706 -0.5202246308326721 -0.18287920951843262 -0.3652207553386688 0.0 0.0 0.0 0.0
0.258 -0.286010205745697 -0.5241104960441589 -0.19545520842075348 -0.3457771837711334 0.0 0.0 0.0 0.0
0.259 -0.2936578392982483 -0.5330581068992615 -0.20785146951675415 -0.3197707533836365 0.0 0.0 0.0 0.0
0.26 -0.30962178111076355 -0.548270583152771 -0.20974351465702057 -0.2898067235946655 0.0 0.0 0.0 0.0
0.261 -0.3347518742084503 -0.5591252446174622 -0.20316839218139648 -0.2680176794528961 0.0 0.0 0.0 0.0
0.262 -0.3600770831108093 -0.5618419647216797 -0.19769874215126038 -0.25333231687545776 0.0 0.0 0.0 0.0
0.263 -0.38498762249946594 -0.5632404088973999 -0.19377543032169342 -0.23851576447486877 0.0 0.0 0.0 0.0
0.264 -0.41094568371772766 -0.5643603205680847 -0.18720941245555878 -0.22442488372325897 0.0 0.0 0.0 0.0
0.265 -0.43995973467826843 -0.5614551305770874 -0.17956948280334473 -0.21425533294677734 0.0 0.0 0.0 0.0
0.266 -0.4678434133529663 -0.5552254319190979 -0.17243658006191254 -0.2068803459405899 0.0 0.0 0.0 0.0
0.267 -0.4962857663631439 -0.5491927266120911 -0.16565397381782532 -0.19918254017829895 0.0 0.0 0.0 0.0
0.268 -0.5278642773628235 -0.5397403240203857 -0.1558152735233307 -0.1956665813922882 0.0 0.0 0.0 0.0
0.269 -0.5595748424530029 -0.5250221490859985 -0.14657415449619293 -0.1959645301103592 0.0 0.0 0.0 0.0
0.27 -0.5894932746887207 -0.5063493847846985 -0.13994941115379333 -0.19892071187496185 0.0 0.0 0.0 0.0
0.271 -0.6185725331306458 -0.4835854172706604 -0.13539573550224304 -0.2055361270904541 0.0 0.0 0.0 0.0
0.272 -0.644501805305481 -0.4571138024330139 -0.1350962072610855 -0.2133888155221939 0.0 0.0 0.0 0.0
0.273 -0.6654403805732727 -0.4288521409034729 -0.13845141232013702 -0.2198891043663025 0.0 0.0 0.0 0.0
0.274 -0.6833035349845886 -0.4005773961544037 -0.14341795444488525 -0.22606267035007477 0.0 0.0 0.0 0.0
0.275 -0.7003633975982666 -0.3716300427913666 -0.14966778457164764 -0.23092003166675568 0.0 0.0 0.0 0.0
0.276 -0.7146130800247192 -0.34176620841026306 -0.15731342136859894 -0.2364608198404312 0.0 0.0 0.0 0.0
0.277 -0.7250543832778931 -0.3098198175430298 -0.16854920983314514 -0.2410568743944168 0.0 0.0 0.0 0.0
0.278 -0.7314760684967041 -0.2800730764865875 -0.18190500140190125 -0.2417100965976715 0.0 0.0 0.0 0.0
0.279 -0.7366817593574524 -0.2533411383628845 -0.19404134154319763 -0.23960758745670319 0.0 0.0 0.0 0.0
0.28 -0.7427769899368286 -0.22678454220294952 -0.20501656830310822 -0.23706014454364777 0.0 0.0 0.0 0.0
0.281 -0.7456194758415222 -0.1993826925754547 -0.21761947870254517 -0.23294773697853088 0.0 0.0 0.0 0.0
0.282 -0.747635543346405 -0.17559058964252472 -0.22908799350261688 -0.2265758216381073 0.0 0.0 0.0 0.0
0.283 -0.7493184208869934 -0.15236251056194305 -0.23923471570014954 -0.21782517433166504 0.0 0.0 0.0 0.0
0.284 -0.7527529001235962 -0.13228560984134674 -0.2461169809103012 -0.20820534229278564 0.0 0.0 0.0 0.0
0.285 -0.7603051066398621 -0.11067821830511093 -0.24899041652679443 -0.20097213983535767 0.0 0.0 0.0 0.0
0.286 -0.7679000496864319 -0.08364305645227432 -0.2530495524406433 -0.19820304214954376 0.0 0.0 0.0 0.0
0.287 -0.7728192806243896 -0.05527220666408539 -0.2589159309864044 -0.19576729834079742 0.0 0.0 0.0 0.0
0.288 -0.775760293006897 -0.023857481777668 -0.26690661907196045 -0.19518600404262543 0.0 0.0 0.0 0.0
0.289 -0.7722727656364441 0.008885971270501614 -0.2791418135166168 -0.1923358291387558 0.0 0.0 0.0 0.0
0.29 -0.7647260427474976 0.038967519998550415 -0.2933100759983063 -0.1866513192653656 0.0 0.0 0.0 0.0
0.291 -0.7557716369628906 0.06362541764974594 -0.30574673414230347 -0.1752023845911026 0.0 0.0 0.0 0.0
0.292 -0.749721109867096 0.08504854887723923 -0.3136838972568512 -0.16271552443504333 0.0 0.0 0.0 0.0
0.293 -0.7464919090270996 0.10768190771341324 -0.31887301802635193 -0.15227094292640686 0.0 0.0 0.0 0.0
0.294 -0.7431262135505676 0.13312774896621704 -0.32399430871009827 -0.14464524388313293 0.0 0.0 0.0 0.0
0.295 -0.7366262674331665 0.1615082025527954 -0.3316728174686432 -0.13772912323474884 0.0 0.0 0.0 0.0
0.296 -0.7272765636444092 0.18881843984127045 -0.34073561429977417 -0.1299886554479599 0.0 0.0 0.0 0.0
0.297 -0.7139790654182434 0.21365328133106232 -0.3515300452709198 -0.11902755498886108 0.0 0.0 0.0 0.0
0.298 -0.7024672031402588 0.23449984192848206 -0.3580767810344696 -0.105184406042099 0.0 0.0 0.0 0.0
0.299 -0.6926619410514832 0.2575615346431732 -0.3628501296043396 -0.09381791949272156 0.0 0.0 0.0 0.0
0.3 -0.6822382807731628 0.2820165157318115 -0.3684317171573639 -0.08409389108419418 0.0 0.0 0.0 0.0
0.301 -0.6686206459999084 0.30685052275657654 -0.3752240240573883 -0.07437223196029663 0.0 0.0 0.0 0.0
0.302 -0.6526967287063599 0.3312525451183319 -0.3833191394805908 -0.0638480857014656 0.0 0.0 0.0 0.0
0.303 -0.632352352142334 0.3542656898498535 -0.3932703137397766 -0.050127577036619186 0.0 0.0 0.0 0.0
0.304 -0.6127195954322815 0.3715716302394867 -0.4005250036716461 -0.03314896300435066 0.0 0.0 0.0 0.0
0.305 -0.5948887467384338 0.38824790716171265 -0.4043453633785248 -0.01637817919254303 0.0 0.0 0.0 0.0
0.306 -0.5776587724685669 0.4066953957080841 -0.40785688161849976 -0.0021399427205324173 0.0 0.0 0.0 0.0
0.307 -0.5573987364768982 0.42387068271636963 -0.41279733180999756 0.013507128693163395 0.0 0.0 0.0 0.0
0.308 -0.5369793772697449 0.4384571313858032 -0.415910542011261 0.03141046687960625 0.0 0.0 0.0 0.0
0.309 -0.5175611972808838 0.4510924518108368 -0.416752427816391 0.04908496141433716 0.0 0.0 0.0 0.0
0.31 -0.49875617027282715 0.46489429473876953 -0.41733670234680176 0.06563173234462738 0.0 0.0 0.0 0.0
0.311 -0.4796561300754547 0.47751158475875854 -0.4164481461048126 0.08241842687129974 0.0 0.0 0.0 0.0
0.312 -0.4610687792301178 0.49401670694351196 -0.41539838910102844 0.09592751413583755 0.0 0.0 0.0 0.0
0.313 -0.43644461035728455 0.5102300047874451 -0.41935089230537415 0.10905040800571442 0.0 0.0 0.0 0.0
0.314 -0.40708720684051514 0.5203394889831543 -0.4241145849227905 0.1287994682788849 0.0 0.0 0.0 0.0
0.315 -0.37905803322792053 0.5248211026191711 -0.42558926343917847 0.15228617191314697 0.0 0.0 0.0 0.0
0.316 -0.3545983135700226 0.5244792699813843 -0.421976238489151 0.1778452843427658 0.0 0.0 0.0 0.0
0.317 -0.33685415983200073 0.5226902365684509 -0.4115268588066101 0.20131202042102814 0.0 0.0 0.0 0.0
0.318 -0.3221842646598816 0.5259433388710022 -0.40005531907081604 0.21920907497406006 0.0 0.0 0.0 0.0
0.319 -0.3051663637161255 0.5340403914451599 -0.3915451169013977 0.23310449719429016 0.0 0.0 0.0 0.0
0.32 -0.2831069231033325 0.5409489274024963 -0.3859128952026367 0.24861852824687958 0.0 0.0 0.0 0.0
0.321 -0.26072511076927185 0.5442015528678894 -0.37926650047302246 0.2661502957344055 0.0 0.0 0.0 0.0
0.322 -0.23554864525794983 0.5462045669555664 -0.37363412976264954 0.2849005162715912 0.0 0.0 0.0 0.0
0.323 -0.21156395971775055 0.5421718955039978 -0.36512693762779236 0.3071940541267395 0.0 0.0 0.0 0.0
0.324 -0.19263233244419098 0.5353245139122009 -0.351461261510849 0.3295365869998932 0.0 0.0 0.0 0.0
0.325 -0.1775486022233963 0.5312126278877258 -0.3350646197795868 0.3480934500694275 0.0 0.0 0.0 0.0
0.326 -0.16122941672801971 0.5283774137496948 -0.3193683922290802 0.36447277665138245 0.0 0.0 0.0 0.0
0.327 -0.1435818076133728 0.5254120230674744 -0.30457034707069397 0.38083532452583313 0.0 0.0 0.0 0.0
0.328 -0.1257019340991974 0.5180149078369141 -0.2884065806865692 0.3997657597064972 0.0 0.0 0.0 0.0
0.329 -0.11370529979467392 0.5089200735092163 -0.2665729522705078 0.41790735721588135 0.0 0.0 0.0 0.0
0.33 -0.10229381173849106 0.5055989027023315 -0.24513213336467743 0.42991092801094055 0.0 0.0 0.0 0.0
0.331 -0.08507346361875534 0.5003564953804016 -0.22849206626415253 0.4448852837085724 0.0 0.0 0.0 0.0
0.332 -0.07127093523740768 0.4850906431674957 -0.20597054064273834 0.4655756652355194 0.0 0.0 0.0 0.0
0.333 -0.06923097372055054 0.47091981768608093 -0.1730654388666153 0.48158374428749084 0.0 0.0 0.0 0.0
0.334 -0.06792110204696655 0.46353408694267273 -0.14079903066158295 0.49063587188720703 0.0 0.0 0.0 0.0
0.335 -0.07032154500484467 0.4543236196041107 -0.10465781390666962 0.499080628156662 0.0 0.0 0.0 0.0
0.336 -0.08046028763055801 0.45306396484375 -0.06479126960039139 0.4972338378429413 0.0 0.0 0.0 0.0
0.337 -0.08783842623233795 0.4627109169960022 -0.029592938721179962 0.48564413189888 0.0 0.0 0.0 0.0
0.338 -0.08764918893575668 0.4775853455066681 -0.002035648562014103 0.4706830680370331 0.0 0.0 0.0 0.0
0.339 -0.08219046890735626 0.4942440688610077 0.020225947722792625 0.4544379413127899 0.0 0.0 0.0 0.0
0.34 -0.07018356025218964 0.5103358626365662 0.0360216461122036 0.43910253047943115 0.0 0.0 0.0 0.0
0.341 -0.051814526319503784 0.522083580493927 0.04783400893211365 0.4282814860343933 0.0 0.0 0.0 0.0
0.342 -0.033005502074956894 0.526924729347229 0.06166410818696022 0.4234362244606018 0.0 0.0 0.0 0.0
0.343 -0.019637158140540123 0.5306369662284851 0.07858803123235703 0.4160109758377075 0.0 0.0 0.0 0.0
0.344 -0.004823627881705761 0.5349204540252686 0.09575444459915161 0.4077487885951996 0.0 0.0 0.0 0.0
0.345 0.007794770412147045 0.5386263132095337 0.11477213352918625 0.39813682436943054 0.0 0.0 0.0 0.0
0.346 0.020359493792057037 0.544248104095459 0.1312810480594635 0.3853546679019928 0.0 0.0 0.0 0.0
0.347 0.03329093009233475 0.55045485496521 0.14808645844459534 0.371845006942749 0.0 0.0 0.0 0.0
0.348 0.04868520423769951 0.559316873550415 0.1621977537870407 0.35482656955718994 0.0 0.0 0.0 0.0
0.349 0.06666881591081619 0.5675025582313538 0.17264129221439362 0.33817997574806213 0.0 0.0 0.0 0.0
0.35 0.08472844213247299 0.5741861462593079 0.18323089182376862 0.3219588100910187 0.0 0.0 0.0 0.0
0.351 0.10522650927305222 0.584296464920044 0.19004280865192413 0.30226537585258484 0.0 0.0 0.0 0.0
0.352 0.13221532106399536 0.5915961861610413 0.19119630753993988 0.28534889221191406 0.0 0.0 0.0 0.0
0.353 0.1609344482421875 0.5939084887504578 0.1913907825946808 0.2729931175708771 0.0 0.0 0.0 0.0
0.354 0.18787381052970886 0.5912936925888062 0.1934947371482849 0.2637655735015869 0.0 0.0 0.0 0.0
0.355 0.21380342543125153 0.5890666246414185 0.19625385105609894 0.2529773414134979 0.0 0.0 0.0 0.0
0.356 0.2424904704093933 0.5848833918571472 0.19674474000930786 0.24355004727840424 0.0 0.0 0.0 0.0
0.357 0.2693699300289154 0.5759361982345581 0.19731149077415466 0.23789556324481964 0.0 0.0 0.0 0.0
0.358 0.2941989600658417 0.56218022108078 0.20257851481437683 0.23427443206310272 0.0 0.0 0.0 0.0
0.359 0.31321999430656433 0.5485683083534241 0.21141783893108368 0.22918272018432617 0.0 0.0 0.0 0.0
0.36 0.32674384117126465 0.5390259027481079 0.2242685705423355 0.2183857560157776 0.0 0.0 0.0 0.0
0.361 0.3406704366207123 0.5338733792304993 0.23284001648426056 0.20059515535831451 0.0 0.0 0.0 0.0
0.362 0.3593425452709198 0.5334239602088928 0.23522287607192993 0.18029837310314178 0.0 0.0 0.0 0.0
0.363 0.38545364141464233 0.5312098264694214 0.23003119230270386 0.16352152824401855 0.0 0.0 0.0 0.0
0.364 0.4127795696258545 0.5207828283309937 0.2255992740392685 0.1533498615026474 0.0 0.0 0.0 0.0
0.365 0.4352829158306122 0.5097586512565613 0.22468720376491547 0.14251895248889923 0.0 0.0 0.0 0.0
0.366 0.4599407911300659 0.502534806728363 0.2197551280260086 0.12856535613536835 0.0 0.0 0.0 0.0
0.367 0.4881027042865753 0.490543395280838 0.21103166043758392 0.11916790902614594 0.0 0.0 0.0 0.0
0.368 0.5160437226295471 0.4742497503757477 0.20316356420516968 0.11354294419288635 0.0 0.0 0.0 0.0
0.369 0.5421954393386841 0.45441824197769165 0.197488933801651 0.11019715666770935 0.0 0.0 0.0 0.0
0.37 0.5653590559959412 0.43511441349983215 0.19256873428821564 0.10702528059482574 0.0 0.0 0.0 0.0
0.371 0.5888432860374451 0.41354289650917053 0.18741531670093536 0.10435324162244797 0.0 0.0 0.0 0.0
0.372 0.6118713617324829 0.3882792294025421 0.1832560896873474 0.1042209267616272 0.0 0.0 0.0 0.0
0.373 0.6311816573143005 0.3617691397666931 0.18192800879478455 0.10486195236444473 0.0 0.0 0.0 0.0
0.374 0.6466293931007385 0.3364393711090088 0.182301327586174 0.10341811925172806 0.0 0.0 0.0 0.0
0.375 0.6615244150161743 0.31103426218032837 0.18270628154277802 0.1002982035279274 0.0 0.0 0.0 0.0
0.376 0.6774340867996216 0.2871246933937073 0.18027201294898987 0.09703312069177628 0.0 0.0 0.0 0.0
0.377 0.6946503520011902 0.26009225845336914 0.17743289470672607 0.09728308767080307 0.0 0.0 0.0 0.0
0.378 0.707608699798584 0.23053792119026184 0.17794786393642426 0.09914375096559525 0.0 0.0 0.0 0.0
0.379 0.717011570930481 0.2012225091457367 0.18066827952861786 0.0987943559885025 0.0 0.0 0.0 0.0
0.38 0.7246873378753662 0.1725727915763855 0.1821247637271881 0.09762124717235565 0.0 0.0 0.0 0.0
0.381 0.7317006587982178 0.14579831063747406 0.1839483380317688 0.09417315572500229 0.0 0.0 0.0 0.0
0.382 0.7384918928146362 0.12007471174001694 0.18564052879810333 0.08999103307723999 0.0 0.0 0.0 0.0
0.383 0.7457902431488037 0.0954001173377037 0.18449999392032623 0.08512448519468307 0.0 0.0 0.0 0.0
0.384 0.7550318241119385 0.06863700598478317 0.1815541386604309 0.08332890272140503 0.0 0.0 0.0 0.0
0.385 0.7626054883003235 0.039318446069955826 0.1804092675447464 0.08331938087940216 0.0 0.0 0.0 0.0
0.386 0.7684873342514038 0.00909202080219984 0.1809062361717224 0.0841892883181572 0.0 0.0 0.0 0.0
0.387 0.7717636823654175 -0.02081085368990898 0.18250051140785217 0.08427807688713074 0.0 0.0 0.0 0.0
0.388 0.7737827301025391 -0.05108658969402313 0.18401682376861572 0.08421023935079575 0.0 0.0 0.0 0.0
0.389 0.7760124802589417 -0.08143061399459839 0.1849624216556549 0.08445672690868378 0.0 0.0 0.0 0.0
0.39 0.7763406038284302 -0.1151042953133583 0.1887674629688263 0.08640071004629135 0.0 0.0 0.0 0.0
0.391 0.7715688347816467 -0.1448545902967453 0.19428151845932007 0.08523350208997726 0.0 0.0 0.0 0.0
0.392 0.7680869102478027 -0.1731836199760437 0.1973363608121872 0.08228962868452072 0.0 0.0 0.0 0.0
0.393 0.765418291091919 -0.2021525651216507 0.19976647198200226 0.08110957592725754 0.0 0.0 0.0 0.0
0.394 0.7616329193115234 -0.2330833226442337 0.20280666649341583 0.08075851947069168 0.0 0.0 0.0 0.0
0.395 0.7560130953788757 -0.26299989223480225 0.20728497207164764 0.0811057761311531 0.0 0.0 0.0 0.0
0.396 0.7472026944160461 -0.29409724473953247 0.21361245214939117 0.08023403584957123 0.0 0.0 0.0 0.0
0.397 0.7366933822631836 -0.32390034198760986 0.21996581554412842 0.0779012143611908 0.0 0.0 0.0 0.0
0.398 0.7263592481613159 -0.3519517183303833 0.22553156316280365 0.07467024773359299 0.0 0.0 0.0 0.0
0.399 0.7146888375282288 -0.38013318181037903 0.23118816316127777 0.07175163924694061 0.0 0.0 0.0 0.0
0.4 0.7013506293296814 -0.4083894193172455 0.23799003660678864 0.06815781444311142 0.0 0.0 0.0 0.0
0.401 0.6866155862808228 -0.4352113902568817 0.24498941004276276 0.06360866874456406 0.0 0.0 0.0 0.0
0.402 0.6712183952331543 -0.46056896448135376 0.25171858072280884 0.057527974247932434 0.0 0.0 0.0 0.0
0.403 0.6552050113677979 -0.4841045141220093 0.2569628953933716 0.05029004439711571 0.0 0.0 0.0 0.0
0.404 0.6397544145584106 -0.5073232650756836 0.2610999643802643 0.04391179978847504 0.0 0.0 0.0 0.0
0.405 0.6238924264907837 -0.5318145751953125 0.2655474543571472 0.038235731422901154 0.0 0.0 0.0 0.0
0.406 0.6067569851875305 -0.5558574795722961 0.2703876793384552 0.03247912973165512 0.0 0.0 0.0 0.0
0.407 0.5876238346099854 -0.5793453454971313 0.2762219309806824 0.026449471712112427 0.0 0.0 0.0 0.0
0.408 0.5661962628364563 -0.6011708974838257 0.2819976210594177 0.018467072397470474 0.0 0.0 0.0 0.0
0.409 0.5466995239257812 -0.6216793060302734 0.28665852546691895 0.010168925859034061 0.0 0.0 0.0 0.0
0.41 0.5258957743644714 -0.6420011520385742 0.29107150435447693 0.0020206933841109276 0.0 0.0 0.0 0.0
0.411 0.5037157535552979 -0.6619865894317627 0.29542410373687744 -0.006215184926986694 0.0 0.0 0.0 0.0
0.412 0.48168715834617615 -0.680247962474823 0.30000805854797363 -0.015504532493650913 0.0 0.0 0.0 0.0
0.413 0.4583774507045746 -0.698275625705719 0.30393922328948975 -0.024803917855024338 0.0 0.0 0.0 0.0
0.414 0.4346875846385956 -0.7156427502632141 0.30795976519584656 -0.03446235880255699 0.0 0.0 0.0 0.0
0.415 0.40966689586639404 -0.7312790751457214 0.31144729256629944 -0.04516084864735603 0.0 0.0 0.0 0.0
0.416 0.38470548391342163 -0.745492696762085 0.31472688913345337 -0.056402742862701416 0.0 0.0 0.0 0.0
0.417 0.3577349781990051 -0.7593083381652832 0.31706640124320984 -0.06836482882499695 0.0 0.0 0.0 0.0
0.418 0.33230143785476685 -0.7716540694236755 0.31860461831092834 -0.08001339435577393 0.0 0.0 0.0 0.0
0.419 0.30656003952026367 -0.7825928330421448 0.3193320333957672 -0.0918193832039833 0.0 0.0 0.0 0.0
0.42 0.28014376759529114 -0.7934094667434692 0.3197156488895416 -0.10372116416692734 0.0 0.0 0.0 0.0
0.421 0.25297948718070984 -0.8041126728057861 0.32051536440849304 -0.11606723815202713 0.0 0.0 0.0 0.0
0.422 0.2261429727077484 -0.8131067752838135 0.32082825899124146 -0.1288820505142212 0.0 0.0 0.0 0.0
0.423 0.19823768734931946 -0.8197139501571655 0.3199142813682556 -0.14278820157051086 0.0 0.0 0.0 0.0
0.424 0.17084623873233795 -0.8254645466804504 0.31753090023994446 -0.155783012509346 0.0 0.0 0.0 0.0
0.425 0.14391452074050903 -0.8311840295791626 0.31493037939071655 -0.16875837743282318 0.0 0.0 0.0 0.0
0.426 0.11619319766759872 -0.8356185555458069 0.3119621276855469 -0.18165864050388336 0.0 0.0 0.0 0.0
0.427 0.0883740484714508 -0.839026689529419 0.3082364499568939 -0.1944897323846817 0.0 0.0 0.0 0.0
0.428 0.061223775148391724 -0.8415856957435608 0.30423322319984436 -0.20787368714809418 0.0 0.0 0.0 0.0
0.429 0.03242352604866028 -0.8428484797477722 0.29922616481781006 -0.22153149545192719 0.0 0.0 0.0 0.0
0.43 0.005495036020874977 -0.8425126075744629 0.2938283383846283 -0.23430432379245758 0.0 0.0 0.0 0.0
0.431 -0.021218180656433105 -0.8415908813476562 0.28673458099365234 -0.2476542741060257 0.0 0.0 0.0 0.0
0.432 -0.04701495170593262 -0.8395940065383911 0.2793818414211273 -0.2603916525840759 0.0 0.0 0.0 0.0
0.433 -0.0739685520529747 -0.8368673324584961 0.2709580063819885 -0.27271994948387146 0.0 0.0 0.0 0.0
0.434 -0.09898707270622253 -0.8329797387123108 0.2615489959716797 -0.2840420603752136 0.0 0.0 0.0 0.0
0.435 -0.1247488409280777 -0.8293682336807251 0.252327561378479 -0.2948908805847168 0.0 0.0 0.0 0.0
0.436 -0.1503397524356842 -0.8250839710235596 0.2431471198797226 -0.30553168058395386 0.0 0.0 0.0 0.0
0.437 -0.17678330838680267 -0.8192201256752014 0.23342163860797882 -0.3163481056690216 0.0 0.0 0.0 0.0
0.438 -0.2001180350780487 -0.8132278323173523 0.2222856730222702 -0.32634052634239197 0.0 0.0 0.0 0.0
0.439 -0.22426454722881317 -0.8063905239105225 0.21110272407531738 -0.3346284329891205 0.0 0.0 0.0 0.0
0.44 -0.24854648113250732 -0.7998284101486206 0.2001436948776245 -0.3430884778499603 0.0 0.0 0.0 0.0
0.441 -0.2729370594024658 -0.7931678891181946 0.1897682249546051 -0.35115525126457214 0.0 0.0 0.0 0.0
0.442 -0.2987770438194275 -0.7846829891204834 0.17999325692653656 -0.35874050855636597 0.0 0.0 0.0 0.0
0.443 -0.3241996765136719 -0.7748660445213318 0.16911892592906952 -0.3679713308811188 0.0 0.0 0.0 0.0
0.444 -0.34841156005859375 -0.762067437171936 0.15655387938022614 -0.37691977620124817 0.0 0.0 0.0 0.0
0.445 -0.3704283535480499 -0.74965500831604 0.14279036223888397 -0.38506558537483215 0.0 0.0 0.0 0.0
0.446 -0.3921090364456177 -0.737618088722229 0.12923844158649445 -0.3913220465183258 0.0 0.0 0.0 0.0
0.447 -0.4138023257255554 -0.726180374622345 0.11531348526477814 -0.3972606360912323 0.0 0.0 0.0 0.0
0.448 -0.4349403381347656 -0.7132875323295593 0.10237304121255875 -0.401418000459671 0.0 0.0 0.0 0.0
0.449 -0.4573899507522583 -0.7000846862792969 0.08964122086763382 -0.40648940205574036 0.0 0.0 0.0 0.0
0.45 -0.4795893430709839 -0.6848134398460388 0.07655174285173416 -0.4112091362476349 0.0 0.0 0.0 0.0
0.451 -0.4999100863933563 -0.6704983711242676 0.06382472813129425 -0.4159490764141083 0.0 0.0 0.0 0.0
0.452 -0.5204604864120483 -0.6541748642921448 0.0495835542678833 -0.41979357600212097 0.0 0.0 0.0 0.0
0.453 -0.5415165424346924 -0.6379550099372864 0.037097588181495667 -0.42375752329826355 0.0 0.0 0.0 0.0
0.454 -0.5628706216812134 -0.6202561855316162 0.023976825177669525 -0.4286429286003113 0.0 0.0 0.0 0.0
0.455 -0.5826451778411865 -0.5995326042175293 0.009308410808444023 -0.43339094519615173 0.0 0.0 0.0 0.0
0.456 -0.6007139682769775 -0.5789823532104492 -0.007153079845011234 -0.4372911751270294 0.0 0.0 0.0 0.0
0.457 -0.6170627474784851 -0.5576927661895752 -0.02292879857122898 -0.4401099681854248 0.0 0.0 0.0 0.0
0.458 -0.6329123973846436 -0.5364111065864563 -0.039319414645433426 -0.4415108859539032 0.0 0.0 0.0 0.0
0.459 -0.647281289100647 -0.5148269534111023 -0.056080304086208344 -0.44217175245285034 0.0 0.0 0.0 0.0
0.46 -0.6609088182449341 -0.4938134551048279 -0.07218287885189056 -0.4423229992389679 0.0 0.0 0.0 0.0
0.461 -0.6753178238868713 -0.4707152843475342 -0.08884479105472565 -0.44165343046188354 0.0 0.0 0.0 0.0
0.462 -0.68757563829422 -0.44908854365348816 -0.10487213730812073 -0.44029131531715393 0.0 0.0 0.0 0.0
0.463 -0.6994177103042603 -0.4271065592765808 -0.12109404802322388 -0.43794095516204834 0.0 0.0 0.0 0.0
0.464 -0.7116943001747131 -0.4046276807785034 -0.13603931665420532 -0.4354523718357086 0.0 0.0 0.0 0.0
0.465 -0.7239652872085571 -0.3803081512451172 -0.15196385979652405 -0.4333987236022949 0.0 0.0 0.0 0.0
0.466 -0.7342137098312378 -0.35599902272224426 -0.16783764958381653 -0.43057143688201904 0.0 0.0 0.0 0.0
0.467 -0.7445698380470276 -0.3301525413990021 -0.18360434472560883 -0.42774879932403564 0.0 0.0 0.0 0.0
0.468 -0.752527117729187 -0.30375221371650696 -0.20019781589508057 -0.42538610100746155 0.0 0.0 0.0 0.0
0.469 -0.758804440498352 -0.27661511301994324 -0.21878167986869812 -0.4208299219608307 0.0 0.0 0.0 0.0
0.47 -0.7636950016021729 -0.25093188881874084 -0.2358117699623108 -0.4149060845375061 0.0 0.0 0.0 0.0
0.471 -0.7674444913864136 -0.2254856526851654 -0.25324079394340515 -0.40781906247138977 0.0 0.0 0.0 0.0
0.472 -0.7700949907302856 -0.19969090819358826 -0.27046090364456177 -0.39969950914382935 0.0 0.0 0.0 0.0
0.473 -0.7721552848815918 -0.17429159581661224 -0.28665968775749207 -0.3901565968990326 0.0 0.0 0.0 0.0
0.474 -0.7742599844932556 -0.15056967735290527 -0.30168259143829346 -0.3809283375740051 0.0 0.0 0.0 0.0
0.475 -0.7753221392631531 -0.12569916248321533 -0.3166904151439667 -0.37020695209503174 0.0 0.0 0.0 0.0
0.476 -0.7769445180892944 -0.10078872740268707 -0.3304066061973572 -0.3604499399662018 0.0 0.0 0.0 0.0
0.477 -0.7779968976974487 -0.0755876824259758 -0.34374991059303284 -0.3508150279521942 0.0 0.0 0.0 0.0
0.478 -0.7769472599029541 -0.04911139979958534 -0.35810795426368713 -0.3396476209163666 0.0 0.0 0.0 0.0
0.479 -0.7760279774665833 -0.023121695965528488 -0.3714391887187958 -0.32979607582092285 0.0 0.0 0.0 0.0
0.48 -0.7721908688545227 0.005329005420207977 -0.38682857155799866 -0.31864479184150696 0.0 0.0 0.0 0.0
0.481 -0.7667554020881653 0.030266111716628075 -0.40130025148391724 -0.3063642382621765 0.0 0.0 0.0 0.0
0.482 -0.7607443928718567 0.056627966463565826 -0.41542765498161316 -0.2925935387611389 0.0 0.0 0.0 0.0
0.483 -0.7528527975082397 0.08229701220989227 -0.4294309914112091 -0.2781834304332733 0.0 0.0 0.0 0.0
0.484 -0.7437759637832642 0.10602603852748871 -0.4432864189147949 -0.2620448172092438 0.0 0.0 0.0 0.0
0.485 -0.7345353960990906 0.12889482080936432 -0.45510801672935486 -0.2444196194410324 0.0 0.0 0.0 0.0
0.486 -0.7247929573059082 0.15042433142662048 -0.4662899076938629 -0.22730937600135803 0.0 0.0 0.0 0.0
0.487 -0.7147205471992493 0.1713603287935257 -0.47603949904441833 -0.2082791030406952 0.0 0.0 0.0 0.0
0.488 -0.7060403227806091 0.19182716310024261 -0.48348501324653625 -0.1898231953382492 0.0 0.0 0.0 0.0
0.489 -0.6979554295539856 0.21370020508766174 -0.48954257369041443 -0.17342521250247955 0.0 0.0 0.0 0.0
0.49 -0.6882190108299255 0.23771117627620697 -0.4974851906299591 -0.15866510570049286 0.0 0.0 0.0 0.0
0.491 -0.6743603944778442 0.2608816921710968 -0.5074172019958496 -0.14119945466518402 0.0 0.0 0.0 0.0
0.492 -0.6591126918792725 0.2821107506752014 -0.5157226920127869 -0.12142658978700638 0.0 0.0 0.0 0.0
0.493 -0.6453958749771118 0.3009859323501587 -0.5217173099517822 -0.10272399336099625 0.0 0.0 0.0 0.0
0.494 -0.6293161511421204 0.3207474648952484 -0.5282716751098633 -0.08252745121717453 0.0 0.0 0.0 0.0
0.495 -0.6129170656204224 0.33972227573394775 -0.5341807007789612 -0.06086622178554535 0.0 0.0 0.0 0.0
0.496 -0.5975127816200256 0.35567596554756165 -0.5371162295341492 -0.039271194487810135 0.0 0.0 0.0 0.0
0.497 -0.582321047782898 0.3721908628940582 -0.5388292670249939 -0.019577696919441223 0.0 0.0 0.0 0.0
0.498 -0.5656205415725708 0.3904663622379303 -0.541096031665802 0.0007993560284376144 0.0 0.0 0.0 0.0
0.499 -0.5487653613090515 0.4069608151912689 -0.5425768494606018 0.02117263153195381 0.0 0.0 0.0 0.0
0.5 -0.5303696990013123 0.4231013357639313 -0.547217607498169 0.047424834221601486 0.0 0.0 0.0 0.0
0.501 -0.5105037689208984 0.43897494673728943 -0.5481330752372742 0.06868132948875427 0.0 0.0 0.0 0.0
0.502 -0.4900238811969757 0.4521031379699707 -0.5481988191604614 0.09104152023792267 0.0 0.0 0.0 0.0
0.503 -0.4700993597507477 0.46426600217819214 -0.5460564494132996 0.11368567496538162 0.0 0.0 0.0 0.0
0.504 -0.45065808296203613 0.4753774106502533 -0.5429407358169556 0.135576531291008 0.0 0.0 0.0 0.0
0.505 -0.42939049005508423 0.4874657392501831 -0.5389997959136963 0.15839757025241852 0.0 0.0 0.0 0.0
0.506 -0.4080508351325989 0.4965074360370636 -0.534611701965332 0.18091008067131042 0.0 0.0 0.0 0.0
0.507 -0.3875694274902344 0.5035387873649597 -0.5276948809623718 0.20460179448127747 0.0 0.0 0.0 0.0
0.508 -0.36680373549461365 0.5113552808761597 -0.5188232660293579 0.22730688750743866 0.0 0.0 0.0 0.0
0.509 -0.34799474477767944 0.5182211995124817 -0.5091779232025146 0.24796929955482483 0.0 0.0 0.0 0.0
0.51 -0.3283889889717102 0.5254945755004883 -0.49927419424057007 0.269076943397522 0.0 0.0 0.0 0.0
0.511 -0.30836305022239685 0.5303521752357483 -0.48800885677337646 0.28970110416412354 0.0 0.0 0.0 0.0
0.512 -0.29031679034233093 0.5360718369483948 -0.47420555353164673 0.30859655141830444 0.0 0.0 0.0 0.0
0.513 -0.2727913558483124 0.54313063621521 -0.4614051580429077 0.3243635892868042 0.0 0.0 0.0 0.0
0.514 -0.25149157643318176 0.5503195524215698 -0.450228750705719 0.3408987820148468 0.0 0.0 0.0 0.0
0.515 -0.22817744314670563 0.5563533902168274 -0.4395504593849182 0.3589290678501129 0.0 0.0 0.0 0.0
0.516 -0.20561082661151886 0.5588895082473755 -0.42706573009490967 0.37805941700935364 0.0 0.0 0.0 0.0
0.517 -0.1839163452386856 0.5606329441070557 -0.41181299090385437 0.39604881405830383 0.0 0.0 0.0 0.0
0.518 -0.1611994206905365 0.5604203343391418 -0.39680907130241394 0.41482362151145935 0.0 0.0 0.0 0.0
0.519 -0.14164292812347412 0.5594214200973511 -0.37874382734298706 0.43218642473220825 0.0 0.0 0.0 0.0
0.52 -0.12241064012050629 0.5584896802902222 -0.36031392216682434 0.4473399519920349 0.0 0.0 0.0 0.0
0.521 -0.10279863327741623 0.5576015114784241 -0.34158602356910706 0.4622974395751953 0.0 0.0 0.0 0.0
0.522 -0.08281512558460236 0.5556440949440002 -0.32268911600112915 0.47652995586395264 0.0 0.0 0.0 0.0
0.523 -0.06293880939483643 0.5519691109657288 -0.3023107349872589 0.49104946851730347 0.0 0.0 0.0 0.0
0.524 -0.04524886608123779 0.545781672000885 -0.27890366315841675 0.5048061609268188 0.0 0.0 0.0 0.0
0.525 -0.030971581116318703 0.5418493747711182 -0.2542698085308075 0.5146536231040955 0.0 0.0 0.0 0.0
0.526 -0.015260725282132626 0.5395511984825134 -0.23015441000461578 0.5218854546546936 0.0 0.0 0.0 0.0
0.527 0.0008958037942647934 0.5376144051551819 -0.20779654383659363 0.5278335809707642 0.0 0.0 0.0 0.0
0.528 0.01600027084350586 0.5347753763198853 -0.18512243032455444 0.5338159203529358 0.0 0.0 0.0 0.0
0.529 0.03290662169456482 0.5327236652374268 -0.1623779535293579 0.5366292595863342 0.0 0.0 0.0 0.0
0.53 0.050923340022563934 0.5307703614234924 -0.1422569900751114 0.5404749512672424 0.0 0.0 0.0 0.0
0.531 0.0680418461561203 0.5256381630897522 -0.12008185684680939 0.5439705848693848 0.0 0.0 0.0 0.0
0.532 0.08524874597787857 0.5209916234016418 -0.09900263696908951 0.5466369390487671 0.0 0.0 0.0 0.0
0.533 0.10287779569625854 0.5152368545532227 -0.07661793380975723 0.5493738055229187 0.0 0.0 0.0 0.0
0.534 0.11899774521589279 0.5075759887695312 -0.05344338342547417 0.5510621666908264 0.0 0.0 0.0 0.0
0.535 0.1317576915025711 0.5004351139068604 -0.028506847098469734 0.5501535534858704 0.0 0.0 0.0 0.0
0.536 0.1451065093278885 0.4958105683326721 -0.004739193245768547 0.5463599562644958 0.0 0.0 0.0 0.0
0.537 0.15887422859668732 0.49098604917526245 0.016541754826903343 0.5402121543884277 0.0 0.0 0.0 0.0
0.538 0.174850195646286 0.48748597502708435 0.03622830659151077 0.5341390371322632 0.0 0.0 0.0 0.0
0.539 0.19156953692436218 0.48270097374916077 0.05427635461091995 0.5290445685386658 0.0 0.0 0.0 0.0
0.54 0.20893751084804535 0.4759632349014282 0.07106005400419235 0.5246036648750305 0.0 0.0 0.0 0.0
0.541 0.22678641974925995 0.4657979905605316 0.09066314995288849 0.5218758583068848 0.0 0.0 0.0 0.0
0.542 0.24037325382232666 0.4536304175853729 0.11312215775251389 0.51779705286026 0.0 0.0 0.0 0.0
0.543 0.24987073242664337 0.44255170226097107 0.13666567206382751 0.5092454552650452 0.0 0.0 0.0 0.0
0.544 0.2594948709011078 0.4372101128101349 0.15829512476921082 0.49597084522247314 0.0 0.0 0.0 0.0
0.545 0.27255356311798096 0.4327032268047333 0.1744949221611023 0.4815496802330017 0.0 0.0 0.0 0.0
0.546 0.2871319353580475 0.427480548620224 0.18907034397125244 0.4685477018356323 0.0 0.0 0.0 0.0
0.547 0.3021616041660309 0.4202724099159241 0.2023494690656662 0.45652541518211365 0.0 0.0 0.0 0.0
0.548 0.3167964816093445 0.4127929210662842 0.2157663106918335 0.4440460503101349 0.0 0.0 0.0 0.0
0.549 0.3324732482433319 0.4062914550304413 0.2269887924194336 0.4306035041809082 0.0 0.0 0.0 0.0
0.55 0.35078856348991394 0.39762556552886963 0.2360483855009079 0.4198647737503052 0.0 0.0 0.0 0.0
0.551 0.36772409081459045 0.38503605127334595 0.24660344421863556 0.4119899570941925 0.0 0.0 0.0 0.0
0.552 0.38223227858543396 0.37210673093795776 0.2594095766544342 0.40205153822898865 0.0 0.0 0.0 0.0
0.553 0.39529144763946533 0.35912585258483887 0.2713029384613037 0.38995999097824097 0.0 0.0 0.0 0.0
0.554 0.40853995084762573 0.34674856066703796 0.2828705310821533 0.3783440887928009 0.0 0.0 0.0 0.0
0.555 0.42141035199165344 0.3333350121974945 0.293884813785553 0.36466217041015625 0.0 0.0 0.0 0.0
0.556 0.43368715047836304 0.3222426474094391 0.3020050823688507 0.35178491473197937 0.0 0.0 0.0 0.0
0.557 0.44693419337272644 0.3081408143043518 0.3104878067970276 0.3390432596206665 0.0 0.0 0.0 0.0
0.558 0.4590334892272949 0.29419761896133423 0.31861165165901184 0.32745781540870667 0.0 0.0 0.0 0.0
0.559 0.4699245095252991 0.2791915833950043 0.3277280032634735 0.3133265972137451 0.0 0.0 0.0 0.0
0.56 0.481599360704422 0.2673010230064392 0.3335346579551697 0.2981410622596741 0.0 0.0 0.0 0.0
0.561 0.49457690119743347 0.25376302003860474 0.3362153470516205 0.28489020466804504 0.0 0.0 0.0 0.0
0.562 0.5091862082481384 0.23800797760486603 0.3401075601577759 0.2739550471305847 0.0 0.0 0.0 0.0
0.563 0.522580623626709 0.2206374555826187 0.34404149651527405 0.26491373777389526 0.0 0.0 0.0 0.0
0.564 0.5337309241294861 0.20088191330432892 0.349901020526886 0.25661852955818176 0.0 0.0 0.0 0.0
0.565 0.5427566170692444 0.18084152042865753 0.35751861333847046 0.24587327241897583 0.0 0.0 0.0 0.0
0.566 0.5493676662445068 0.1617613136768341 0.3645597994327545 0.23397330939769745 0.0 0.0 0.0 0.0
0.567 0.5558451414108276 0.1432846188545227 0.37067073583602905 0.22105678915977478 0.0 0.0 0.0 0.0
0.568 0.5619683265686035 0.1261916160583496 0.3753400444984436 0.2064248025417328 0.0 0.0 0.0 0.0
0.569 0.56913161277771 0.11029434204101562 0.37690189480781555 0.19316060841083527 0.0 0.0 0.0 0.0
0.57 0.5779434442520142 0.091645747423172 0.378296822309494 0.18151991069316864 0.0 0.0 0.0 0.0
0.571 0.585422158241272 0.07254624366760254 0.37995681166648865 0.17074428498744965 0.0 0.0 0.0 0.0
0.572 0.5917650461196899 0.05341949686408043 0.38192811608314514 0.16029484570026398 0.0 0.0 0.0 0.0
0.573 0.5978586077690125 0.032961275428533554 0.38354387879371643 0.15048450231552124 0.0 0.0 0.0 0.0
0.574 0.6033861041069031 0.011238440871238708 0.3854466378688812 0.14064517617225647 0.0 0.0 0.0 0.0
0.575 0.6078219413757324 -0.010108648799359798 0.3876427114009857 0.13080348074436188 0.0 0.0 0.0 0.0
0.576 0.611306369304657 -0.03183504566550255 0.39053255319595337 0.12222304940223694 0.0 0.0 0.0 0.0
0.577 0.6128756403923035 -0.05561523512005806 0.39387714862823486 0.11181587725877762 0.0 0.0 0.0 0.0
0.578 0.612939178943634 -0.07578568160533905 0.39656388759613037 0.10077748447656631 0.0 0.0 0.0 0.0
0.579 0.6140824556350708 -0.09702479839324951 0.3979794979095459 0.09035510569810867 0.0 0.0 0.0 0.0
0.58 0.6142255067825317 -0.11933249235153198 0.399352490901947 0.08038356900215149 0.0 0.0 0.0 0.0
0.581 0.614029049873352 -0.14312393963336945 0.40165841579437256 0.07132863253355026 0.0 0.0 0.0 0.0
0.582 0.6104915142059326 -0.166513130068779 0.40545761585235596 0.06092703342437744 0.0 0.0 0.0 0.0
0.583 0.6058049201965332 -0.18631839752197266 0.4088880717754364 0.04936271905899048 0.0 0.0 0.0 0.0
0.584 0.6010248064994812 -0.20693017542362213 0.4100416600704193 0.036649562418460846 0.0 0.0 0.0 0.0
0.585 0.5968201756477356 -0.227828249335289 0.41069576144218445 0.02492288313806057 0.0 0.0 0.0 0.0
0.586 0.5911480188369751 -0.24780939519405365 0.4115149974822998 0.013276539742946625 0.0 0.0 0.0 0.0
0.587 0.5853915214538574 -0.2668563425540924 0.4114532470703125 0.0007760636508464813 0.0 0.0 0.0 0.0
0.588 0.5802071690559387 -0.28654080629348755 0.410360723733902 -0.010448669083416462 0.0 0.0 0.0 0.0
0.589 0.5738628506660461 -0.30733242630958557 0.40884557366371155 -0.02179860882461071 0.0 0.0 0.0 0.0
0.59 0.5686388611793518 -0.3267901837825775 0.40781423449516296 -0.0308977197855711 0.0 0.0 0.0 0.0
0.591 0.5600954294204712 -0.3486956059932709 0.4079528748989105 -0.04039067029953003 0.0 0.0 0.0 0.0
0.592 0.5508896112442017 -0.36993831396102905 0.4090297222137451 -0.05119477957487106 0.0 0.0 0.0 0.0
0.593 0.5396261215209961 -0.3902307152748108 0.4093422293663025 -0.06254450231790543 0.0 0.0 0.0 0.0
0.594 0.5291475057601929 -0.40867286920547485 0.4091949760913849 -0.07457228749990463 0.0 0.0 0.0 0.0
0.595 0.5176119208335876 -0.42776113748550415 0.407980740070343 -0.08615725487470627 0.0 0.0 0.0 0.0
0.596 0.5057097673416138 -0.4471956193447113 0.4082896411418915 -0.09608232229948044 0.0 0.0 0.0 0.0
0.597 0.49024537205696106 -0.46576398611068726 0.4092695415019989 -0.10975217074155807 0.0 0.0 0.0 0.0
0.598 0.4747805893421173 -0.4807411730289459 0.4077897071838379 -0.12518787384033203 0.0 0.0 0.0 0.0
0.599 0.4612438976764679 -0.4946191906929016 0.4038481116294861 -0.13913525640964508 0.0 0.0 0.0 0.0
0.6 0.4466716945171356 -0.5085902810096741 0.3989099860191345 -0.15058699250221252 0.0 0.0 0.0 0.0
0.601 0.4334035813808441 -0.5248219966888428 0.3963107764720917 -0.16358588635921478 0.0 0.0 0.0 0.0
0.602 0.4185165464878082 -0.5389284491539001 0.39203280210494995 -0.1767643690109253 0.0 0.0 0.0 0.0
0.603 0.40276557207107544 -0.552222490310669 0.3869875371456146 -0.1899895817041397 0.0 0.0 0.0 0.0
0.604 0.3882434368133545 -0.5647339224815369 0.3811401128768921 -0.20125789940357208 0.0 0.0 0.0 0.0
0.605 0.3736029863357544 -0.5786296129226685 0.3754631280899048 -0.21287253499031067 0.0 0.0 0.0 0.0
0.606 0.35834383964538574 -0.5918430685997009 0.36997827887535095 -0.22407303750514984 0.0 0.0 0.0 0.0
0.607 0.3402382731437683 -0.6055388450622559 0.3647007942199707 -0.23480740189552307 0.0 0.0 0.0 0.0
0.608 0.32270097732543945 -0.6178816556930542 0.3604794442653656 -0.24650044739246368 0.0 0.0 0.0 0.0
0.609 0.3035203218460083 -0.6281922459602356 0.35442665219306946 -0.25964292883872986 0.0 0.0 0.0 0.0
0.61 0.28435781598091125 -0.6376347541809082 0.34747418761253357 -0.2730496823787689 0.0 0.0 0.0 0.0
0.611 0.2656470537185669 -0.6458419561386108 0.33935797214508057 -0.2854730188846588 0.0 0.0 0.0 0.0
0.612 0.24885527789592743 -0.6545597910881042 0.3302653133869171 -0.2974516451358795 0.0 0.0 0.0 0.0
0.613 0.23141765594482422 -0.6618905663490295 0.3213578760623932 -0.3082098662853241 0.0 0.0 0.0 0.0
0.614 0.211693674325943 -0.6695033311843872 0.311307817697525 -0.319703072309494 0.0 0.0 0.0 0.0
0.615 0.19503577053546906 -0.6760399341583252 0.3011189103126526 -0.3296380043029785 0.0 0.0 0.0 0.0
0.616 0.1780886948108673 -0.6839920282363892 0.2909703552722931 -0.3382609486579895 0.0 0.0 0.0 0.0
0.617 0.15778541564941406 -0.6913162469863892 0.28204965591430664 -0.34744954109191895 0.0 0.0 0.0 0.0
0.618 0.1372677981853485 -0.6971197724342346 0.27219799160957336 -0.35794597864151 0.0 0.0 0.0 0.0
0.619 0.11722107231616974 -0.7027331590652466 0.26132848858833313 -0.3676620423793793 0.0 0.0 0.0 0.0
0.62 0.09832341223955154 -0.7071707844734192 0.2516244053840637 -0.37645354866981506 0.0 0.0 0.0 0.0
0.621 0.07791120558977127 -0.7101326584815979 0.24001015722751617 -0.3861405551433563 0.0 0.0 0.0 0.0
0.622 0.05836981162428856 -0.7134801149368286 0.22746913135051727 -0.39482009410858154 0.0 0.0 0.0 0.0
0.623 0.039225585758686066 -0.7175050973892212 0.2161112278699875 -0.40205714106559753 0.0 0.0 0.0 0.0
0.624 0.020408717915415764 -0.7196215391159058 0.20571835339069366 -0.41015803813934326 0.0 0.0 0.0 0.0
0.625 -0.0015916666015982628 -0.7214218974113464 0.19263824820518494 -0.4182985723018646 0.0 0.0 0.0 0.0
0.626 -0.02394610270857811 -0.7224418520927429 0.18008491396903992 -0.4261457026004791 0.0 0.0 0.0 0.0
0.627 -0.04471200332045555 -0.7225068211555481 0.1678803265094757 -0.4344456195831299 0.0 0.0 0.0 0.0
0.628 -0.06584788858890533 -0.7198992371559143 0.15370720624923706 -0.44311338663101196 0.0 0.0 0.0 0.0
0.629 -0.0850856751203537 -0.7172744870185852 0.13752667605876923 -0.4496651887893677 0.0 0.0 0.0 0.0
0.63 -0.1043548509478569 -0.7158480882644653 0.12197542935609818 -0.4548928737640381 0.0 0.0 0.0 0.0
0.631 -0.12170155346393585 -0.7136030793190002 0.10734602808952332 -0.4592248499393463 0.0 0.0 0.0 0.0
0.632 -0.14186754822731018 -0.7113828659057617 0.09221924096345901 -0.46300065517425537 0.0 0.0 0.0 0.0
0.633 -0.1629817634820938 -0.7086730003356934 0.07809031009674072 -0.4672113060951233 0.0 0.0 0.0 0.0
0.634 -0.18256543576717377 -0.7044239044189453 0.06306327879428864 -0.4713679850101471 0.0 0.0 0.0 0.0
0.635 -0.20171622931957245 -0.7003307938575745 0.0477568544447422 -0.47417134046554565 0.0 0.0 0.0 0.0
0.636 -0.22176650166511536 -0.6945725083351135 0.03235408291220665 -0.47715237736701965 0.0 0.0 0.0 0.0
0.637 -0.24123544991016388 -0.6893811821937561 0.01673096977174282 -0.4794013202190399 0.0 0.0 0.0 0.0
0.638 -0.2609778940677643 -0.6839551329612732 0.0017124339938163757 -0.4808512032032013 0.0 0.0 0.0 0.0
0.639 -0.2811426818370819 -0.6771719455718994 -0.013372681103646755 -0.48267391324043274 0.0 0.0 0.0 0.0
0.64 -0.3011114299297333 -0.6687691807746887 -0.02915491722524166 -0.4846709966659546 0.0 0.0 0.0 0.0
0.641 -0.320699542760849 -0.6592327952384949 -0.046070393174886703 -0.4857439696788788 0.0 0.0 0.0 0.0
0.642 -0.33970463275909424 -0.6497452259063721 -0.06172054633498192 -0.4869632124900818 0.0 0.0 0.0 0.0
0.643 -0.3583609461784363 -0.6385688781738281 -0.07971639186143875 -0.4873681962490082 0.0 0.0 0.0 0.0
0.644 -0.37521982192993164 -0.6273329257965088 -0.09800968319177628 -0.48668453097343445 0.0 0.0 0.0 0.0
0.645 -0.3915083110332489 -0.6153017282485962 -0.11514882743358612 -0.48440712690353394 0.0 0.0 0.0 0.0
0.646 -0.40823110938072205 -0.6045020222663879 -0.13311266899108887 -0.48111075162887573 0.0 0.0 0.0 0.0
0.647 -0.42437493801116943 -0.5930672883987427 -0.14998793601989746 -0.47758933901786804 0.0 0.0 0.0 0.0
0.648 -0.44051727652549744 -0.5767773389816284 -0.1669212281703949 -0.47215723991394043 0.0 0.0 0.0 0.0
0.649 -0.45690780878067017 -0.5660707354545593 -0.1847350150346756 -0.4690069854259491 0.0 0.0 0.0 0.0
0.65 -0.47114667296409607 -0.5519331097602844 -0.20251284539699554 -0.4629259407520294 0.0 0.0 0.0 0.0
0.651 -0.48444053530693054 -0.5387952923774719 -0.22039280831813812 -0.4560587704181671 0.0 0.0 0.0 0.0
0.652 -0.49915698170661926 -0.524940013885498 -0.23619382083415985 -0.4475196301937103 0.0 0.0 0.0 0.0
0.653 -0.5127505660057068 -0.5127778649330139 -0.24979111552238464 -0.43989789485931396 0.0 0.0 0.0 0.0
0.654 -0.5285524725914001 -0.4961567223072052 -0.2663254141807556 -0.43247684836387634 0.0 0.0 0.0 0.0
0.655 -0.54206782579422 -0.4802006781101227 -0.28219074010849 -0.4243982136249542 0.0 0.0 0.0 0.0
0.656 -0.5546320676803589 -0.46411070227622986 -0.29807499051094055 -0.4147796332836151 0.0 0.0 0.0 0.0
0.657 -0.5663108825683594 -0.4489562213420868 -0.3126200735569 -0.4040510058403015 0.0 0.0 0.0 0.0
0.658 -0.5790056586265564 -0.43214571475982666 -0.3259241580963135 -0.3936215341091156 0.0 0.0 0.0 0.0
0.659 -0.5921814441680908 -0.4145333170890808 -0.3392902910709381 -0.38344839215278625 0.0 0.0 0.0 0.0
0.66 -0.6039444208145142 -0.396308034658432 -0.3536131680011749 -0.3729516267776489 0.0 0.0 0.0 0.0
0.661 -0.6146332621574402 -0.3762795925140381 -0.36787086725234985 -0.3617124855518341 0.0 0.0 0.0 0.0
0.662 -0.6246059536933899 -0.35538625717163086 -0.3825090229511261 -0.3499926030635834 0.0 0.0 0.0 0.0
0.663 -0.6321547031402588 -0.33602410554885864 -0.3971083462238312 -0.33557459712028503 0.0 0.0 0.0 0.0
0.664 -0.6392766833305359 -0.31682294607162476 -0.4097490608692169 -0.320724755525589 0.0 0.0 0.0 0.0
0.665 -0.6470521688461304 -0.29864799976348877 -0.42062684893608093 -0.3067202866077423 0.0 0.0 0.0 0.0
0.666 -0.6539190411567688 -0.2780105471611023 -0.43234094977378845 -0.2908020317554474 0.0 0.0 0.0 0.0
0.667 -0.6595600247383118 -0.25841522216796875 -0.44341251254081726 -0.2747039496898651 0.0 0.0 0.0 0.0
0.668 -0.6653943657875061 -0.2378513067960739 -0.4537583589553833 -0.2571077048778534 0.0 0.0 0.0 0.0
0.669 -0.6698495745658875 -0.2185441553592682 -0.4622996747493744 -0.24008582532405853 0.0 0.0 0.0 0.0
0.67 -0.6746522188186646 -0.19966228306293488 -0.4696827232837677 -0.22166560590267181 0.0 0.0 0.0 0.0
0.671 -0.6800135374069214 -0.18006107211112976 -0.4754367172718048 -0.20468741655349731 0.0 0.0 0.0 0.0
0.672 -0.686277449131012 -0.16000701487064362 -0.4798724353313446 -0.18948720395565033 0.0 0.0 0.0 0.0
0.673 -0.6914419531822205 -0.1389225572347641 -0.4852678179740906 -0.17444923520088196 0.0 0.0 0.0 0.0
0.674 -0.6946036219596863 -0.11478171497583389 -0.49203988909721375 -0.15837781131267548 0.0 0.0 0.0 0.0
0.675 -0.6962012648582458 -0.09160929173231125 -0.49806374311447144 -0.1413547843694687 0.0 0.0 0.0 0.0
0.676 -0.6968830823898315 -0.06978654861450195 -0.5024945735931396 -0.12377630919218063 0.0 0.0 0.0 0.0
0.677 -0.6971336007118225 -0.047095853835344315 -0.5061244964599609 -0.10519431531429291 0.0 0.0 0.0 0.0
0.678 -0.6974957585334778 -0.024406185373663902 -0.508609414100647 -0.08762609958648682 0.0 0.0 0.0 0.0
0.679 -0.6976410150527954 -0.0014398405328392982 -0.5110448598861694 -0.07240279018878937 0.0 0.0 0.0 0.0
0.68 -0.6956775188446045 0.02244330197572708 -0.5131998062133789 -0.054787300527095795 0.0 0.0 0.0 0.0
0.681 -0.6925457715988159 0.04675450548529625 -0.5155531764030457 -0.038301825523376465 0.0 0.0 0.0 0.0
0.682 -0.6878500580787659 0.07060051709413528 -0.5176377892494202 -0.019661754369735718 0.0 0.0 0.0 0.0
0.683 -0.683380126953125 0.09284147620201111 -0.5176016688346863 -0.002262512221932411 0.0 0.0 0.0 0.0
0.684 -0.677688479423523 0.11603841185569763 -0.5167588591575623 0.016305973753333092 0.0 0.0 0.0 0.0
0.685 -0.671221911907196 0.13974879682064056 -0.5168772339820862 0.03193504735827446 0.0 0.0 0.0 0.0
0.686 -0.6627094149589539 0.16281233727931976 -0.5166404247283936 0.0505639910697937 0.0 0.0 0.0 0.0
0.687 -0.6530025005340576 0.18423621356487274 -0.5138476490974426 0.0697743222117424 0.0 0.0 0.0 0.0
0.688 -0.6446747183799744 0.204632967710495 -0.5097472667694092 0.08757851272821426 0.0 0.0 0.0 0.0
0.689 -0.6367119550704956 0.22694061696529388 -0.5051029324531555 0.10376450419425964 0.0 0.0 0.0 0.0
0.69 -0.6272851228713989 0.24880091845989227 -0.5008531808853149 0.11840882152318954 0.0 0.0 0.0 0.0
0.691 -0.615946352481842 0.27252987027168274 -0.4972691237926483 0.13457588851451874 0.0 0.0 0.0 0.0
0.692 -0.6027421355247498 0.2947983145713806 -0.49383142590522766 0.15031100809574127 0.0 0.0 0.0 0.0
0.693 -0.587988018989563 0.3180484473705292 -0.48989546298980713 0.16596828401088715 0.0 0.0 0.0 0.0
0.694 -0.5714458227157593 0.33832496404647827 -0.4858146905899048 0.18355080485343933 0.0 0.0 0.0 0.0
0.695 -0.5536600351333618 0.3578225076198578 -0.4805581569671631 0.2011261135339737 0.0 0.0 0.0 0.0
0.696 -0.5361157655715942 0.37499913573265076 -0.4730429947376251 0.21883228421211243 0.0 0.0 0.0 0.0
0.697 -0.52018141746521 0.3911513090133667 -0.46436506509780884 0.23610974848270416 0.0 0.0 0.0 0.0
0.698 -0.503685712814331 0.40858781337738037 -0.45422956347465515 0.2510458827018738 0.0 0.0 0.0 0.0
0.699 -0.4855060577392578 0.4270792603492737 -0.4457966089248657 0.26511988043785095 0.0 0.0 0.0 0.0
0.7 -0.46732962131500244 0.44319382309913635 -0.4376158118247986 0.2786978483200073 0.0 0.0 0.0 0.0
0.701 -0.44668710231781006 0.4598529040813446 -0.4286666214466095 0.292976975440979 0.0 0.0 0.0 0.0
0.702 -0.4249346852302551 0.4760032892227173 -0.4200577735900879 0.30752262473106384 0.0 0.0 0.0 0.0
0.703 -0.40206435322761536 0.4896307587623596 -0.4108278155326843 0.3224538266658783 0.0 0.0 0.0 0.0
0.704 -0.3790234923362732 0.5012723803520203 -0.39992886781692505 0.33780837059020996 0.0 0.0 0.0 0.0
0.705 -0.3563535213470459 0.5123670697212219 -0.38845011591911316 0.351949542760849 0.0 0.0 0.0 0.0
0.706 -0.33318695425987244 0.5232824087142944 -0.376145601272583 0.3657782971858978 0.0 0.0 0.0 0.0
0.707 -0.31026387214660645 0.5324568152427673 -0.3636223375797272 0.3780539929866791 0.0 0.0 0.0 0.0
0.708 -0.28515374660491943 0.540645182132721 -0.35092538595199585 0.3919616639614105 0.0 0.0 0.0 0.0
0.709 -0.2599371671676636 0.5480313301086426 -0.3374197781085968 0.40548813343048096 0.0 0.0 0.0 0.0
0.71 -0.23586784303188324 0.5525279641151428 -0.32254910469055176 0.4182867109775543 0.0 0.0 0.0 0.0
0.711 -0.21190699934959412 0.5555282831192017 -0.3056863844394684 0.4299747049808502 0.0 0.0 0.0 0.0
0.712 -0.18923735618591309 0.5587518811225891 -0.2883376479148865 0.44121870398521423 0.0 0.0 0.0 0.0
0.713 -0.1678723692893982 0.5603092908859253 -0.27147528529167175 0.4499720335006714 0.0 0.0 0.0 0.0
0.714 -0.14683350920677185 0.5626760125160217 -0.25299859046936035 0.45750901103019714 0.0 0.0 0.0 0.0
0.715 -0.12594902515411377 0.5651405453681946 -0.23551829159259796 0.4631190896034241 0.0 0.0 0.0 0.0
0.716 -0.10440105944871902 0.5684018135070801 -0.2192429006099701 0.4680355489253998 0.0 0.0 0.0 0.0
0.717 -0.08120779693126678 0.571545422077179 -0.2045305073261261 0.4734799265861511 0.0 0.0 0.0 0.0
0.718 -0.057449162006378174 0.5724695324897766 -0.18971531093120575 0.4787045419216156 0.0 0.0 0.0 0.0
0.719 -0.03334367647767067 0.5718279480934143 -0.17399349808692932 0.4849410355091095 0.0 0.0 0.0 0.0
0.72 -0.00945374183356762 0.5692958235740662 -0.15716473758220673 0.49033471941947937 0.0 0.0 0.0 0.0
0.721 0.011580443009734154 0.5667957663536072 -0.14092637598514557 0.4939403533935547 0.0 0.0 0.0 0.0
0.722 0.03441871330142021 0.5641109943389893 -0.12298222631216049 0.4968089461326599 0.0 0.0 0.0 0.0
0.723 0.05609644949436188 0.5611613392829895 -0.10832036286592484 0.4985657334327698 0.0 0.0 0.0 0.0
0.724 0.079545758664608 0.5579986572265625 -0.09266749024391174 0.5007327198982239 0.0 0.0 0.0 0.0
0.725 0.10302019864320755 0.5532503128051758 -0.07790791243314743 0.503460705280304 0.0 0.0 0.0 0.0
0.726 0.12640748918056488 0.5462724566459656 -0.06185280531644821 0.5059014558792114 0.0 0.0 0.0 0.0
0.727 0.14983020722866058 0.5384323596954346 -0.04545744135975838 0.5090627670288086 0.0 0.0 0.0 0.0
0.728 0.1714683175086975 0.5292173624038696 -0.02818998321890831 0.5107885599136353 0.0 0.0 0.0 0.0
0.729 0.1914910227060318 0.5184944868087769 -0.010336046107113361 0.5113435983657837 0.0 0.0 0.0 0.0
0.73 0.21009206771850586 0.5091816782951355 0.007258625701069832 0.5100991129875183 0.0 0.0 0.0 0.0
0.731 0.22993583977222443 0.4993877112865448 0.024319183081388474 0.5084235668182373 0.0 0.0 0.0 0.0
0.732 0.2487519234418869 0.4898013770580292 0.0393599197268486 0.5062193870544434 0.0 0.0 0.0 0.0
0.733 0.26801130175590515 0.4788645803928375 0.05591312423348427 0.5040865540504456 0.0 0.0 0.0 0.0
0.734 0.2873956263065338 0.4666754901409149 0.07169827818870544 0.5022324323654175 0.0 0.0 0.0 0.0
0.735 0.3047146201133728 0.4544830620288849 0.08750227093696594 0.4989743232727051 0.0 0.0 0.0 0.0
0.736 0.32225650548934937 0.44240936636924744 0.10292690247297287 0.4952870309352875 0.0 0.0 0.0 0.0
0.737 0.3395461142063141 0.42907989025115967 0.11810378730297089 0.4916692078113556 0.0 0.0 0.0 0.0
0.738 0.35700294375419617 0.4156477451324463 0.1334161013364792 0.48809191584587097 0.0 0.0 0.0 0.0
0.739 0.3728374242782593 0.4007456302642822 0.148440882563591 0.4832266867160797 0.0 0.0 0.0 0.0
0.74 0.3885290324687958 0.38528162240982056 0.16357579827308655 0.4783869683742523 0.0 0.0 0.0 0.0
0.741 0.4040900766849518 0.3694532513618469 0.17869773507118225 0.4737034738063812 0.0 0.0 0.0 0.0
0.742 0.41731739044189453 0.35328346490859985 0.19366265833377838 0.4682597517967224 0.0 0.0 0.0 0.0
0.743 0.43032920360565186 0.33715513348579407 0.20954103767871857 0.46131253242492676 0.0 0.0 0.0 0.0
0.744 0.44352367520332336 0.3205793797969818 0.22537818551063538 0.4540061950683594 0.0 0.0 0.0 0.0
0.745 0.45460256934165955 0.3038836121559143 0.23808863759040833 0.4458347260951996 0.0 0.0 0.0 0.0
0.746 0.4663248658180237 0.28824111819267273 0.251562237739563 0.4375852048397064 0.0 0.0 0.0 0.0
0.747 0.4777555465698242 0.27167752385139465 0.2645263075828552 0.42919689416885376 0.0 0.0 0.0 0.0
0.748 0.4895128905773163 0.25456199049949646 0.2768683433532715 0.4215237498283386 0.0 0.0 0.0 0.0
0.749 0.500758945941925 0.2363627403974533 0.2890053689479828 0.41422125697135925 0.0 0.0 0.0 0.0
0.75 0.5113402009010315 0.2170715481042862 0.3026209771633148 0.4063628911972046 0.0 0.0 0.0 0.0
0.751 0.5195212364196777 0.19690079987049103 0.3166947662830353 0.398069828748703 0.0 0.0 0.0 0.0
0.752 0.5267422795295715 0.1774776577949524 0.3299069404602051 0.3877274692058563 0.0 0.0 0.0 0.0
0.753 0.5339725017547607 0.1579582542181015 0.343169629573822 0.3771948218345642 0.0 0.0 0.0 0.0
0.754 0.5398743748664856 0.139296755194664 0.3550886809825897 0.3662189543247223 0.0 0.0 0.0 0.0
0.755 0.5450387001037598 0.12118735909461975 0.36715108156204224 0.3550991415977478 0.0 0.0 0.0 0.0
0.756 0.5501005053520203 0.10116207599639893 0.3796681761741638 0.3422779440879822 0.0 0.0 0.0 0.0
0.757 0.5547895431518555 0.08379021286964417 0.38932880759239197 0.33011141419410706 0.0 0.0 0.0 0.0
0.758 0.5593001246452332 0.06595499813556671 0.3986559808254242 0.31808891892433167 0.0 0.0 0.0 0.0
0.759 0.5636330842971802 0.04671267792582512 0.40842360258102417 0.30634447932243347 0.0 0.0 0.0 0.0
0.76 0.5676143765449524 0.025679901242256165 0.41831910610198975 0.294865220785141 0.0 0.0 0.0 0.0
0.761 0.5696024298667908 0.006582241505384445 0.42858025431632996 0.28259944915771484 0.0 0.0 0.0 0.0
0.762 0.5712671279907227 -0.012595027685165405 0.43821460008621216 0.26910072565078735 0.0 0.0 0.0 0.0
0.763 0.5726351141929626 -0.032088786363601685 0.44714125990867615 0.25598663091659546 0.0 0.0 0.0 0.0
0.764 0.5730156898498535 -0.05191054940223694 0.4560542106628418 0.2422981560230255 0.0 0.0 0.0 0.0
0.765 0.5728293657302856 -0.0713581070303917 0.46464914083480835 0.22791717946529388 0.0 0.0 0.0 0.0
0.766 0.5720348358154297 -0.09131929278373718 0.47341418266296387 0.21382538974285126 0.0 0.0 0.0 0.0
0.767 0.5702188611030579 -0.10990041494369507 0.4813747704029083 0.19958451390266418 0.0 0.0 0.0 0.0
0.768 0.5677599906921387 -0.1286286860704422 0.48891741037368774 0.1829589307308197 0.0 0.0 0.0 0.0
0.769 0.5643349885940552 -0.14600124955177307 0.4958004951477051 0.1670813262462616 0.0 0.0 0.0 0.0
0.77 0.5613268613815308 -0.16470712423324585 0.5015521049499512 0.15066589415073395 0.0 0.0 0.0 0.0
0.771 0.5580350756645203 -0.1815156489610672 0.5066016316413879 0.13484197854995728 0.0 0.0 0.0 0.0
0.772 0.5549089908599854 -0.19893701374530792 0.5111112594604492 0.11920943111181259 0.0 0.0 0.0 0.0
0.773 0.5507512092590332 -0.21659086644649506 0.5158658623695374 0.10304046422243118 0.0 0.0 0.0 0.0
0.774 0.546071469783783 -0.23406557738780975 0.5202051997184753 0.08660562336444855 0.0 0.0 0.0 0.0
0.775 0.5411031246185303 -0.2516053318977356 0.5232177376747131 0.06965882331132889 0.0 0.0 0.0 0.0
0.776 0.5368486642837524 -0.2686407268047333 0.5257872939109802 0.05465799942612648 0.0 0.0 0.0 0.0
0.777 0.5307859182357788 -0.2873269021511078 0.5296652913093567 0.03787119314074516 0.0 0.0 0.0 0.0
0.778 0.523614227771759 -0.30451202392578125 0.5329615473747253 0.022439412772655487 0.0 0.0 0.0 0.0
0.779 0.5152395963668823 -0.32277581095695496 0.5359116792678833 0.005432100035250187 0.0 0.0 0.0 0.0
0.78 0.5070375800132751 -0.3400024175643921 0.5386289954185486 -0.012700340710580349 0.0 0.0 0.0 0.0
0.781 0.4966221749782562 -0.3562612235546112 0.5412800312042236 -0.03087710216641426 0.0 0.0 0.0 0.0
0.782 0.4857877194881439 -0.37107858061790466 0.5422853231430054 -0.05059149116277695 0.0 0.0 0.0 0.0
0.783 0.4754635989665985 -0.38620373606681824 0.5421584248542786 -0.07027550786733627 0.0 0.0 0.0 0.0
0.784 0.4646080732345581 -0.39884641766548157 0.5401403903961182 -0.0900387316942215 0.0 0.0 0.0 0.0
0.785 0.45512741804122925 -0.4122059643268585 0.5377368330955505 -0.10909316688776016 0.0 0.0 0.0 0.0
0.786 0.44410020112991333 -0.4258176386356354 0.5347877144813538 -0.12767553329467773 0.0 0.0 0.0 0.0
0.787 0.4338454604148865 -0.43874573707580566 0.5329093933105469 -0.14557234942913055 0.0 0.0 0.0 0.0
0.788 0.42083969712257385 -0.45129871368408203 0.5290418267250061 -0.16618801653385162 0.0 0.0 0.0 0.0
0.789 0.40919286012649536 -0.46266889572143555 0.5237411856651306 -0.18647703528404236 0.0 0.0 0.0 0.0
0.79 0.39761146903038025 -0.4726908504962921 0.5173507928848267 -0.2063637673854828 0.0 0.0 0.0 0.0
0.791 0.3853025734424591 -0.4824274778366089 0.5088192820549011 -0.2262592613697052 0.0 0.0 0.0 0.0
0.792 0.37621957063674927 -0.4922918677330017 0.5000856518745422 -0.24493995308876038 0.0 0.0 0.0 0.0
0.793 0.36699378490448 -0.5002896785736084 0.48851659893989563 -0.260178804397583 0.0 0.0 0.0 0.0
0.794 0.3578018844127655 -0.5121986865997314 0.47853344678878784 -0.2752939462661743 0.0 0.0 0.0 0.0
0.795 0.34781381487846375 -0.5241073369979858 0.4685404598712921 -0.2888040542602539 0.0 0.0 0.0 0.0
0.796 0.3367629051208496 -0.5364559292793274 0.46024391055107117 -0.3029368221759796 0.0 0.0 0.0 0.0
0.797 0.32401829957962036 -0.5484501123428345 0.45195236802101135 -0.31794488430023193 0.0 0.0 0.0 0.0
0.798 0.3107508718967438 -0.5595081448554993 0.44294723868370056 -0.33285218477249146 0.0 0.0 0.0 0.0
0.799 0.2975004017353058 -0.5701756477355957 0.43357232213020325 -0.3484732508659363 0.0 0.0 0.0 0.0
0.8 0.28296831250190735 -0.579602062702179 0.4223940074443817 -0.3641234338283539 0.0 0.0 0.0 0.0
0.801 0.2683181166648865 -0.5885498523712158 0.4104970395565033 -0.3794024884700775 0.0 0.0 0.0 0.0
0.802 0.2542557418346405 -0.598019540309906 0.39859309792518616 -0.39412641525268555 0.0 0.0 0.0 0.0
0.803 0.2392115443944931 -0.6072218418121338 0.3867473304271698 -0.40795961022377014 0.0 0.0 0.0 0.0
0.804 0.22490228712558746 -0.614533543586731 0.3756433129310608 -0.4224664568901062 0.0 0.0 0.0 0.0
0.805 0.20759958028793335 -0.6212518811225891 0.3598926365375519 -0.43801137804985046 0.0 0.0 0.0 0.0
0.806 0.19228783249855042 -0.6263832449913025 0.3444223999977112 -0.451513409614563 0.0 0.0 0.0 0.0
0.807 0.1784960925579071 -0.6319643259048462 0.32767316699028015 -0.46454790234565735 0.0 0.0 0.0 0.0
0.808 0.16497446596622467 -0.6374228596687317 0.3100452125072479 -0.4757774770259857 0.0 0.0 0.0 0.0
0.809 0.15015557408332825 -0.6435503363609314 0.29226964712142944 -0.48508355021476746 0.0 0.0 0.0 0.0
0.81 0.13624846935272217 -0.6504775285720825 0.27623888850212097 -0.494029700756073 0.0 0.0 0.0 0.0
0.811 0.12117840349674225 -0.655931293964386 0.26004496216773987 -0.5018572211265564 0.0 0.0 0.0 0.0
0.812 0.1051313728094101 -0.6634761095046997 0.24427248537540436 -0.5110430717468262 0.0 0.0 0.0 0.0
0.813 0.08691984415054321 -0.6685289144515991 0.22849856317043304 -0.5189637541770935 0.0 0.0 0.0 0.0
0.814 0.07071109861135483 -0.6737908720970154 0.21189524233341217 -0.528803825378418 0.0 0.0 0.0 0.0
0.815 0.05267763510346413 -0.6768149733543396 0.19368745386600494 -0.5374855399131775 0.0 0.0 0.0 0.0
0.816 0.03482040390372276 -0.6803361773490906 0.17486844956874847 -0.5449602603912354 0.0 0.0 0.0 0.0
0.817 0.018110958859324455 -0.6838116645812988 0.15619425475597382 -0.5503261685371399 0.0 0.0 0.0 0.0
0.818 0.0018271133303642273 -0.6870132684707642 0.1390354335308075 -0.5555122494697571 0.0 0.0 0.0 0.0
0.819 -0.018329227343201637 -0.6888312101364136 0.12016457319259644 -0.5619188547134399 0.0 0.0 0.0 0.0
0.82 -0.037151314318180084 -0.690497100353241 0.10162035375833511 -0.5670497417449951 0.0 0.0 0.0 0.0
0.821 -0.054738372564315796 -0.6914092302322388 0.08377546072006226 -0.5719243884086609 0.0 0.0 0.0 0.0
0.822 -0.0744137391448021 -0.6906499266624451 0.06360138952732086 -0.5769501328468323 0.0 0.0 0.0 0.0
0.823 -0.09356024116277695 -0.6889573931694031 0.04273895174264908 -0.5806807279586792 0.0 0.0 0.0 0.0
0.824 -0.11169713735580444 -0.687251091003418 0.0228241216391325 -0.582869827747345 0.0 0.0 0.0 0.0
0.825 -0.13030456006526947 -0.6841827034950256 0.0011580130085349083 -0.5841702222824097 0.0 0.0 0.0 0.0
0.826 -0.14786303043365479 -0.6811687350273132 -0.020338397473096848 -0.5846782922744751 0.0 0.0 0.0 0.0
0.827 -0.16640408337116241 -0.6787096261978149 -0.041426267474889755 -0.5837004780769348 0.0 0.0 0.0 0.0
0.828 -0.18471038341522217 -0.6758809089660645 -0.06037663668394089 -0.5823500156402588 0.0 0.0 0.0 0.0
0.829 -0.20355473458766937 -0.6714022159576416 -0.0806925967335701 -0.5808407068252563 0.0 0.0 0.0 0.0
0.83 -0.22224728763103485 -0.6664921045303345 -0.1010599359869957 -0.5790011882781982 0.0 0.0 0.0 0.0
0.831 -0.2412826418876648 -0.6606613993644714 -0.1209908127784729 -0.5765141844749451 0.0 0.0 0.0 0.0
0.832 -0.2594160735607147 -0.653866171836853 -0.14079172909259796 -0.5742449760437012 0.0 0.0 0.0 0.0
0.833 -0.27857664227485657 -0.6447348594665527 -0.16476738452911377 -0.5694053173065186 0.0 0.0 0.0 0.0
0.834 -0.2943992018699646 -0.6362897753715515 -0.18520162999629974 -0.5631204843521118 0.0 0.0 0.0 0.0
0.835 -0.3114079236984253 -0.6290818452835083 -0.20528356730937958 -0.556776762008667 0.0 0.0 0.0 0.0
0.836 -0.32900360226631165 -0.6210116147994995 -0.2241939902305603 -0.5494213104248047 0.0 0.0 0.0 0.0
0.837 -0.3468013107776642 -0.6099969148635864 -0.24407228827476501 -0.5413649678230286 0.0 0.0 0.0 0.0
0.838 -0.36417147517204285 -0.5995152592658997 -0.26477062702178955 -0.5335497856140137 0.0 0.0 0.0 0.0
0.839 -0.3806881308555603 -0.588668167591095 -0.28402575850486755 -0.5242986679077148 0.0 0.0 0.0 0.0
0.84 -0.39578717947006226 -0.5770288109779358 -0.30124470591545105 -0.5140796303749084 0.0 0.0 0.0 0.0
0.841 -0.4120255410671234 -0.5640729069709778 -0.3216632306575775 -0.5032989978790283 0.0 0.0 0.0 0.0
0.842 -0.4271584451198578 -0.5513591766357422 -0.33971354365348816 -0.4925377666950226 0.0 0.0 0.0 0.0
0.843 -0.44277891516685486 -0.5363105535507202 -0.35909152030944824 -0.4796083867549896 0.0 0.0 0.0 0.0
0.844 -0.45606449246406555 -0.5228639841079712 -0.3757871091365814 -0.46665728092193604 0.0 0.0 0.0 0.0
0.845 -0.46901723742485046 -0.5079934597015381 -0.3922639787197113 -0.4521840810775757 0.0 0.0 0.0 0.0
0.846 -0.4819861650466919 -0.49292296171188354 -0.4091391861438751 -0.43691185116767883 0.0 0.0 0.0 0.0
0.847 -0.49494537711143494 -0.4774392247200012 -0.4248087406158447 -0.42233768105506897 0.0 0.0 0.0 0.0
0.848 -0.5070393085479736 -0.46115317940711975 -0.43988433480262756 -0.40651801228523254 0.0 0.0 0.0 0.0
0.849 -0.5172644257545471 -0.4456000030040741 -0.45436763763427734 -0.3898891806602478 0.0 0.0 0.0 0.0
0.85 -0.5278480052947998 -0.4288540482521057 -0.46769753098487854 -0.3721369504928589 0.0 0.0 0.0 0.0
0.851 -0.5389035940170288 -0.4120118021965027 -0.480396568775177 -0.3545764088630676 0.0 0.0 0.0 0.0
0.852 -0.5486108064651489 -0.39398565888404846 -0.4913976788520813 -0.3374997675418854 0.0 0.0 0.0 0.0
0.853 -0.5582761764526367 -0.3761647045612335 -0.503142774105072 -0.3193106949329376 0.0 0.0 0.0 0.0
0.854 -0.5668966174125671 -0.357530802488327 -0.5143104195594788 -0.3018859922885895 0.0 0.0 0.0 0.0
0.855 -0.5746603608131409 -0.3372170925140381 -0.5259556174278259 -0.28303924202919006 0.0 0.0 0.0 0.0
0.856 -0.5803543925285339 -0.31762954592704773 -0.5364090800285339 -0.26323068141937256 0.0 0.0 0.0 0.0
0.857 -0.5850023031234741 -0.2986770570278168 -0.5453972220420837 -0.24092774093151093 0.0 0.0 0.0 0.0
0.858 -0.5897813439369202 -0.2805171608924866 -0.5519030094146729 -0.2199321836233139 0.0 0.0 0.0 0.0
0.859 -0.5941106081008911 -0.26221370697021484 -0.5582466721534729 -0.20015372335910797 0.0 0.0 0.0 0.0
0.86 -0.5988575220108032 -0.24219828844070435 -0.5640357136726379 -0.1783292293548584 0.0 0.0 0.0 0.0
0.861 -0.6017656922340393 -0.22345267236232758 -0.5689707398414612 -0.15683214366436005 0.0 0.0 0.0 0.0
0.862 -0.6036068797111511 -0.20441477000713348 -0.5722199082374573 -0.1354435831308365 0.0 0.0 0.0 0.0
0.863 -0.60611891746521 -0.18666961789131165 -0.5740510821342468 -0.1144692599773407 0.0 0.0 0.0 0.0
0.864 -0.6089158654212952 -0.16742366552352905 -0.5745881795883179 -0.09502366185188293 0.0 0.0 0.0 0.0
0.865 -0.6110485792160034 -0.14876005053520203 -0.5760436058044434 -0.07601747661828995 0.0 0.0 0.0 0.0
0.866 -0.6114410161972046 -0.12752991914749146 -0.5770840048789978 -0.05535018816590309 0.0 0.0 0.0 0.0
0.867 -0.6118930578231812 -0.10825204104185104 -0.5773608684539795 -0.036674775183200836 0.0 0.0 0.0 0.0
0.868 -0.6114747524261475 -0.08827562630176544 -0.5764744281768799 -0.01731814071536064 0.0 0.0 0.0 0.0
0.869 -0.6100132465362549 -0.06693801283836365 -0.5758635997772217 0.002381749451160431 0.0 0.0 0.0 0.0
0.87 -0.6074099540710449 -0.045591793954372406 -0.5751780271530151 0.020988335832953453 0.0 0.0 0.0 0.0
0.871 -0.6039211750030518 -0.024772966280579567 -0.574642539024353 0.04019830748438835 0.0 0.0 0.0 0.0
0.872 -0.5979876518249512 -0.004436352290213108 -0.572367787361145 0.06109379976987839 0.0 0.0 0.0 0.0
0.873 -0.5917702317237854 0.015964780002832413 -0.5691269040107727 0.08259817212820053 0.0 0.0 0.0 0.0
0.874 -0.5851831436157227 0.03323432803153992 -0.5648748278617859 0.10123220831155777 0.0 0.0 0.0 0.0
0.875 -0.5777042508125305 0.05168864130973816 -0.5595015287399292 0.12131344527006149 0.0 0.0 0.0 0.0
0.876 -0.5698275566101074 0.06922134757041931 -0.5524115562438965 0.14135998487472534 0.0 0.0 0.0 0.0
0.877 -0.5627642273902893 0.08567345887422562 -0.5456791520118713 0.1597888171672821 0.0 0.0 0.0 0.0
0.878 -0.5549954771995544 0.10300283879041672 -0.5379794239997864 0.17718200385570526 0.0 0.0 0.0 0.0
0.879 -0.5465640425682068 0.1199427992105484 -0.5301807522773743 0.19463138282299042 0.0 0.0 0.0 0.0
0.88 -0.5371939539909363 0.13684700429439545 -0.5221194624900818 0.21184541285037994 0.0 0.0 0.0 0.0
0.881 -0.5259066820144653 0.1542237401008606 -0.5136916637420654 0.23003987967967987 0.0 0.0 0.0 0.0
0.882 -0.5147472620010376 0.16888613998889923 -0.5045232176780701 0.24741984903812408 0.0 0.0 0.0 0.0
0.883 -0.5041323304176331 0.181920126080513 -0.4928664267063141 0.26339834928512573 0.0 0.0 0.0 0.0
0.884 -0.49260851740837097 0.19672885537147522 -0.48076534271240234 0.2797658145427704 0.0 0.0 0.0 0.0
0.885 -0.4821472465991974 0.2098359912633896 -0.4683268666267395 0.29389387369155884 0.0 0.0 0.0 0.0
0.886 -0.47175076603889465 0.22299090027809143 -0.45490583777427673 0.30771180987358093 0.0 0.0 0.0 0.0
0.887 -0.46149003505706787 0.23710061609745026 -0.4428246021270752 0.3198476731777191 0.0 0.0 0.0 0.0
0.888 -0.4501008987426758 0.2515479326248169 -0.4311046898365021 0.3304571211338043 0.0 0.0 0.0 0.0
0.889 -0.43768805265426636 0.2658286392688751 -0.4196033477783203 0.3430306017398834 0.0 0.0 0.0 0.0
0.89 -0.4252244532108307 0.27865394949913025 -0.4084470868110657 0.3540210723876953 0.0 0.0 0.0 0.0
0.891 -0.41054457426071167 0.2923860251903534 -0.39430442452430725 0.36698606610298157 0.0 0.0 0.0 0.0
0.892 -0.39699840545654297 0.30510175228118896 -0.3838707208633423 0.37600305676460266 0.0 0.0 0.0 0.0
0.893 -0.38184309005737305 0.3185478448867798 -0.371242493391037 0.38740769028663635 0.0 0.0 0.0 0.0
0.894 -0.36602023243904114 0.32916608452796936 -0.3591461479663849 0.3980381190776825 0.0 0.0 0.0 0.0
0.895 -0.3491980731487274 0.34009626507759094 -0.34612950682640076 0.4077529013156891 0.0 0.0 0.0 0.0
0.896 -0.3322214186191559 0.3515692949295044 -0.3337116837501526 0.41842320561408997 0.0 0.0 0.0 0.0
0.897 -0.3147382140159607 0.36034971475601196 -0.32009634375572205 0.4284563958644867 0.0 0.0 0.0 0.0
0.898 -0.29705923795700073 0.367756724357605 -0.3062177300453186 0.4389742612838745 0.0 0.0 0.0 0.0
0.899 -0.2805175185203552 0.3743157386779785 -0.2902076542377472 0.44746607542037964 0.0 0.0 0.0 0.0
0.9 -0.2656911611557007 0.37742215394973755 -0.2751636803150177 0.4548181891441345 0.0 0.0 0.0 0.0
0.901 -0.24937015771865845 0.3858409523963928 -0.26317262649536133 0.46244171261787415 0.0 0.0 0.0 0.0
0.902 -0.22874794900417328 0.39281874895095825 -0.24777264893054962 0.4721336364746094 0.0 0.0 0.0 0.0
0.903 -0.21111561357975006 0.39624154567718506 -0.2331734597682953 0.47947537899017334 0.0 0.0 0.0 0.0
0.904 -0.1935073584318161 0.3996748626232147 -0.21589691936969757 0.48573875427246094 0.0 0.0 0.0 0.0
0.905 -0.1769869029521942 0.40385642647743225 -0.20007799565792084 0.49163487553596497 0.0 0.0 0.0 0.0
0.906 -0.158726304769516 0.4074711799621582 -0.1841522753238678 0.4965610206127167 0.0 0.0 0.0 0.0
0.907 -0.14151187241077423 0.4105483591556549 -0.16965323686599731 0.5013321042060852 0.0 0.0 0.0 0.0
0.908 -0.12374658137559891 0.41278883814811707 -0.153481587767601 0.5063511729240417 0.0 0.0 0.0 0.0
0.909 -0.10617752373218536 0.4145442843437195 -0.13733956217765808 0.5103997588157654 0.0 0.0 0.0 0.0
0.91 -0.08694363385438919 0.41547200083732605 -0.12094632536172867 0.5140638947486877 0.0 0.0 0.0 0.0
0.911 -0.06934403628110886 0.41604164242744446 -0.10532283037900925 0.5180157423019409 0.0 0.0 0.0 0.0
0.912 -0.052162714302539825 0.41513678431510925 -0.08984041959047318 0.5197153091430664 0.0 0.0 0.0 0.0
0.913 -0.034843262284994125 0.4148878753185272 -0.07265322655439377 0.522407054901123 0.0 0.0 0.0 0.0
0.914 -0.017599884420633316 0.41396769881248474 -0.05810370296239853 0.5248345136642456 0.0 0.0 0.0 0.0
0.915 0.000861072912812233 0.41203027963638306 -0.04166344180703163 0.5267736315727234 0.0 0.0 0.0 0.0
0.916 0.018316112458705902 0.4087115526199341 -0.02494739182293415 0.5276087522506714 0.0 0.0 0.0 0.0
0.917 0.034720756113529205 0.40559518337249756 -0.008056223392486572 0.5283810496330261 0.0 0.0 0.0 0.0
0.918 0.052253205329179764 0.4022492468357086 0.009132040664553642 0.529077410697937 0.0 0.0 0.0 0.0
0.919 0.06900667399168015 0.39746081829071045 0.02527252584695816 0.5283332467079163 0.0 0.0 0.0 0.0
0.92 0.0854879766702652 0.39255794882774353 0.041832905262708664 0.5278264284133911 0.0 0.0 0.0 0.0
0.921 0.10221774131059647 0.38672322034835815 0.05927693843841553 0.5265283584594727 0.0 0.0 0.0 0.0
0.922 0.11787599325180054 0.38054031133651733 0.07591243088245392 0.5252317190170288 0.0 0.0 0.0 0.0
0.923 0.1322532743215561 0.3740726113319397 0.09276687353849411 0.5227002501487732 0.0 0.0 0.0 0.0
0.924 0.14645680785179138 0.367667555809021 0.10850796848535538 0.5182629227638245 0.0 0.0 0.0 0.0
0.925 0.16192251443862915 0.36113598942756653 0.12581828236579895 0.5155530571937561 0.0 0.0 0.0 0.0
0.926 0.1775861531496048 0.35369420051574707 0.14184625446796417 0.5126932263374329 0.0 0.0 0.0 0.0
0.927 0.1910671442747116 0.34522300958633423 0.15858964622020721 0.5087314248085022 0.0 0.0 0.0 0.0
0.928 0.2045356035232544 0.3361351490020752 0.1760968118906021 0.5031644105911255 0.0 0.0 0.0 0.0
0.929 0.2170402854681015 0.3271934688091278 0.19299142062664032 0.4970196485519409 0.0 0.0 0.0 0.0
0.93 0.22942432761192322 0.3187662959098816 0.20796296000480652 0.49011683464050293 0.0 0.0 0.0 0.0
0.931 0.24253050982952118 0.310192346572876 0.2236119955778122 0.48364630341529846 0.0 0.0 0.0 0.0
0.932 0.2545897960662842 0.30082547664642334 0.240535706281662 0.4753600060939789 0.0 0.0 0.0 0.0
0.933 0.2664494812488556 0.2919313907623291 0.2544437050819397 0.46706080436706543 0.0 0.0 0.0 0.0
0.934 0.27882739901542664 0.28368079662323 0.2680172920227051 0.46013861894607544 0.0 0.0 0.0 0.0
0.935 0.2916671335697174 0.27264153957366943 0.28259092569351196 0.4527558982372284 0.0 0.0 0.0 0.0
0.936 0.30266502499580383 0.2608262002468109 0.2995002269744873 0.4434982240200043 0.0 0.0 0.0 0.0
0.937 0.31266021728515625 0.25007355213165283 0.31364279985427856 0.43421512842178345 0.0 0.0 0.0 0.0
0.938 0.32274264097213745 0.23898549377918243 0.3277910649776459 0.42360931634902954 0.0 0.0 0.0 0.0
0.939 0.3320353329181671 0.22886735200881958 0.34120973944664 0.41243863105773926 0.0 0.0 0.0 0.0
0.94 0.3422505259513855 0.21824879944324493 0.35428503155708313 0.4002309739589691 0.0 0.0 0.0 0.0
0.941 0.35230374336242676 0.20798318088054657 0.3653465509414673 0.3900361657142639 0.0 0.0 0.0 0.0
0.942 0.362786203622818 0.19617916643619537 0.3768077492713928 0.3790774643421173 0.0 0.0 0.0 0.0
0.943 0.3727027177810669 0.18432095646858215 0.38891899585723877 0.36865055561065674 0.0 0.0 0.0 0.0
0.944 0.3829324543476105 0.17018935084342957 0.4020480513572693 0.35672399401664734 0.0 0.0 0.0 0.0
0.945 0.39125487208366394 0.15762880444526672 0.4140663146972656 0.34564802050590515 0.0 0.0 0.0 0.0
0.946 0.3996330201625824 0.14376859366893768 0.4266091585159302 0.33280226588249207 0.0 0.0 0.0 0.0
0.947 0.4072163701057434 0.1291380673646927 0.43780988454818726 0.3199984133243561 0.0 0.0 0.0 0.0
0.948 0.4141261577606201 0.11568617075681686 0.44980132579803467 0.3067411780357361 0.0 0.0 0.0 0.0
0.949 0.41961240768432617 0.10158900171518326 0.46138307452201843 0.2914731204509735 0.0 0.0 0.0 0.0
0.95 0.425491064786911 0.08765633404254913 0.47178760170936584 0.27650371193885803 0.0 0.0 0.0 0.0
0.951 0.43103423714637756 0.07349192351102829 0.48138752579689026 0.2609325051307678 0.0 0.0 0.0 0.0
0.952 0.43633192777633667 0.060186177492141724 0.4906466007232666 0.24477382004261017 0.0 0.0 0.0 0.0
0.953 0.44158831238746643 0.0456707701086998 0.49934834241867065 0.22938154637813568 0.0 0.0 0.0 0.0
0.954 0.4469314217567444 0.03146492689847946 0.5076906085014343 0.21414685249328613 0.0 0.0 0.0 0.0
0.955 0.45114025473594666 0.01589186117053032 0.5166186094284058 0.19755926728248596 0.0 0.0 0.0 0.0
0.956 0.454038143157959 0.0010088523849844933 0.5247232913970947 0.1806558519601822 0.0 0.0 0.0 0.0
0.957 0.4562971889972687 -0.013865354470908642 0.5323327779769897 0.16215717792510986 0.0 0.0 0.0 0.0
0.958 0.4585794508457184 -0.02853655442595482 0.5388739109039307 0.1449727565050125 0.0 0.0 0.0 0.0
0.959 0.4603273868560791 -0.043980684131383896 0.5453560948371887 0.12592512369155884 0.0 0.0 0.0 0.0
0.96 0.46114644408226013 -0.05908215045928955 0.5510815978050232 0.10638720542192459 0.0 0.0 0.0 0.0
0.961 0.4605525732040405 -0.07267415523529053 0.5561413764953613 0.08644112944602966 0.0 0.0 0.0 0.0
0.962 0.460483580827713 -0.0871594175696373 0.5595229864120483 0.06519332528114319 0.0 0.0 0.0 0.0
0.963 0.4603263735771179 -0.10156994313001633 0.5617694854736328 0.044618673622608185 0.0 0.0 0.0 0.0
0.964 0.46031466126441956 -0.1131579652428627 0.5631304979324341 0.02459791675209999 0.0 0.0 0.0 0.0
0.965 0.4595317840576172 -0.12629055976867676 0.5633816123008728 0.003899643197655678 0.0 0.0 0.0 0.0
0.966 0.4595036804676056 -0.13885125517845154 0.5629196166992188 -0.017375925555825233 0.0 0.0 0.0 0.0
0.967 0.4588973820209503 -0.15167321264743805 0.5605078339576721 -0.036485522985458374 0.0 0.0 0.0 0.0
0.968 0.45896291732788086 -0.16498520970344543 0.5575981736183167 -0.05690461024641991 0.0 0.0 0.0 0.0
0.969 0.4591294825077057 -0.1772535741329193 0.5540496110916138 -0.07543840259313583 0.0 0.0 0.0 0.0
0.97 0.4584793150424957 -0.19176000356674194 0.5504019856452942 -0.09300582855939865 0.0 0.0 0.0 0.0
0.971 0.4581497013568878 -0.2061997652053833 0.5470497012138367 -0.11221368610858917 0.0 0.0 0.0 0.0
0.972 0.45752832293510437 -0.2196027785539627 0.5434266328811646 -0.12914688885211945 0.0 0.0 0.0 0.0
0.973 0.45551252365112305 -0.2339133769273758 0.5381579995155334 -0.14717169106006622 0.0 0.0 0.0 0.0
0.974 0.45286157727241516 -0.2480332851409912 0.5320502519607544 -0.16621296107769012 0.0 0.0 0.0 0.0
0.975 0.4501625895500183 -0.26286962628364563 0.5251685380935669 -0.18451498448848724 0.0 0.0 0.0 0.0
0.976 0.44840192794799805 -0.2764865756034851 0.5177733302116394 -0.2008841633796692 0.0 0.0 0.0 0.0
0.977 0.4462544023990631 -0.29124730825424194 0.5109457969665527 -0.21619872748851776 0.0 0.0 0.0 0.0
0.978 0.4415343403816223 -0.30762097239494324 0.5037605166435242 -0.2330332249403 0.0 0.0 0.0 0.0
0.979 0.4359801113605499 -0.32404693961143494 0.4974973499774933 -0.2502215504646301 0.0 0.0 0.0 0.0
0.98 0.43093517422676086 -0.33818596601486206 0.48857149481773376 -0.2678740620613098 0.0 0.0 0.0 0.0
0.981 0.4251987636089325 -0.35195741057395935 0.4798175096511841 -0.28439995646476746 0.0 0.0 0.0 0.0
0.982 0.4189983308315277 -0.3658001720905304 0.4693017303943634 -0.3004802167415619 0.0 0.0 0.0 0.0
0.983 0.41202208399772644 -0.38036343455314636 0.45877164602279663 -0.31624335050582886 0.0 0.0 0.0 0.0
0.984 0.4049109220504761 -0.3941658139228821 0.44716697931289673 -0.33139345049858093 0.0 0.0 0.0 0.0
0.985 0.3975602686405182 -0.40902000665664673 0.4360532760620117 -0.3462960422039032 0.0 0.0 0.0 0.0
0.986 0.3896286189556122 -0.423096626996994 0.42462921142578125 -0.3608965277671814 0.0 0.0 0.0 0.0
0.987 0.3785316050052643 -0.4378327429294586 0.4120098054409027 -0.37672775983810425 0.0 0.0 0.0 0.0
0.988 0.369375079870224 -0.44993746280670166 0.3996240794658661 -0.3908957540988922 0.0 0.0 0.0 0.0
0.989 0.3594292104244232 -0.4623560905456543 0.38474732637405396 -0.40552857518196106 0.0 0.0 0.0 0.0
0.99 0.3497089445590973 -0.47374504804611206 0.3693886995315552 -0.41721323132514954 0.0 0.0 0.0 0.0
0.991 0.33914822340011597 -0.4854729175567627 0.35190990567207336 -0.430622398853302 0.0 0.0 0.0 0.0
0.992 0.32965782284736633 -0.4980177879333496 0.3367389142513275 -0.44100621342658997 0.0 0.0 0.0 0.0
0.993 0.3193655014038086 -0.509810745716095 0.32094934582710266 -0.44998276233673096 0.0 0.0 0.0 0.0
0.994 0.3089858889579773 -0.5222060084342957 0.3059583902359009 -0.45974698662757874 0.0 0.0 0.0 0.0
0.995 0.297053724527359 -0.5340190529823303 0.2890758812427521 -0.46928611397743225 0.0 0.0 0.0 0.0
0.996 0.28370752930641174 -0.5466311573982239 0.27362167835235596 -0.4784485697746277 0.0 0.0 0.0 0.0
0.997 0.2712098956108093 -0.5580436587333679 0.25857535004615784 -0.4863339960575104 0.0 0.0 0.0 0.0
0.998 0.25692883133888245 -0.5693467259407043 0.2420317530632019 -0.4950254261493683 0.0 0.0 0.0 0.0
0.999 0.24180062115192413 -0.5789519548416138 0.22481265664100647 -0.5027673840522766 0.0 0.0 0.0 0.0
1.0 0.22872479259967804 -0.5872366428375244 0.20818617939949036 -0.5094037652015686 0.0 0.0 0.0 0.0
1.001 0.2055741399526596 -0.6015594005584717 0.18032149970531464 -0.5254635810852051 0.0 0.0 0.0 0.0
1.002 0.19265806674957275 -0.610041618347168 0.16230440139770508 -0.5303676128387451 0.0 0.0 0.0 0.0
1.003 0.17727723717689514 -0.6175007224082947 0.1444360911846161 -0.5338867902755737 0.0 0.0 0.0 0.0
1.004 0.16098082065582275 -0.6263036727905273 0.1264546811580658 -0.5379868149757385 0.0 0.0 0.0 0.0
1.005 0.14430032670497894 -0.6335161328315735 0.10848057270050049 -0.5408875942230225 0.0 0.0 0.0 0.0
1.006 0.12737026810646057 -0.6406332850456238 0.09011927247047424 -0.54409259557724 0.0 0.0 0.0 0.0
1.007 0.10982806235551834 -0.646390974521637 0.07256218045949936 -0.5465424656867981 0.0 0.0 0.0 0.0
1.008 0.0904928669333458 -0.6523323059082031 0.054121874272823334 -0.5488091111183167 0.0 0.0 0.0 0.0
1.009 0.07281314581632614 -0.6564623117446899 0.03542123734951019 -0.5496615767478943 0.0 0.0 0.0 0.0
1.01 0.055816639214754105 -0.659205973148346 0.0165447648614645 -0.5496143698692322 0.0 0.0 0.0 0.0
1.011 0.037409454584121704 -0.6618186831474304 -0.0025902269408106804 -0.5487626791000366 0.0 0.0 0.0 0.0
1.012 0.020547930151224136 -0.6651715636253357 -0.020029067993164062 -0.5480569005012512 0.0 0.0 0.0 0.0
1.013 0.002067101188004017 -0.6670621633529663 -0.03926670923829079 -0.5460296869277954 0.0 0.0 0.0 0.0
1.014 -0.016219522804021835 -0.667654812335968 -0.05909958481788635 -0.5416311621665955 0.0 0.0 0.0 0.0
1.015 -0.03263607621192932 -0.6696801781654358 -0.07357670366764069 -0.5384098291397095 0.0 0.0 0.0 0.0
1.016 -0.05304824188351631 -0.6704193353652954 -0.09225582331418991 -0.5337763428688049 0.0 0.0 0.0 0.0
1.017 -0.07121960073709488 -0.6707801222801208 -0.10820232331752777 -0.5297521352767944 0.0 0.0 0.0 0.0
1.018 -0.08996129035949707 -0.6698530316352844 -0.12379231303930283 -0.5254331827163696 0.0 0.0 0.0 0.0
1.019 -0.110745370388031 -0.6682767868041992 -0.14078795909881592 -0.5207837224006653 0.0 0.0 0.0 0.0
1.02 -0.129546657204628 -0.6655657291412354 -0.1570245772600174 -0.5155414938926697 0.0 0.0 0.0 0.0
1.021 -0.14813418686389923 -0.6625832915306091 -0.17314782738685608 -0.5099048018455505 0.0 0.0 0.0 0.0
1.022 -0.16682948172092438 -0.6585816144943237 -0.1888711154460907 -0.5029415488243103 0.0 0.0 0.0 0.0
1.023 -0.18689215183258057 -0.6545170545578003 -0.20425920188426971 -0.4968298673629761 0.0 0.0 0.0 0.0
1.024 -0.20615743100643158 -0.648848295211792 -0.21945324540138245 -0.4896754324436188 0.0 0.0 0.0 0.0
1.025 -0.2239539623260498 -0.6418236494064331 -0.23457565903663635 -0.4821113049983978 0.0 0.0 0.0 0.0
1.026 -0.24369388818740845 -0.6344584822654724 -0.25074949860572815 -0.47360312938690186 0.0 0.0 0.0 0.0
1.027 -0.26226985454559326 -0.6272576451301575 -0.26435670256614685 -0.466152161359787 0.0 0.0 0.0 0.0
1.028 -0.280330091714859 -0.6176847815513611 -0.2787856161594391 -0.4576050341129303 0.0 0.0 0.0 0.0
1.029 -0.29829010367393494 -0.6070404648780823 -0.29490092396736145 -0.4474460780620575 0.0 0.0 0.0 0.0
1.03 -0.3152860403060913 -0.5975964665412903 -0.30906644463539124 -0.4378722310066223 0.0 0.0 0.0 0.0
1.031 -0.33096247911453247 -0.5871201753616333 -0.3218007981777191 -0.4285161793231964 0.0 0.0 0.0 0.0
1.032 -0.34655773639678955 -0.5749372243881226 -0.33546969294548035 -0.4167621433734894 0.0 0.0 0.0 0.0
1.033 -0.3633623421192169 -0.5628300905227661 -0.348629355430603 -0.40564286708831787 0.0 0.0 0.0 0.0
1.034 -0.37826570868492126 -0.5506173968315125 -0.36044952273368835 -0.39509281516075134 0.0 0.0 0.0 0.0
1.035 -0.39324039220809937 -0.5362876057624817 -0.37335404753685 -0.3828178346157074 0.0 0.0 0.0 0.0
1.036 -0.40766701102256775 -0.5212071537971497 -0.3861423432826996 -0.37067219614982605 0.0 0.0 0.0 0.0
1.037 -0.42033320665359497 -0.5069693326950073 -0.39836421608924866 -0.35684695839881897 0.0 0.0 0.0 0.0
1.038 -0.4326358735561371 -0.4934694468975067 -0.40762293338775635 -0.34384989738464355 0.0 0.0 0.0 0.0
1.039 -0.44476932287216187 -0.47857120633125305 -0.4182944893836975 -0.33060479164123535 0.0 0.0 0.0 0.0
1.04 -0.45733487606048584 -0.46197932958602905 -0.42829886078834534 -0.3159259557723999 0.0 0.0 0.0 0.0
1.041 -0.46818849444389343 -0.44697195291519165 -0.43729254603385925 -0.3033858835697174 0.0 0.0 0.0 0.0
1.042 -0.4779031574726105 -0.43147462606430054 -0.4460648000240326 -0.28994056582450867 0.0 0.0 0.0 0.0
1.043 -0.4888914227485657 -0.4136900007724762 -0.45531973242759705 -0.27417343854904175 0.0 0.0 0.0 0.0
1.044 -0.4993969202041626 -0.3949459493160248 -0.4639075994491577 -0.25995439291000366 0.0 0.0 0.0 0.0
1.045 -0.5074693560600281 -0.3798671066761017 -0.4707559645175934 -0.24645036458969116 0.0 0.0 0.0 0.0
1.046 -0.5156202912330627 -0.36208540201187134 -0.47859182953834534 -0.23184755444526672 0.0 0.0 0.0 0.0
1.047 -0.5235756635665894 -0.3429874777793884 -0.4856038987636566 -0.2170797735452652 0.0 0.0 0.0 0.0
1.048 -0.5304303765296936 -0.3239612281322479 -0.4930935204029083 -0.2017849087715149 0.0 0.0 0.0 0.0
1.049 -0.536501407623291 -0.30495744943618774 -0.49959275126457214 -0.18654894828796387 0.0 0.0 0.0 0.0
1.05 -0.5410880446434021 -0.2858843207359314 -0.5056942105293274 -0.17070503532886505 0.0 0.0 0.0 0.0
1.051 -0.5445961356163025 -0.2667340636253357 -0.5110422372817993 -0.1554212123155594 0.0 0.0 0.0 0.0
1.052 -0.5486091375350952 -0.24778994917869568 -0.5163506865501404 -0.13894200325012207 0.0 0.0 0.0 0.0
1.053 -0.5509344339370728 -0.22856569290161133 -0.5210822820663452 -0.12238854169845581 0.0 0.0 0.0 0.0
1.054 -0.5522388815879822 -0.20945972204208374 -0.5249154567718506 -0.10674973577260971 0.0 0.0 0.0 0.0
1.055 -0.5538496375083923 -0.1901424378156662 -0.5289294719696045 -0.08975885063409805 0.0 0.0 0.0 0.0
1.056 -0.5543277263641357 -0.17124368250370026 -0.532093346118927 -0.07314532995223999 0.0 0.0 0.0 0.0
1.057 -0.5534977316856384 -0.15131141245365143 -0.534608006477356 -0.055507246404886246 0.0 0.0 0.0 0.0
1.058 -0.55198734998703 -0.13170850276947021 -0.5372999906539917 -0.03827793896198273 0.0 0.0 0.0 0.0
1.059 -0.5494408011436462 -0.11453567445278168 -0.5386536717414856 -0.022030705586075783 0.0 0.0 0.0 0.0
1.06 -0.5469146966934204 -0.09469018131494522 -0.5393205881118774 -0.0027644671499729156 0.0 0.0 0.0 0.0
1.061 -0.5435996055603027 -0.0787305161356926 -0.5392553210258484 0.01352756004780531 0.0 0.0 0.0 0.0
1.062 -0.5398654341697693 -0.059673670679330826 -0.5396189093589783 0.03059779666364193 0.0 0.0 0.0 0.0
1.063 -0.5352810621261597 -0.042269621044397354 -0.5388633608818054 0.0474998913705349 0.0 0.0 0.0 0.0
1.064 -0.5296009182929993 -0.024939708411693573 -0.5375189185142517 0.0665213093161583 0.0 0.0 0.0 0.0
1.065 -0.5231536030769348 -0.008166346698999405 -0.5356159806251526 0.08474891632795334 0.0 0.0 0.0 0.0
1.066 -0.5170828700065613 0.008289189077913761 -0.5329355001449585 0.10136189311742783 0.0 0.0 0.0 0.0
1.067 -0.51002436876297 0.02296045422554016 -0.5288252830505371 0.11915769428014755 0.0 0.0 0.0 0.0
1.068 -0.503708004951477 0.03814972564578056 -0.5247783660888672 0.13687750697135925 0.0 0.0 0.0 0.0
1.069 -0.4971216022968292 0.05329577624797821 -0.5193744897842407 0.15203757584095 0.0 0.0 0.0 0.0
1.07 -0.49000152945518494 0.06896834820508957 -0.5149410367012024 0.16821803152561188 0.0 0.0 0.0 0.0
1.071 -0.48248326778411865 0.08373655378818512 -0.5101191401481628 0.1831234246492386 0.0 0.0 0.0 0.0
1.072 -0.4737547039985657 0.09945511072874069 -0.5055090188980103 0.19956064224243164 0.0 0.0 0.0 0.0
1.073 -0.4638628661632538 0.11432734876871109 -0.4998752176761627 0.21664589643478394 0.0 0.0 0.0 0.0
1.074 -0.4533481001853943 0.12802435457706451 -0.4927104115486145 0.2332015484571457 0.0 0.0 0.0 0.0
1.075 -0.44342508912086487 0.14046849310398102 -0.4865818917751312 0.2482920140028 0.0 0.0 0.0 0.0
1.076 -0.43262526392936707 0.15376590192317963 -0.4787060618400574 0.26501262187957764 0.0 0.0 0.0 0.0
1.077 -0.422786682844162 0.1658463478088379 -0.4707581698894501 0.27962854504585266 0.0 0.0 0.0 0.0
1.078 -0.4112182855606079 0.1744810789823532 -0.46142110228538513 0.295732319355011 0.0 0.0 0.0 0.0
1.079 -0.39963847398757935 0.18630394339561462 -0.45361170172691345 0.30993616580963135 0.0 0.0 0.0 0.0
1.08 -0.3877066671848297 0.19802226126194 -0.4449630379676819 0.32370486855506897 0.0 0.0 0.0 0.0
1.081 -0.3755514323711395 0.20859552919864655 -0.4347136318683624 0.34056413173675537 0.0 0.0 0.0 0.0
1.082 -0.36237552762031555 0.2190384417772293 -0.42416268587112427 0.3556021749973297 0.0 0.0 0.0 0.0
1.083 -0.3498418927192688 0.2288990616798401 -0.41376641392707825 0.36884838342666626 0.0 0.0 0.0 0.0
1.084 -0.3372066915035248 0.23894992470741272 -0.4023537337779999 0.38275787234306335 0.0 0.0 0.0 0.0
1.085 -0.3237336277961731 0.24734216928482056 -0.39108043909072876 0.39595481753349304 0.0 0.0 0.0 0.0
1.086 -0.3103993237018585 0.2561275064945221 -0.3794479966163635 0.41004544496536255 0.0 0.0 0.0 0.0
1.087 -0.29630813002586365 0.26374587416648865 -0.36676889657974243 0.4231172800064087 0.0 0.0 0.0 0.0
1.088 -0.282111793756485 0.2710363566875458 -0.35317811369895935 0.43665313720703125 0.0 0.0 0.0 0.0
1.089 -0.2684493064880371 0.2772198021411896 -0.33978453278541565 0.44862568378448486 0.0 0.0 0.0 0.0
1.09 -0.25421372056007385 0.28318461775779724 -0.3247532546520233 0.46153098344802856 0.0 0.0 0.0 0.0
1.091 -0.23962613940238953 0.28923362493515015 -0.3102422058582306 0.4732765555381775 0.0 0.0 0.0 0.0
1.092 -0.22508056461811066 0.29447370767593384 -0.29413631558418274 0.4852365553379059 0.0 0.0 0.0 0.0
1.093 -0.21128495037555695 0.29870206117630005 -0.2784927785396576 0.49564602971076965 0.0 0.0 0.0 0.0
1.094 -0.19747647643089294 0.3028145730495453 -0.26224762201309204 0.5056458711624146 0.0 0.0 0.0 0.0
1.095 -0.1830371767282486 0.3066745102405548 -0.2454366832971573 0.51535564661026 0.0 0.0 0.0 0.0
1.096 -0.16929243505001068 0.30984413623809814 -0.2294665277004242 0.5242307186126709 0.0 0.0 0.0 0.0
1.097 -0.1547635942697525 0.3126480281352997 -0.2119712382555008 0.5328629016876221 0.0 0.0 0.0 0.0
1.098 -0.14037999510765076 0.3148813545703888 -0.193076953291893 0.5409980416297913 0.0 0.0 0.0 0.0
1.099 -0.12636320292949677 0.316998153924942 -0.17672088742256165 0.547738790512085 0.0 0.0 0.0 0.0
1.1 -0.11163317412137985 0.31854042410850525 -0.1566672921180725 0.5561081171035767 0.0 0.0 0.0 0.0
1.101 -0.09775172919034958 0.3191900849342346 -0.13802911341190338 0.5619676113128662 0.0 0.0 0.0 0.0
1.102 -0.08451000601053238 0.3192903399467468 -0.11939232051372528 0.5678611397743225 0.0 0.0 0.0 0.0
1.103 -0.07053691893815994 0.3192659020423889 -0.09926073253154755 0.5725415945053101 0.0 0.0 0.0 0.0
1.104 -0.057002194225788116 0.3188560903072357 -0.07876814156770706 0.5760543346405029 0.0 0.0 0.0 0.0
1.105 -0.04417306184768677 0.31837397813796997 -0.0593588650226593 0.5796500444412231 0.0 0.0 0.0 0.0
1.106 -0.03071247600018978 0.31755170226097107 -0.03904874250292778 0.5823974609375 0.0 0.0 0.0 0.0
1.107 -0.01785299740731716 0.31582000851631165 -0.018191596493124962 0.5843504071235657 0.0 0.0 0.0 0.0
1.108 -0.006430725567042828 0.31483060121536255 0.0023385854437947273 0.5848318338394165 0.0 0.0 0.0 0.0
1.109 0.006411237642168999 0.3135763704776764 0.021790504455566406 0.5841245055198669 0.0 0.0 0.0 0.0
1.11 0.02002841606736183 0.3121408522129059 0.04245363920927048 0.5840675234794617 0.0 0.0 0.0 0.0
1.111 0.03243860974907875 0.31058910489082336 0.06032716855406761 0.5835042595863342 0.0 0.0 0.0 0.0
1.112 0.0458223782479763 0.30819565057754517 0.08117672055959702 0.5826612710952759 0.0 0.0 0.0 0.0
1.113 0.057396113872528076 0.3050077259540558 0.10085781663656235 0.5804683566093445 0.0 0.0 0.0 0.0
1.114 0.07078511267900467 0.30144256353378296 0.12130588293075562 0.5783072710037231 0.0 0.0 0.0 0.0
1.115 0.08323298394680023 0.29759156703948975 0.14312326908111572 0.5732884407043457 0.0 0.0 0.0 0.0
1.116 0.0949205532670021 0.29347920417785645 0.1626337319612503 0.5687077045440674 0.0 0.0 0.0 0.0
1.117 0.107230044901371 0.288944810628891 0.18423931300640106 0.5634707808494568 0.0 0.0 0.0 0.0
1.118 0.11914429813623428 0.2844972610473633 0.20405913889408112 0.5575599670410156 0.0 0.0 0.0 0.0
1.119 0.13079173862934113 0.27946868538856506 0.22374239563941956 0.5493173003196716 0.0 0.0 0.0 0.0
1.12 0.14113856852054596 0.27540943026542664 0.2431129664182663 0.5420279502868652 0.0 0.0 0.0 0.0
1.121 0.15270917117595673 0.27023378014564514 0.26211076974868774 0.5337846875190735 0.0 0.0 0.0 0.0
1.122 0.16390612721443176 0.2649761438369751 0.2799849212169647 0.5240808725357056 0.0 0.0 0.0 0.0
1.123 0.1748049557209015 0.25983479619026184 0.2983331084251404 0.5149298906326294 0.0 0.0 0.0 0.0
1.124 0.1864003837108612 0.253720760345459 0.3174925148487091 0.5042805671691895 0.0 0.0 0.0 0.0
1.125 0.19763308763504028 0.24695847928524017 0.3348544239997864 0.49423491954803467 0.0 0.0 0.0 0.0
1.126 0.2085803747177124 0.2400827556848526 0.35292643308639526 0.4819410741329193 0.0 0.0 0.0 0.0
1.127 0.2182035595178604 0.23339232802391052 0.36959683895111084 0.4698307514190674 0.0 0.0 0.0 0.0
1.128 0.22850286960601807 0.2262653112411499 0.38711127638816833 0.4559667706489563 0.0 0.0 0.0 0.0
1.129 0.23830999433994293 0.21904848515987396 0.401384562253952 0.44320258498191833 0.0 0.0 0.0 0.0
1.13 0.2481314241886139 0.21154813468456268 0.41746821999549866 0.4281829297542572 0.0 0.0 0.0 0.0
1.131 0.2578256130218506 0.20413538813591003 0.4331701397895813 0.4123189449310303 0.0 0.0 0.0 0.0
1.132 0.2678830623626709 0.19637411832809448 0.4468887448310852 0.3969988226890564 0.0 0.0 0.0 0.0
1.133 0.27847108244895935 0.1872035562992096 0.46165621280670166 0.3808535933494568 0.0 0.0 0.0 0.0
1.134 0.28710854053497314 0.17864276468753815 0.47399505972862244 0.3653481900691986 0.0 0.0 0.0 0.0
1.135 0.29537293314933777 0.16936716437339783 0.4873349964618683 0.34870749711990356 0.0 0.0 0.0 0.0
1.136 0.30398499965667725 0.15973520278930664 0.5003846287727356 0.32860511541366577 0.0 0.0 0.0 0.0
1.137 0.31196415424346924 0.15144163370132446 0.510534942150116 0.31158512830734253 0.0 0.0 0.0 0.0
1.138 0.32020869851112366 0.14275440573692322 0.5203213691711426 0.29320278763771057 0.0 0.0 0.0 0.0
1.139 0.32874393463134766 0.1332874894142151 0.5298492908477783 0.2742995321750641 0.0 0.0 0.0 0.0
1.14 0.337451308965683 0.12273436784744263 0.5392415523529053 0.2548966109752655 0.0 0.0 0.0 0.0
1.141 0.34534600377082825 0.1120377704501152 0.5468224287033081 0.2360306978225708 0.0 0.0 0.0 0.0
1.142 0.35292279720306396 0.10238339751958847 0.5544974207878113 0.2177208960056305 0.0 0.0 0.0 0.0
1.143 0.3604997992515564 0.09019671380519867 0.5620169639587402 0.1972648948431015 0.0 0.0 0.0 0.0
1.144 0.36752763390541077 0.07862717658281326 0.5682938694953918 0.17695902287960052 0.0 0.0 0.0 0.0
1.145 0.3741142451763153 0.067410908639431 0.5739434361457825 0.1568145751953125 0.0 0.0 0.0 0.0
1.146 0.3800022602081299 0.05583810433745384 0.5783910751342773 0.13674846291542053 0.0 0.0 0.0 0.0
1.147 0.3854549825191498 0.04295918345451355 0.5824441909790039 0.11384087800979614 0.0 0.0 0.0 0.0
1.148 0.39135754108428955 0.030963733792304993 0.5848623514175415 0.09402250498533249 0.0 0.0 0.0 0.0
1.149 0.396481990814209 0.019625281915068626 0.5865639448165894 0.0728132575750351 0.0 0.0 0.0 0.0
1.15 0.4019392728805542 0.00740792416036129 0.5874295830726624 0.05290760472416878 0.0 0.0 0.0 0.0
1.151 0.4069724678993225 -0.0054499004036188126 0.5882476568222046 0.03340663015842438 0.0 0.0 0.0 0.0
1.152 0.41210371255874634 -0.018608903512358665 0.5881794691085815 0.012722810730338097 0.0 0.0 0.0 0.0
1.153 0.41581422090530396 -0.031629886478185654 0.5875121355056763 -0.007325831800699234 0.0 0.0 0.0 0.0
1.154 0.419860303401947 -0.04562228173017502 0.5856540203094482 -0.027309618890285492 0.0 0.0 0.0 0.0
1.155 0.4237625002861023 -0.060000136494636536 0.5838355422019958 -0.04723981022834778 0.0 0.0 0.0 0.0
1.156 0.42683374881744385 -0.07415878772735596 0.5816795229911804 -0.06667771190404892 0.0 0.0 0.0 0.0
1.157 0.4287928342819214 -0.0892328992486 0.5783449411392212 -0.08724531531333923 0.0 0.0 0.0 0.0
1.158 0.4307554066181183 -0.10388385504484177 0.5752214193344116 -0.1055927723646164 0.0 0.0 0.0 0.0
1.159 0.4316070079803467 -0.118623748421669 0.5701807737350464 -0.1255343109369278 0.0 0.0 0.0 0.0
1.16 0.4323866665363312 -0.13423484563827515 0.5645615458488464 -0.14591345191001892 0.0 0.0 0.0 0.0
1.161 0.4321644604206085 -0.14947384595870972 0.5592071413993835 -0.16529510915279388 0.0 0.0 0.0 0.0
1.162 0.43094485998153687 -0.16552045941352844 0.5522810220718384 -0.18421168625354767 0.0 0.0 0.0 0.0
1.163 0.4301818609237671 -0.18007712066173553 0.5448912382125854 -0.2032240927219391 0.0 0.0 0.0 0.0
1.164 0.4286680519580841 -0.1938614398241043 0.537812352180481 -0.22009827196598053 0.0 0.0 0.0 0.0
1.165 0.42524951696395874 -0.21059450507164001 0.5283257961273193 -0.24093197286128998 0.0 0.0 0.0 0.0
1.166 0.42300277948379517 -0.22420670092105865 0.5197586417198181 -0.256753146648407 0.0 0.0 0.0 0.0
1.167 0.4195461869239807 -0.23945333063602448 0.5084056854248047 -0.27525246143341064 0.0 0.0 0.0 0.0
1.168 0.4156544804573059 -0.25335821509361267 0.49834930896759033 -0.2916549742221832 0.0 0.0 0.0 0.0
1.169 0.4112015962600708 -0.2684827446937561 0.4870530068874359 -0.3075612485408783 0.0 0.0 0.0 0.0
1.17 0.4064244031906128 -0.2832319140434265 0.47497737407684326 -0.32340139150619507 0.0 0.0 0.0 0.0
1.171 0.40109553933143616 -0.29722875356674194 0.4634052515029907 -0.3384014070034027 0.0 0.0 0.0 0.0
1.172 0.39534857869148254 -0.3113430142402649 0.4503547251224518 -0.3535379469394684 0.0 0.0 0.0 0.0
1.173 0.3887062966823578 -0.3259409964084625 0.4378613829612732 -0.36794155836105347 0.0 0.0 0.0 0.0
1.174 0.38141313195228577 -0.3400898277759552 0.4244571626186371 -0.3820178210735321 0.0 0.0 0.0 0.0
1.175 0.3731181025505066 -0.3535335063934326 0.4108605980873108 -0.39528462290763855 0.0 0.0 0.0 0.0
1.176 0.364836186170578 -0.36672431230545044 0.39628756046295166 -0.40842580795288086 0.0 0.0 0.0 0.0
1.177 0.35441854596138 -0.37988224625587463 0.3801741600036621 -0.4220292866230011 0.0 0.0 0.0 0.0
1.178 0.345100998878479 -0.392555296421051 0.3664197325706482 -0.433138906955719 0.0 0.0 0.0 0.0
1.179 0.33625277876853943 -0.403780996799469 0.3504374325275421 -0.4446598291397095 0.0 0.0 0.0 0.0
1.18 0.3268253207206726 -0.4147814214229584 0.335362046957016 -0.4545697569847107 0.0 0.0 0.0 0.0
1.181 0.31483298540115356 -0.427053838968277 0.3179657757282257 -0.4654872715473175 0.0 0.0 0.0 0.0
1.182 0.30351197719573975 -0.43826693296432495 0.3011605143547058 -0.47488537430763245 0.0 0.0 0.0 0.0
1.183 0.2927647531032562 -0.44853314757347107 0.2841705083847046 -0.4832938015460968 0.0 0.0 0.0 0.0
1.184 0.2810797691345215 -0.4581212103366852 0.267843633890152 -0.49048689007759094 0.0 0.0 0.0 0.0
1.185 0.2685959041118622 -0.468140572309494 0.2506102919578552 -0.4985496401786804 0.0 0.0 0.0 0.0
1.186 0.2556379437446594 -0.47845515608787537 0.23302242159843445 -0.5053099393844604 0.0 0.0 0.0 0.0
1.187 0.24377700686454773 -0.4870662987232208 0.2172551155090332 -0.5116122961044312 0.0 0.0 0.0 0.0
1.188 0.23006433248519897 -0.49495968222618103 0.19997592270374298 -0.5181189775466919 0.0 0.0 0.0 0.0
1.189 0.21620529890060425 -0.5017737150192261 0.18176652491092682 -0.523817777633667 0.0 0.0 0.0 0.0
1.19 0.20226475596427917 -0.5090140700340271 0.16453342139720917 -0.5280029773712158 0.0 0.0 0.0 0.0
1.191 0.18842875957489014 -0.5157942175865173 0.14555980265140533 -0.5321326851844788 0.0 0.0 0.0 0.0
1.192 0.17583192884922028 -0.5212650299072266 0.12920384109020233 -0.5346522927284241 0.0 0.0 0.0 0.0
1.193 0.16072231531143188 -0.5275775194168091 0.11129461228847504 -0.5373018383979797 0.0 0.0 0.0 0.0
1.194 0.1450853794813156 -0.5335572957992554 0.09388843923807144 -0.5395888686180115 0.0 0.0 0.0 0.0
1.195 0.1311027556657791 -0.538055956363678 0.07535219192504883 -0.5417091846466064 0.0 0.0 0.0 0.0
1.196 0.11625213176012039 -0.5416874885559082 0.057957060635089874 -0.5421368479728699 0.0 0.0 0.0 0.0
1.197 0.10068167001008987 -0.5460399389266968 0.040863316506147385 -0.5435596704483032 0.0 0.0 0.0 0.0
1.198 0.08364683389663696 -0.5490461587905884 0.02374105527997017 -0.5437677502632141 0.0 0.0 0.0 0.0
1.199 0.06882715970277786 -0.5509446859359741 0.005929786711931229 -0.5438404679298401 0.0 0.0 0.0 0.0
1.2 0.05350790545344353 -0.5515357851982117 -0.011155620217323303 -0.5431724786758423 0.0 0.0 0.0 0.0
1.201 0.03756913170218468 -0.552131175994873 -0.029109830036759377 -0.5420149564743042 0.0 0.0 0.0 0.0
1.202 0.022685280069708824 -0.5523316860198975 -0.046466633677482605 -0.5404310822486877 0.0 0.0 0.0 0.0
1.203 0.008033678866922855 -0.5516310334205627 -0.06423211097717285 -0.5379467010498047 0.0 0.0 0.0 0.0
1.204 -0.007389729842543602 -0.5494322180747986 -0.08246010541915894 -0.5336311459541321 0.0 0.0 0.0 0.0
1.205 -0.02190905436873436 -0.548442542552948 -0.0984974130988121 -0.530629575252533 0.0 0.0 0.0 0.0
1.206 -0.03635344281792641 -0.5464348196983337 -0.11562751233577728 -0.5262343883514404 0.0 0.0 0.0 0.0
1.207 -0.050405219197273254 -0.543664276599884 -0.13163162767887115 -0.520915150642395 0.0 0.0 0.0 0.0
1.208 -0.0648881196975708 -0.5406585335731506 -0.14840038120746613 -0.5152526497840881 0.0 0.0 0.0 0.0
1.209 -0.07915063947439194 -0.5373438596725464 -0.16473065316677094 -0.5103750228881836 0.0 0.0 0.0 0.0
1.21 -0.09399887174367905 -0.5330972671508789 -0.18049125373363495 -0.503812849521637 0.0 0.0 0.0 0.0
1.211 -0.10678915679454803 -0.5288742184638977 -0.19632725417613983 -0.496871680021286 0.0 0.0 0.0 0.0
1.212 -0.11967761814594269 -0.5235770344734192 -0.2120945304632187 -0.48940637707710266 0.0 0.0 0.0 0.0
1.213 -0.13345025479793549 -0.5183226466178894 -0.22737430036067963 -0.48215535283088684 0.0 0.0 0.0 0.0
1.214 -0.146178737282753 -0.512492299079895 -0.24206462502479553 -0.4732814133167267 0.0 0.0 0.0 0.0
1.215 -0.15747877955436707 -0.506843090057373 -0.25598010420799255 -0.4648691415786743 0.0 0.0 0.0 0.0
1.216 -0.17065945267677307 -0.5006041526794434 -0.2712019383907318 -0.45571327209472656 0.0 0.0 0.0 0.0
1.217 -0.1829080581665039 -0.4941812753677368 -0.28474029898643494 -0.44660869240760803 0.0 0.0 0.0 0.0
1.218 -0.19452457129955292 -0.487246572971344 -0.2978593707084656 -0.43735674023628235 0.0 0.0 0.0 0.0
1.219 -0.2054963856935501 -0.48022449016571045 -0.31082502007484436 -0.42746037244796753 0.0 0.0 0.0 0.0
1.22 -0.21665622293949127 -0.47226041555404663 -0.323100745677948 -0.41698139905929565 0.0 0.0 0.0 0.0
1.221 -0.22947126626968384 -0.4635998010635376 -0.3368488848209381 -0.40587759017944336 0.0 0.0 0.0 0.0
1.222 -0.23798690736293793 -0.4560323655605316 -0.3479676842689514 -0.39564165472984314 0.0 0.0 0.0 0.0
1.223 -0.24903401732444763 -0.44689926505088806 -0.35979002714157104 -0.38426804542541504 0.0 0.0 0.0 0.0
1.224 -0.25833702087402344 -0.43853768706321716 -0.37059518694877625 -0.37374091148376465 0.0 0.0 0.0 0.0
1.225 -0.26901736855506897 -0.4283023476600647 -0.383404016494751 -0.3609541654586792 0.0 0.0 0.0 0.0
1.226 -0.27710598707199097 -0.41902559995651245 -0.3943009078502655 -0.348349392414093 0.0 0.0 0.0 0.0
1.227 -0.28632256388664246 -0.40951472520828247 -0.40387094020843506 -0.33659887313842773 0.0 0.0 0.0 0.0
1.228 -0.29504823684692383 -0.3998357951641083 -0.4145781695842743 -0.3233432471752167 0.0 0.0 0.0 0.0
1.229 -0.3027830123901367 -0.3897164762020111 -0.42297300696372986 -0.31025293469429016 0.0 0.0 0.0 0.0
1.23 -0.3111802637577057 -0.38016068935394287 -0.43236565589904785 -0.29728224873542786 0.0 0.0 0.0 0.0
1.231 -0.3192090690135956 -0.3691653311252594 -0.4416910707950592 -0.2847505211830139 0.0 0.0 0.0 0.0
1.232 -0.3267950713634491 -0.35830676555633545 -0.4500151574611664 -0.27179720997810364 0.0 0.0 0.0 0.0
1.233 -0.33361610770225525 -0.3468948006629944 -0.4588501453399658 -0.2583593428134918 0.0 0.0 0.0 0.0
1.234 -0.33949822187423706 -0.33492258191108704 -0.46765658259391785 -0.24350570142269135 0.0 0.0 0.0 0.0
1.235 -0.3459596335887909 -0.32315555214881897 -0.4758983552455902 -0.22866666316986084 0.0 0.0 0.0 0.0
1.236 -0.35141345858573914 -0.31156831979751587 -0.48299598693847656 -0.2138109654188156 0.0 0.0 0.0 0.0
1.237 -0.35663846135139465 -0.30021825432777405 -0.4898271858692169 -0.19812420010566711 0.0 0.0 0.0 0.0
1.238 -0.3607231378555298 -0.2888522446155548 -0.4957543909549713 -0.18355530500411987 0.0 0.0 0.0 0.0
1.239 -0.3654315769672394 -0.27754443883895874 -0.5016027688980103 -0.16985467076301575 0.0 0.0 0.0 0.0
1.24 -0.3699842095375061 -0.26454052329063416 -0.5075957775115967 -0.15322747826576233 0.0 0.0 0.0 0.0
1.241 -0.3730815052986145 -0.25259193778038025 -0.5128090381622314 -0.13722699880599976 0.0 0.0 0.0 0.0
1.242 -0.3756787180900574 -0.24109922349452972 -0.5180327892303467 -0.12051443755626678 0.0 0.0 0.0 0.0
1.243 -0.3786730468273163 -0.22856321930885315 -0.5220561623573303 -0.10360005497932434 0.0 0.0 0.0 0.0
1.244 -0.38110867142677307 -0.21736282110214233 -0.5254839062690735 -0.08789008110761642 0.0 0.0 0.0 0.0
1.245 -0.38367268443107605 -0.20550164580345154 -0.5282726287841797 -0.07176762074232101 0.0 0.0 0.0 0.0
1.246 -0.38527539372444153 -0.19391056895256042 -0.5312183499336243 -0.05605492740869522 0.0 0.0 0.0 0.0
1.247 -0.3869601786136627 -0.18078486621379852 -0.5340995788574219 -0.03808640316128731 0.0 0.0 0.0 0.0
1.248 -0.3878149092197418 -0.16978353261947632 -0.5362076759338379 -0.02250804752111435 0.0 0.0 0.0 0.0
1.249 -0.38816243410110474 -0.1567496657371521 -0.5379262566566467 -0.004524482414126396 0.0 0.0 0.0 0.0
1.25 -0.38837361335754395 -0.14366815984249115 -0.5391754508018494 0.01380995288491249 0.0 0.0 0.0 0.0
1.251 -0.3871811628341675 -0.13273727893829346 -0.5397210717201233 0.030953513458371162 0.0 0.0 0.0 0.0
1.252 -0.3862605094909668 -0.12148275971412659 -0.5387411713600159 0.04979582875967026 0.0 0.0 0.0 0.0
1.253 -0.38511040806770325 -0.1106078028678894 -0.5372950434684753 0.06717493385076523 0.0 0.0 0.0 0.0
1.254 -0.38431838154792786 -0.09916952252388 -0.53550124168396 0.08548501133918762 0.0 0.0 0.0 0.0
1.255 -0.383419394493103 -0.08853446692228317 -0.5329107046127319 0.10194551944732666 0.0 0.0 0.0 0.0
1.256 -0.3822798728942871 -0.07758795469999313 -0.53030925989151 0.11871757358312607 0.0 0.0 0.0 0.0
1.257 -0.3806864023208618 -0.0664612278342247 -0.5272282361984253 0.1354438215494156 0.0 0.0 0.0 0.0
1.258 -0.37865152955055237 -0.05407748743891716 -0.523629367351532 0.15475799143314362 0.0 0.0 0.0 0.0
1.259 -0.375942587852478 -0.04292893037199974 -0.5207083821296692 0.17069469392299652 0.0 0.0 0.0 0.0
1.26 -0.3726474940776825 -0.03224943205714226 -0.5158899426460266 0.18821261823177338 0.0 0.0 0.0 0.0
1.261 -0.369081974029541 -0.021097207441926003 -0.5106682181358337 0.20642970502376556 0.0 0.0 0.0 0.0
1.262 -0.36511823534965515 -0.01055563148111105 -0.5041684508323669 0.22482818365097046 0.0 0.0 0.0 0.0
1.263 -0.36140111088752747 -0.0003762822598218918 -0.49723243713378906 0.24266688525676727 0.0 0.0 0.0 0.0
1.264 -0.35738298296928406 0.0084196412935853 -0.4893766939640045 0.2589050829410553 0.0 0.0 0.0 0.0
1.265 -0.3531010150909424 0.019336670637130737 -0.48091840744018555 0.27668505907058716 0.0 0.0 0.0 0.0
1.266 -0.3487311005592346 0.029443562030792236 -0.47188082337379456 0.293682724237442 0.0 0.0 0.0 0.0
1.267 -0.34404563903808594 0.03804007172584534 -0.46287044882774353 0.3085155487060547 0.0 0.0 0.0 0.0
1.268 -0.339402437210083 0.04763219133019447 -0.45112159848213196 0.32620200514793396 0.0 0.0 0.0 0.0
1.269 -0.3345806300640106 0.056429672986269 -0.44066205620765686 0.34114447236061096 0.0 0.0 0.0 0.0
1.27 -0.33014318346977234 0.06582467257976532 -0.4292517602443695 0.35569947957992554 0.0 0.0 0.0 0.0
1.271 -0.3253122568130493 0.07487908005714417 -0.41759565472602844 0.37004753947257996 0.0 0.0 0.0 0.0
1.272 -0.32004445791244507 0.0835006833076477 -0.4050944745540619 0.3838198184967041 0.0 0.0 0.0 0.0
1.273 -0.314591646194458 0.09252656251192093 -0.3922024369239807 0.3986404240131378 0.0 0.0 0.0 0.0
1.274 -0.3085762858390808 0.10195329040288925 -0.37910544872283936 0.41222459077835083 0.0 0.0 0.0 0.0
1.275 -0.30294695496559143 0.11113551259040833 -0.3652554750442505 0.42608416080474854 0.0 0.0 0.0 0.0
1.276 -0.2966645658016205 0.1192009374499321 -0.35136836767196655 0.43774786591529846 0.0 0.0 0.0 0.0
1.277 -0.2898475229740143 0.12780728936195374 -0.33556032180786133 0.45115530490875244 0.0 0.0 0.0 0.0
1.278 -0.2831271290779114 0.13594794273376465 -0.320161908864975 0.4626220464706421 0.0 0.0 0.0 0.0
1.279 -0.2761783003807068 0.14429453015327454 -0.3046976923942566 0.4743759334087372 0.0 0.0 0.0 0.0
1.28 -0.269474059343338 0.15182030200958252 -0.28862637281417847 0.484526664018631 0.0 0.0 0.0 0.0
1.281 -0.26245206594467163 0.1594143658876419 -0.2714332938194275 0.49400249123573303 0.0 0.0 0.0 0.0
1.282 -0.2548202574253082 0.16752000153064728 -0.25429001450538635 0.5037854313850403 0.0 0.0 0.0 0.0
1.283 -0.2472432255744934 0.17497682571411133 -0.23692938685417175 0.5126066207885742 0.0 0.0 0.0 0.0
1.284 -0.23957183957099915 0.1820930689573288 -0.21956995129585266 0.520198404788971 0.0 0.0 0.0 0.0
1.285 -0.2322571575641632 0.18837691843509674 -0.20099805295467377 0.5279201865196228 0.0 0.0 0.0 0.0
1.286 -0.22396843135356903 0.19651095569133759 -0.1829655021429062 0.5344807505607605 0.0 0.0 0.0 0.0
1.287 -0.21541331708431244 0.2044762820005417 -0.16384857892990112 0.5406720638275146 0.0 0.0 0.0 0.0
1.288 -0.2077198177576065 0.21051882207393646 -0.14786137640476227 0.5452313423156738 0.0 0.0 0.0 0.0
1.289 -0.19813655316829681 0.21780455112457275 -0.12763471901416779 0.5511611700057983 0.0 0.0 0.0 0.0
1.29 -0.18884935975074768 0.22417974472045898 -0.10935516655445099 0.5554004907608032 0.0 0.0 0.0 0.0
1.291 -0.1795455515384674 0.2303810715675354 -0.09063451737165451 0.5597115755081177 0.0 0.0 0.0 0.0
1.292 -0.169608473777771 0.23579145967960358 -0.07078169286251068 0.5626109838485718 0.0 0.0 0.0 0.0
1.293 -0.15936687588691711 0.24134425818920135 -0.04898430407047272 0.564697265625 0.0 0.0 0.0 0.0
1.294 -0.14967937767505646 0.246810182929039 -0.02962547354400158 0.5663738250732422 0.0 0.0 0.0 0.0
1.295 -0.13972510397434235 0.2520599663257599 -0.009491032920777798 0.5664715766906738 0.0 0.0 0.0 0.0
1.296 -0.12980356812477112 0.25638189911842346 0.00973558146506548 0.5650057792663574 0.0 0.0 0.0 0.0
1.297 -0.12022262811660767 0.261663019657135 0.029453538358211517 0.564294695854187 0.0 0.0 0.0 0.0
1.298 -0.10922769457101822 0.2668915390968323 0.047696687281131744 0.5629721879959106 0.0 0.0 0.0 0.0
1.299 -0.09839358925819397 0.2713444232940674 0.06676502525806427 0.5603429079055786 0.0 0.0 0.0 0.0
1.3 -0.08767012506723404 0.2757759392261505 0.0855151042342186 0.5580114722251892 0.0 0.0 0.0 0.0
1.301 -0.07583625614643097 0.2797071039676666 0.10553392022848129 0.5543215870857239 0.0 0.0 0.0 0.0
1.302 -0.06372455507516861 0.2833256125450134 0.12364467233419418 0.5507841110229492 0.0 0.0 0.0 0.0
1.303 -0.052388645708560944 0.2862344980239868 0.14150051772594452 0.5458454489707947 0.0 0.0 0.0 0.0
1.304 -0.04010112211108208 0.2892659306526184 0.1614024043083191 0.5400994420051575 0.0 0.0 0.0 0.0
1.305 -0.026869064196944237 0.29119011759757996 0.1809786558151245 0.533647358417511 0.0 0.0 0.0 0.0
1.306 -0.014630821533501148 0.2935550808906555 0.19814437627792358 0.5273100137710571 0.0 0.0 0.0 0.0
1.307 -0.0021708104759454727 0.29481208324432373 0.21627333760261536 0.5205385088920593 0.0 0.0 0.0 0.0
1.308 0.010431952774524689 0.29585784673690796 0.23440712690353394 0.5126312375068665 0.0 0.0 0.0 0.0
1.309 0.02276511676609516 0.29623550176620483 0.2523730397224426 0.5027116537094116 0.0 0.0 0.0 0.0
1.31 0.03555038571357727 0.29668572545051575 0.26952701807022095 0.49273112416267395 0.0 0.0 0.0 0.0
1.311 0.04783421754837036 0.2971150875091553 0.2844544053077698 0.4834359586238861 0.0 0.0 0.0 0.0
1.312 0.06072361394762993 0.2970660626888275 0.30043235421180725 0.47303009033203125 0.0 0.0 0.0 0.0
1.313 0.0737275704741478 0.29644596576690674 0.31588250398635864 0.4618358612060547 0.0 0.0 0.0 0.0
1.314 0.08799047768115997 0.29499852657318115 0.33191347122192383 0.45009171962738037 0.0 0.0 0.0 0.0
1.315 0.10085362941026688 0.29339906573295593 0.3456372916698456 0.4388877749443054 0.0 0.0 0.0 0.0
1.316 0.11404605209827423 0.2910621166229248 0.36035484075546265 0.4262956976890564 0.0 0.0 0.0 0.0
1.317 0.12711858749389648 0.2886447310447693 0.37483564019203186 0.4128609299659729 0.0 0.0 0.0 0.0
1.318 0.14067460596561432 0.28516992926597595 0.3877078890800476 0.4002076983451843 0.0 0.0 0.0 0.0
1.319 0.15373031795024872 0.28164151310920715 0.4007890224456787 0.38607704639434814 0.0 0.0 0.0 0.0
1.32 0.16660335659980774 0.2773457467556 0.41338711977005005 0.3715319335460663 0.0 0.0 0.0 0.0
1.321 0.18015825748443604 0.27258914709091187 0.4254215955734253 0.3566175699234009 0.0 0.0 0.0 0.0
1.322 0.19342835247516632 0.2674631178379059 0.4363163709640503 0.34276139736175537 0.0 0.0 0.0 0.0
1.323 0.20578421652317047 0.26174136996269226 0.44693416357040405 0.32727792859077454 0.0 0.0 0.0 0.0
1.324 0.21808895468711853 0.2560179829597473 0.4571962356567383 0.3109285235404968 0.0 0.0 0.0 0.0
1.325 0.23094592988491058 0.24911680817604065 0.4669693112373352 0.2944317162036896 0.0 0.0 0.0 0.0
1.326 0.24425707757472992 0.2413693368434906 0.47654515504837036 0.27737557888031006 0.0 0.0 0.0 0.0
1.327 0.25591641664505005 0.2343929558992386 0.48429253697395325 0.2623749077320099 0.0 0.0 0.0 0.0
1.328 0.2683471441268921 0.22622045874595642 0.49213674664497375 0.24606752395629883 0.0 0.0 0.0 0.0
1.329 0.2799553871154785 0.21723845601081848 0.5000449419021606 0.2296823114156723 0.0 0.0 0.0 0.0
1.33 0.29123565554618835 0.20778606832027435 0.506982684135437 0.21362262964248657 0.0 0.0 0.0 0.0
1.331 0.30234456062316895 0.19761399924755096 0.5137022733688354 0.19493122398853302 0.0 0.0 0.0 0.0
1.332 0.3122400939464569 0.18782567977905273 0.5188016891479492 0.17786172032356262 0.0 0.0 0.0 0.0
1.333 0.3224641680717468 0.17710773646831512 0.5242173075675964 0.15811043977737427 0.0 0.0 0.0 0.0
1.334 0.3322947025299072 0.16651849448680878 0.5283629298210144 0.14084313809871674 0.0 0.0 0.0 0.0
1.335 0.3422643840312958 0.15468674898147583 0.5316339731216431 0.1233893409371376 0.0 0.0 0.0 0.0
1.336 0.3518608808517456 0.14268134534358978 0.534740686416626 0.10470965504646301 0.0 0.0 0.0 0.0
1.337 0.3602074980735779 0.13191449642181396 0.537409782409668 0.08894208073616028 0.0 0.0 0.0 0.0
1.338 0.36888012290000916 0.11819439381361008 0.5400137901306152 0.06912349909543991 0.0 0.0 0.0 0.0
1.339 0.3764687180519104 0.10447199642658234 0.5415576696395874 0.05130783095955849 0.0 0.0 0.0 0.0
1.34 0.38343697786331177 0.09107007086277008 0.5420684218406677 0.033392928540706635 0.0 0.0 0.0 0.0
1.341 0.38978177309036255 0.0779719278216362 0.5424004197120667 0.015039687044918537 0.0 0.0 0.0 0.0
1.342 0.3957672119140625 0.0644141286611557 0.5421636700630188 -0.0015422636643052101 0.0 0.0 0.0 0.0
1.343 0.40155449509620667 0.04792499169707298 0.5414344072341919 -0.02192649058997631 0.0 0.0 0.0 0.0
1.344 0.40575164556503296 0.03510158509016037 0.5403425693511963 -0.03863073140382767 0.0 0.0 0.0 0.0
1.345 0.409111350774765 0.02021101489663124 0.53774094581604 -0.0580514557659626 0.0 0.0 0.0 0.0
1.346 0.41249722242355347 0.005424344912171364 0.5344663858413696 -0.076255664229393 0.0 0.0 0.0 0.0
1.347 0.4152258038520813 -0.00959165021777153 0.5305694937705994 -0.0934770479798317 0.0 0.0 0.0 0.0
1.348 0.4177781641483307 -0.0236778873950243 0.5260015726089478 -0.11116990447044373 0.0 0.0 0.0 0.0
1.349 0.4190782308578491 -0.03804744407534599 0.5208833813667297 -0.1279108077287674 0.0 0.0 0.0 0.0
1.35 0.4205154478549957 -0.05264490097761154 0.5158453583717346 -0.14445436000823975 0.0 0.0 0.0 0.0
1.351 0.4212092459201813 -0.06819051504135132 0.5095206499099731 -0.16211667656898499 0.0 0.0 0.0 0.0
1.352 0.4210492670536041 -0.08306031674146652 0.5021541118621826 -0.1796337068080902 0.0 0.0 0.0 0.0
1.353 0.42114192247390747 -0.09636936336755753 0.4953732192516327 -0.19337743520736694 0.0 0.0 0.0 0.0
1.354 0.42043957114219666 -0.1117018610239029 0.4884258806705475 -0.20960944890975952 0.0 0.0 0.0 0.0
1.355 0.41840580105781555 -0.12784594297409058 0.4811989367008209 -0.22475989162921906 0.0 0.0 0.0 0.0
1.356 0.41636598110198975 -0.1424519121646881 0.4727678894996643 -0.23982052505016327 0.0 0.0 0.0 0.0
1.357 0.41429370641708374 -0.15503264963626862 0.46480852365493774 -0.2540045380592346 0.0 0.0 0.0 0.0
1.358 0.410015344619751 -0.1708056628704071 0.4545118510723114 -0.26962485909461975 0.0 0.0 0.0 0.0
1.359 0.40612971782684326 -0.18571633100509644 0.4456135332584381 -0.283753365278244 0.0 0.0 0.0 0.0
1.36 0.4016246199607849 -0.20008081197738647 0.43519359827041626 -0.2987092137336731 0.0 0.0 0.0 0.0
1.361 0.39662879705429077 -0.21332845091819763 0.4250759482383728 -0.31163614988327026 0.0 0.0 0.0 0.0
1.362 0.3901243209838867 -0.22758625447750092 0.41448289155960083 -0.325505793094635 0.0 0.0 0.0 0.0
1.363 0.3832911252975464 -0.24154673516750336 0.40360966324806213 -0.3382057249546051 0.0 0.0 0.0 0.0
1.364 0.37667882442474365 -0.253853976726532 0.3924035131931305 -0.351200133562088 0.0 0.0 0.0 0.0
1.365 0.36890169978141785 -0.2654038369655609 0.3803783655166626 -0.36326268315315247 0.0 0.0 0.0 0.0
1.366 0.36038050055503845 -0.27758947014808655 0.3665007948875427 -0.3761392831802368 0.0 0.0 0.0 0.0
1.367 0.35184285044670105 -0.289000540971756 0.3538188934326172 -0.38716229796409607 0.0 0.0 0.0 0.0
1.368 0.34313592314720154 -0.29986053705215454 0.33981603384017944 -0.3977656066417694 0.0 0.0 0.0 0.0
1.369 0.33490607142448425 -0.3101294934749603 0.3269224762916565 -0.40800565481185913 0.0 0.0 0.0 0.0
1.37 0.325896680355072 -0.3194936215877533 0.3127053678035736 -0.41725626587867737 0.0 0.0 0.0 0.0
1.371 0.3157704472541809 -0.330355703830719 0.2994624078273773 -0.42691031098365784 0.0 0.0 0.0 0.0
1.372 0.3059937059879303 -0.3398268222808838 0.2848024368286133 -0.43606188893318176 0.0 0.0 0.0 0.0
1.373 0.296067476272583 -0.34760841727256775 0.27021875977516174 -0.44386613368988037 0.0 0.0 0.0 0.0
1.374 0.2853753864765167 -0.3562336266040802 0.2546233832836151 -0.45238980650901794 0.0 0.0 0.0 0.0
1.375 0.2747108042240143 -0.36376526951789856 0.23994027078151703 -0.4589490294456482 0.0 0.0 0.0 0.0
1.376 0.26496192812919617 -0.37140363454818726 0.22460278868675232 -0.46583977341651917 0.0 0.0 0.0 0.0
1.377 0.2541497051715851 -0.37916478514671326 0.20924028754234314 -0.4720718562602997 0.0 0.0 0.0 0.0
1.378 0.24363771080970764 -0.38558220863342285 0.19387096166610718 -0.4775239825248718 0.0 0.0 0.0 0.0
1.379 0.23227031528949738 -0.39299026131629944 0.1792207956314087 -0.4828394949436188 0.0 0.0 0.0 0.0
1.38 0.2206244170665741 -0.3995148241519928 0.16413913667201996 -0.48827049136161804 0.0 0.0 0.0 0.0
1.381 0.2087574154138565 -0.4048577547073364 0.14857304096221924 -0.4926699101924896 0.0 0.0 0.0 0.0
1.382 0.19768446683883667 -0.4093133211135864 0.1344076693058014 -0.4974428117275238 0.0 0.0 0.0 0.0
1.383 0.18256166577339172 -0.4146965444087982 0.11518605798482895 -0.5014953017234802 0.0 0.0 0.0 0.0
1.384 0.17154483497142792 -0.41840359568595886 0.1006186455488205 -0.5045769810676575 0.0 0.0 0.0 0.0
1.385 0.1605343520641327 -0.4210892617702484 0.08631868660449982 -0.5070182681083679 0.0 0.0 0.0 0.0
1.386 0.14719626307487488 -0.42383360862731934 0.06778818368911743 -0.5095540285110474 0.0 0.0 0.0 0.0
1.387 0.1347455531358719 -0.42600342631340027 0.051166050136089325 -0.5115398168563843 0.0 0.0 0.0 0.0
1.388 0.12311182171106339 -0.42752715945243835 0.035233527421951294 -0.5123399496078491 0.0 0.0 0.0 0.0
1.389 0.11119429022073746 -0.42862358689308167 0.017898622900247574 -0.5122945308685303 0.0 0.0 0.0 0.0
1.39 0.1009611114859581 -0.4294554591178894 0.002353427931666374 -0.5126166343688965 0.0 0.0 0.0 0.0
1.391 0.08993823826313019 -0.4298991858959198 -0.014498848468065262 -0.5118339657783508 0.0 0.0 0.0 0.0
1.392 0.07837405055761337 -0.43056419491767883 -0.03170327842235565 -0.5102759003639221 0.0 0.0 0.0 0.0
1.393 0.06668951362371445 -0.43146398663520813 -0.04653095826506615 -0.5091954469680786 0.0 0.0 0.0 0.0
1.394 0.05696139112114906 -0.43155115842819214 -0.06055005267262459 -0.5073845386505127 0.0 0.0 0.0 0.0
1.395 0.04360320419073105 -0.4309963285923004 -0.07888670265674591 -0.5045886039733887 0.0 0.0 0.0 0.0
1.396 0.034220658242702484 -0.4302639961242676 -0.09225323051214218 -0.5032017827033997 0.0 0.0 0.0 0.0
1.397 0.020181169733405113 -0.4288342297077179 -0.11111661046743393 -0.49933359026908875 0.0 0.0 0.0 0.0
1.398 0.010991726070642471 -0.4272982180118561 -0.12482863664627075 -0.49657243490219116 0.0 0.0 0.0 0.0
1.399 -0.0006363242864608765 -0.42455020546913147 -0.14175064861774445 -0.49235936999320984 0.0 0.0 0.0 0.0
1.4 -0.011328944936394691 -0.42176416516304016 -0.1588149070739746 -0.4879193603992462 0.0 0.0 0.0 0.0
1.401 -0.021479526534676552 -0.41800567507743835 -0.17444832623004913 -0.4821704626083374 0.0 0.0 0.0 0.0
1.402 -0.030447129160165787 -0.41465476155281067 -0.189509317278862 -0.47517627477645874 0.0 0.0 0.0 0.0
1.403 -0.03943483531475067 -0.41282591223716736 -0.20480313897132874 -0.46820154786109924 0.0 0.0 0.0 0.0
1.404 -0.04880748316645622 -0.4101942181587219 -0.21795381605625153 -0.46196067333221436 0.0 0.0 0.0 0.0
1.405 -0.058336980640888214 -0.40690430998802185 -0.2314073145389557 -0.45562875270843506 0.0 0.0 0.0 0.0
1.406 -0.06958915293216705 -0.40322139859199524 -0.24700407683849335 -0.44796109199523926 0.0 0.0 0.0 0.0
1.407 -0.07959961891174316 -0.39903295040130615 -0.26110395789146423 -0.4406832754611969 0.0 0.0 0.0 0.0
1.408 -0.08850917965173721 -0.393978476524353 -0.2748088538646698 -0.4330744445323944 0.0 0.0 0.0 0.0
1.409 -0.09680194407701492 -0.3888988196849823 -0.28989484906196594 -0.42424023151397705 0.0 0.0 0.0 0.0
1.41 -0.1052665263414383 -0.3836948871612549 -0.30405762791633606 -0.41419118642807007 0.0 0.0 0.0 0.0
1.411 -0.11337687075138092 -0.37901929020881653 -0.3173573613166809 -0.4041801691055298 0.0 0.0 0.0 0.0
1.412 -0.12076668441295624 -0.374289333820343 -0.3295074701309204 -0.39416730403900146 0.0 0.0 0.0 0.0
1.413 -0.12808577716350555 -0.36940622329711914 -0.34150776267051697 -0.38299334049224854 0.0 0.0 0.0 0.0
1.414 -0.13649366796016693 -0.36407703161239624 -0.353772908449173 -0.37212130427360535 0.0 0.0 0.0 0.0
1.415 -0.1447552740573883 -0.3585742115974426 -0.36625760793685913 -0.3607524335384369 0.0 0.0 0.0 0.0
1.416 -0.15361599624156952 -0.3525739312171936 -0.37866830825805664 -0.3490820825099945 0.0 0.0 0.0 0.0
1.417 -0.1597975641489029 -0.3469226360321045 -0.3893108665943146 -0.3379664719104767 0.0 0.0 0.0 0.0
1.418 -0.1669037938117981 -0.3408139646053314 -0.4002632200717926 -0.325550377368927 0.0 0.0 0.0 0.0
1.419 -0.1736457496881485 -0.33380159735679626 -0.41214442253112793 -0.31122830510139465 0.0 0.0 0.0 0.0
1.42 -0.1804157793521881 -0.3274713456630707 -0.4214867949485779 -0.2992408871650696 0.0 0.0 0.0 0.0
1.421 -0.18687979876995087 -0.321059912443161 -0.4309978783130646 -0.28546711802482605 0.0 0.0 0.0 0.0
1.422 -0.19341599941253662 -0.31433334946632385 -0.4413258731365204 -0.271008163690567 0.0 0.0 0.0 0.0
1.423 -0.199172705411911 -0.3070555627346039 -0.45056068897247314 -0.25661441683769226 0.0 0.0 0.0 0.0
1.424 -0.20508608222007751 -0.2993711829185486 -0.460399866104126 -0.24052898585796356 0.0 0.0 0.0 0.0
1.425 -0.20957250893115997 -0.2932032644748688 -0.4678574204444885 -0.2262052595615387 0.0 0.0 0.0 0.0
1.426 -0.2131912112236023 -0.2875072658061981 -0.47442901134490967 -0.21104171872138977 0.0 0.0 0.0 0.0
1.427 -0.2191544473171234 -0.2802462875843048 -0.4813622236251831 -0.19432683289051056 0.0 0.0 0.0 0.0
1.428 -0.2249200940132141 -0.27358779311180115 -0.48777061700820923 -0.17871199548244476 0.0 0.0 0.0 0.0
1.429 -0.23005908727645874 -0.2665230929851532 -0.49303439259529114 -0.16201390326023102 0.0 0.0 0.0 0.0
1.43 -0.23525243997573853 -0.259071409702301 -0.4980901777744293 -0.14578531682491302 0.0 0.0 0.0 0.0
1.431 -0.23997120559215546 -0.2523953318595886 -0.5032235980033875 -0.1293219029903412 0.0 0.0 0.0 0.0
1.432 -0.2446027249097824 -0.2456735074520111 -0.507063090801239 -0.11385271698236465 0.0 0.0 0.0 0.0
1.433 -0.24932816624641418 -0.23800092935562134 -0.5106523036956787 -0.09684769064188004 0.0 0.0 0.0 0.0
1.434 -0.2535313367843628 -0.23059120774269104 -0.5138031840324402 -0.07970534265041351 0.0 0.0 0.0 0.0
1.435 -0.2585866153240204 -0.22286640107631683 -0.5165912508964539 -0.06259508430957794 0.0 0.0 0.0 0.0
1.436 -0.26268240809440613 -0.21430866420269012 -0.5191236138343811 -0.046038780361413956 0.0 0.0 0.0 0.0
1.437 -0.2657746970653534 -0.2066420465707779 -0.5210441946983337 -0.02935645543038845 0.0 0.0 0.0 0.0
1.438 -0.2693493664264679 -0.19817116856575012 -0.5216715335845947 -0.01056609582155943 0.0 0.0 0.0 0.0
1.439 -0.27290406823158264 -0.19027812778949738 -0.5213871002197266 0.006812793202698231 0.0 0.0 0.0 0.0
1.44 -0.27676329016685486 -0.18231329321861267 -0.5205262303352356 0.024032413959503174 0.0 0.0 0.0 0.0
1.441 -0.2797020673751831 -0.17512176930904388 -0.5198668837547302 0.03889975696802139 0.0 0.0 0.0 0.0
1.442 -0.2828408181667328 -0.16584134101867676 -0.5185299515724182 0.057176657021045685 0.0 0.0 0.0 0.0
1.443 -0.2861384451389313 -0.15629997849464417 -0.5171489715576172 0.07662909477949142 0.0 0.0 0.0 0.0
1.444 -0.28854480385780334 -0.1475440412759781 -0.514759361743927 0.09256672859191895 0.0 0.0 0.0 0.0
1.445 -0.29068636894226074 -0.1378970742225647 -0.5112322568893433 0.11116288602352142 0.0 0.0 0.0 0.0
1.446 -0.29195475578308105 -0.13057786226272583 -0.5074940323829651 0.12745268642902374 0.0 0.0 0.0 0.0
1.447 -0.29416710138320923 -0.1217818558216095 -0.5018886923789978 0.14505615830421448 0.0 0.0 0.0 0.0
1.448 -0.2965323328971863 -0.1128842681646347 -0.4966377019882202 0.16218353807926178 0.0 0.0 0.0 0.0
1.449 -0.29826948046684265 -0.10431037843227386 -0.4905955195426941 0.17771467566490173 0.0 0.0 0.0 0.0
1.45 -0.2997491955757141 -0.09502094238996506 -0.4841388761997223 0.1946631669998169 0.0 0.0 0.0 0.0
1.451 -0.3009975254535675 -0.08570367842912674 -0.47705522179603577 0.21074897050857544 0.0 0.0 0.0 0.0
1.452 -0.3021627962589264 -0.07618895918130875 -0.4693593978881836 0.22619284689426422 0.0 0.0 0.0 0.0
1.453 -0.3030872642993927 -0.06775691360235214 -0.4613833725452423 0.24133150279521942 0.0 0.0 0.0 0.0
1.454 -0.3038102984428406 -0.05822863429784775 -0.452770471572876 0.25611114501953125 0.0 0.0 0.0 0.0
1.455 -0.3047175407409668 -0.0480819009244442 -0.4436386227607727 0.27169886231422424 0.0 0.0 0.0 0.0
1.456 -0.30533015727996826 -0.03821316361427307 -0.434095561504364 0.28490206599235535 0.0 0.0 0.0 0.0
1.457 -0.30524224042892456 -0.028284519910812378 -0.424228698015213 0.29954391717910767 0.0 0.0 0.0 0.0
1.458 -0.30455905199050903 -0.019248386844992638 -0.4151758551597595 0.3120729327201843 0.0 0.0 0.0 0.0
1.459 -0.30395013093948364 -0.007870837114751339 -0.4028000831604004 0.3277706801891327 0.0 0.0 0.0 0.0
1.46 -0.3031286597251892 0.0012861387804150581 -0.3916656970977783 0.340164452791214 0.0 0.0 0.0 0.0
1.461 -0.301923006772995 0.01129261963069439 -0.37962284684181213 0.3529692590236664 0.0 0.0 0.0 0.0
1.462 -0.30086416006088257 0.02074587158858776 -0.3666481375694275 0.3650093674659729 0.0 0.0 0.0 0.0
1.463 -0.29964467883110046 0.03177030012011528 -0.3540695607662201 0.3754616975784302 0.0 0.0 0.0 0.0
1.464 -0.298059344291687 0.04198141768574715 -0.3413717448711395 0.3863959312438965 0.0 0.0 0.0 0.0
1.465 -0.2957276403903961 0.05190092697739601 -0.32947853207588196 0.39671602845191956 0.0 0.0 0.0 0.0
1.466 -0.29286104440689087 0.06253346055746078 -0.3151063024997711 0.40774884819984436 0.0 0.0 0.0 0.0
1.467 -0.2899695932865143 0.07322966307401657 -0.3025148808956146 0.417311429977417 0.0 0.0 0.0 0.0
1.468 -0.28682422637939453 0.08331391960382462 -0.28837400674819946 0.42566803097724915 0.0 0.0 0.0 0.0
1.469 -0.28303632140159607 0.09369265288114548 -0.27291661500930786 0.43558675050735474 0.0 0.0 0.0 0.0
1.47 -0.27898842096328735 0.10412878543138504 -0.2589815855026245 0.4430473744869232 0.0 0.0 0.0 0.0
1.471 -0.2745905816555023 0.11516815423965454 -0.24388593435287476 0.4513474106788635 0.0 0.0 0.0 0.0
1.472 -0.2703883945941925 0.1254788637161255 -0.23018059134483337 0.45832082629203796 0.0 0.0 0.0 0.0
1.473 -0.26480597257614136 0.13641448318958282 -0.21380136907100677 0.46602633595466614 0.0 0.0 0.0 0.0
1.474 -0.2592744529247284 0.1456906497478485 -0.19840754568576813 0.4720599949359894 0.0 0.0 0.0 0.0
1.475 -0.25287407636642456 0.155851811170578 -0.18283389508724213 0.47850722074508667 0.0 0.0 0.0 0.0
1.476 -0.2468811571598053 0.16565266251564026 -0.1678524762392044 0.4834078848361969 0.0 0.0 0.0 0.0
1.477 -0.2405504584312439 0.17468291521072388 -0.1518910825252533 0.4879985451698303 0.0 0.0 0.0 0.0
1.478 -0.23356778919696808 0.18467190861701965 -0.13402239978313446 0.49285268783569336 0.0 0.0 0.0 0.0
1.479 -0.2265361100435257 0.1945347785949707 -0.11924632638692856 0.49550992250442505 0.0 0.0 0.0 0.0
1.48 -0.21875335276126862 0.20400716364383698 -0.10294461995363235 0.4992128610610962 0.0 0.0 0.0 0.0
1.481 -0.21117821335792542 0.21258805692195892 -0.08766409754753113 0.501363217830658 0.0 0.0 0.0 0.0
1.482 -0.2021951675415039 0.22203360497951508 -0.07104259729385376 0.5047634243965149 0.0 0.0 0.0 0.0
1.483 -0.19327965378761292 0.230513796210289 -0.053891703486442566 0.5056898593902588 0.0 0.0 0.0 0.0
1.484 -0.1846650093793869 0.23884285986423492 -0.03922966867685318 0.5072166323661804 0.0 0.0 0.0 0.0
1.485 -0.17471954226493835 0.24714137613773346 -0.02205566130578518 0.5071641802787781 0.0 0.0 0.0 0.0
1.486 -0.16476574540138245 0.2552575469017029 -0.006306998431682587 0.507882297039032 0.0 0.0 0.0 0.0
1.487 -0.15495018661022186 0.2630162239074707 0.010094774886965752 0.5071755051612854 0.0 0.0 0.0 0.0
1.488 -0.14446896314620972 0.2704002261161804 0.025436386466026306 0.5069908499717712 0.0 0.0 0.0 0.0
1.489 -0.13234353065490723 0.27772974967956543 0.04260453209280968 0.505708634853363 0.0 0.0 0.0 0.0
1.49 -0.12212720513343811 0.2835710346698761 0.0579085648059845 0.5041687488555908 0.0 0.0 0.0 0.0
1.491 -0.10969147086143494 0.28975173830986023 0.07618971914052963 0.5009124875068665 0.0 0.0 0.0 0.0
1.492 -0.0998324602842331 0.29550307989120483 0.08968973159790039 0.4990536868572235 0.0 0.0 0.0 0.0
1.493 -0.08687597513198853 0.30097031593322754 0.10631044954061508 0.4952335059642792 0.0 0.0 0.0 0.0
1.494 -0.07386012375354767 0.30677950382232666 0.12317690998315811 0.4910713732242584 0.0 0.0 0.0 0.0
1.495 -0.062463246285915375 0.31141185760498047 0.1367829293012619 0.48710012435913086 0.0 0.0 0.0 0.0
1.496 -0.049199532717466354 0.31569403409957886 0.15238428115844727 0.4821448028087616 0.0 0.0 0.0 0.0
1.497 -0.03582729771733284 0.3208082914352417 0.16828666627407074 0.4787121117115021 0.0 0.0 0.0 0.0
1.498 -0.022827379405498505 0.3233548700809479 0.18240369856357574 0.4726276099681854 0.0 0.0 0.0 0.0
1.499 -0.009481994435191154 0.3261140286922455 0.19705164432525635 0.46667298674583435 0.0 0.0 0.0 0.0
1.5 0.00391075573861599 0.32781562209129333 0.21197563409805298 0.4596598446369171 0.0 0.0 0.0 0.0
1.501 0.018859069794416428 0.3304682672023773 0.22743657231330872 0.45385870337486267 0.0 0.0 0.0 0.0
1.502 0.0325007289648056 0.3318115472793579 0.24134184420108795 0.44700533151626587 0.0 0.0 0.0 0.0
1.503 0.04653283208608627 0.33244749903678894 0.25523385405540466 0.43889787793159485 0.0 0.0 0.0 0.0
1.504 0.06070995330810547 0.3324423134326935 0.2701212167739868 0.42985963821411133 0.0 0.0 0.0 0.0
1.505 0.07514967024326324 0.33241209387779236 0.28315290808677673 0.4222605526447296 0.0 0.0 0.0 0.0
1.506 0.08951283991336823 0.3306809663772583 0.2972261309623718 0.41271352767944336 0.0 0.0 0.0 0.0
1.507 0.10393821448087692 0.3296465277671814 0.31067630648612976 0.40314754843711853 0.0 0.0 0.0 0.0
1.508 0.11723287403583527 0.3271445333957672 0.3230677545070648 0.3935014605522156 0.0 0.0 0.0 0.0
1.509 0.13105212152004242 0.3246484100818634 0.3354383409023285 0.38361454010009766 0.0 0.0 0.0 0.0
1.51 0.14553797245025635 0.32121601700782776 0.3483414053916931 0.3725508749485016 0.0 0.0 0.0 0.0
1.511 0.1594066172838211 0.31800034642219543 0.3598921597003937 0.3619598150253296 0.0 0.0 0.0 0.0
1.512 0.17627659440040588 0.3123546242713928 0.3756766617298126 0.3493235111236572 0.0 0.0 0.0 0.0
1.513 0.18647928535938263 0.30812937021255493 0.3833130896091461 0.3371417224407196 0.0 0.0 0.0 0.0
1.514 0.20026801526546478 0.30295270681381226 0.39376094937324524 0.32495176792144775 0.0 0.0 0.0 0.0
1.515 0.21357472240924835 0.2975326180458069 0.4042573571205139 0.31282615661621094 0.0 0.0 0.0 0.0
1.516 0.22589953243732452 0.29176944494247437 0.41367781162261963 0.3008357584476471 0.0 0.0 0.0 0.0
1.517 0.23907870054244995 0.2844449579715729 0.42467811703681946 0.2861995995044708 0.0 0.0 0.0 0.0
1.518 0.2517852485179901 0.276977002620697 0.4335022270679474 0.2730231285095215 0.0 0.0 0.0 0.0
1.519 0.2639347016811371 0.26908352971076965 0.4421367049217224 0.2591441869735718 0.0 0.0 0.0 0.0
1.52 0.27587541937828064 0.26104307174682617 0.45040106773376465 0.24543432891368866 0.0 0.0 0.0 0.0
1.521 0.28799042105674744 0.2524322271347046 0.4591975510120392 0.23084565997123718 0.0 0.0 0.0 0.0
1.522 0.29939353466033936 0.24191762506961823 0.46661216020584106 0.21645815670490265 0.0 0.0 0.0 0.0
1.523 0.310444712638855 0.23182159662246704 0.47459840774536133 0.20082971453666687 0.0 0.0 0.0 0.0
1.524 0.32060039043426514 0.22013245522975922 0.48085057735443115 0.18478739261627197 0.0 0.0 0.0 0.0
1.525 0.3301197588443756 0.21163545548915863 0.4872608184814453 0.17006702721118927 0.0 0.0 0.0 0.0
1.526 0.33992573618888855 0.2002909779548645 0.4928743541240692 0.15451930463314056 0.0 0.0 0.0 0.0
1.527 0.3486073911190033 0.18964120745658875 0.4979303181171417 0.13916975259780884 0.0 0.0 0.0 0.0
1.528 0.3574189841747284 0.1777012199163437 0.502393901348114 0.1235298216342926 0.0 0.0 0.0 0.0
1.529 0.36626121401786804 0.1653652787208557 0.5070379972457886 0.10603915899991989 0.0 0.0 0.0 0.0
1.53 0.37376323342323303 0.15339839458465576 0.5106143951416016 0.09087951481342316 0.0 0.0 0.0 0.0
1.531 0.38111889362335205 0.14046074450016022 0.5142317414283752 0.07466340810060501 0.0 0.0 0.0 0.0
1.532 0.38765743374824524 0.12717847526073456 0.5172033905982971 0.05813068524003029 0.0 0.0 0.0 0.0
1.533 0.3937215805053711 0.11383495479822159 0.5195924639701843 0.039651889353990555 0.0 0.0 0.0 0.0
1.534 0.3993646204471588 0.10034789890050888 0.5210568308830261 0.024286899715662003 0.0 0.0 0.0 0.0
1.535 0.4044536054134369 0.086512491106987 0.5224364995956421 0.005862814374268055 0.0 0.0 0.0 0.0
1.536 0.40894439816474915 0.07416629791259766 0.5222313404083252 -0.009965164586901665 0.0 0.0 0.0 0.0
1.537 0.4123670756816864 0.05940164625644684 0.5229119062423706 -0.028431562706828117 0.0 0.0 0.0 0.0
1.538 0.41559574007987976 0.044725168496370316 0.5230462551116943 -0.04499068111181259 0.0 0.0 0.0 0.0
1.539 0.4179573059082031 0.03029685467481613 0.5218263268470764 -0.0627969279885292 0.0 0.0 0.0 0.0
1.54 0.41948673129081726 0.016214190050959587 0.5204921364784241 -0.08004923164844513 0.0 0.0 0.0 0.0
1.541 0.4201866686344147 0.0028537213802337646 0.5181635618209839 -0.09709183126688004 0.0 0.0 0.0 0.0
1.542 0.42158791422843933 -0.011715549975633621 0.5148200392723083 -0.11468524485826492 0.0 0.0 0.0 0.0
1.543 0.4216504395008087 -0.02427714876830578 0.5114766359329224 -0.13067062199115753 0.0 0.0 0.0 0.0
1.544 0.4214727580547333 -0.03853416070342064 0.5071073174476624 -0.14869168400764465 0.0 0.0 0.0 0.0
1.545 0.42030245065689087 -0.05337034910917282 0.5031101107597351 -0.16614249348640442 0.0 0.0 0.0 0.0
1.546 0.4188087284564972 -0.06638970971107483 0.49767979979515076 -0.18246814608573914 0.0 0.0 0.0 0.0
1.547 0.41670870780944824 -0.07897891849279404 0.49163249135017395 -0.19940365850925446 0.0 0.0 0.0 0.0
1.548 0.4143524467945099 -0.09247593581676483 0.4858990013599396 -0.21627506613731384 0.0 0.0 0.0 0.0
1.549 0.41104981303215027 -0.1053936704993248 0.47801679372787476 -0.231874480843544 0.0 0.0 0.0 0.0
1.55 0.40789738297462463 -0.1179172620177269 0.47050750255584717 -0.24832312762737274 0.0 0.0 0.0 0.0
1.551 0.4040771424770355 -0.1301267445087433 0.4621874988079071 -0.264322966337204 0.0 0.0 0.0 0.0
1.552 0.3994343876838684 -0.1426335871219635 0.45372408628463745 -0.2804087996482849 0.0 0.0 0.0 0.0
1.553 0.394972026348114 -0.15493722259998322 0.4438895881175995 -0.2956244647502899 0.0 0.0 0.0 0.0
1.554 0.39014187455177307 -0.1665542870759964 0.4348926842212677 -0.3107571005821228 0.0 0.0 0.0 0.0
1.555 0.3853070139884949 -0.17682966589927673 0.42530179023742676 -0.32445794343948364 0.0 0.0 0.0 0.0
1.556 0.37946489453315735 -0.18859241902828217 0.41457435488700867 -0.33901453018188477 0.0 0.0 0.0 0.0
1.557 0.37286433577537537 -0.19965818524360657 0.4031015932559967 -0.3529084622859955 0.0 0.0 0.0 0.0
1.558 0.3666836619377136 -0.20934391021728516 0.3912496268749237 -0.3666485548019409 0.0 0.0 0.0 0.0
1.559 0.3601984977722168 -0.21944855153560638 0.3790837526321411 -0.38011929392814636 0.0 0.0 0.0 0.0
1.56 0.350753515958786 -0.23083944618701935 0.3641481101512909 -0.3939080536365509 0.0 0.0 0.0 0.0
1.561 0.34553903341293335 -0.2398810088634491 0.3534974753856659 -0.4052775800228119 0.0 0.0 0.0 0.0
1.562 0.33811524510383606 -0.24894987046718597 0.34093332290649414 -0.4171510636806488 0.0 0.0 0.0 0.0
1.563 0.32980990409851074 -0.2574816644191742 0.32598036527633667 -0.42882710695266724 0.0 0.0 0.0 0.0
1.564 0.3218900263309479 -0.2663360834121704 0.31284111738204956 -0.44093066453933716 0.0 0.0 0.0 0.0
1.565 0.31319907307624817 -0.2743980586528778 0.29722294211387634 -0.45097294449806213 0.0 0.0 0.0 0.0
1.566 0.3057558834552765 -0.2812768220901489 0.28297242522239685 -0.46017807722091675 0.0 0.0 0.0 0.0
1.567 0.29677125811576843 -0.2882964015007019 0.26731380820274353 -0.4702792167663574 0.0 0.0 0.0 0.0
1.568 0.2878110110759735 -0.29526132345199585 0.2505669891834259 -0.47979262471199036 0.0 0.0 0.0 0.0
1.569 0.2789834141731262 -0.30283889174461365 0.23336516320705414 -0.48930469155311584 0.0 0.0 0.0 0.0
1.57 0.27066144347190857 -0.3092324137687683 0.2198709398508072 -0.49650201201438904 0.0 0.0 0.0 0.0
1.571 0.26080143451690674 -0.31490811705589294 0.20218466222286224 -0.5035381317138672 0.0 0.0 0.0 0.0
1.572 0.2530475854873657 -0.3196493983268738 0.18603670597076416 -0.5100772380828857 0.0 0.0 0.0 0.0
1.573 0.2431109994649887 -0.3255407214164734 0.16736440360546112 -0.5171763896942139 0.0 0.0 0.0 0.0
1.574 0.2325664460659027 -0.33068013191223145 0.1484115719795227 -0.5223187804222107 0.0 0.0 0.0 0.0
1.575 0.22399985790252686 -0.3349292576313019 0.13158798217773438 -0.5274635553359985 0.0 0.0 0.0 0.0
1.576 0.21441495418548584 -0.33855220675468445 0.113694928586483 -0.531480073928833 0.0 0.0 0.0 0.0
1.577 0.20468248426914215 -0.3430725932121277 0.09427724778652191 -0.5358930230140686 0.0 0.0 0.0 0.0
1.578 0.19535541534423828 -0.34698811173439026 0.07597877085208893 -0.5387837290763855 0.0 0.0 0.0 0.0
1.579 0.18593254685401917 -0.3505198359489441 0.058131925761699677 -0.5409722328186035 0.0 0.0 0.0 0.0
1.58 0.17761464416980743 -0.35338935256004333 0.04023053124547005 -0.5434821844100952 0.0 0.0 0.0 0.0
1.581 0.1672976315021515 -0.356411337852478 0.021466204896569252 -0.5448276996612549 0.0 0.0 0.0 0.0
1.582 0.15852174162864685 -0.35975390672683716 0.0035583563148975372 -0.5456987619400024 0.0 0.0 0.0 0.0
1.583 0.14875678718090057 -0.3614415228366852 -0.015004897490143776 -0.5450133681297302 0.0 0.0 0.0 0.0
1.584 0.13876861333847046 -0.36722543835639954 -0.03600279986858368 -0.549560546875 0.0 0.0 0.0 0.0
1.585 0.13007377088069916 -0.365304172039032 -0.053126223385334015 -0.5415555238723755 0.0 0.0 0.0 0.0
1.586 0.1202603206038475 -0.3673740327358246 -0.07033321261405945 -0.5402969121932983 0.0 0.0 0.0 0.0
1.587 0.1112462654709816 -0.36947813630104065 -0.08951838314533234 -0.538575291633606 0.0 0.0 0.0 0.0
1.588 0.10244853049516678 -0.36972567439079285 -0.10718433558940887 -0.5338941216468811 0.0 0.0 0.0 0.0
1.589 0.09238924831151962 -0.37091314792633057 -0.12587693333625793 -0.530804455280304 0.0 0.0 0.0 0.0
1.59 0.08249268680810928 -0.3721602261066437 -0.1447058618068695 -0.5256383419036865 0.0 0.0 0.0 0.0
1.591 0.0736243799328804 -0.3734119236469269 -0.16143132746219635 -0.5212287306785583 0.0 0.0 0.0 0.0
1.592 0.06467171758413315 -0.3725360035896301 -0.18000558018684387 -0.5137262344360352 0.0 0.0 0.0 0.0
1.593 0.054739221930503845 -0.37290966510772705 -0.1977740079164505 -0.5071704387664795 0.0 0.0 0.0 0.0
1.594 0.04564932733774185 -0.37272563576698303 -0.2134600579738617 -0.4999143183231354 0.0 0.0 0.0 0.0
1.595 0.035619087517261505 -0.37316182255744934 -0.23062635958194733 -0.4931168258190155 0.0 0.0 0.0 0.0
1.596 0.02551737241446972 -0.37353527545928955 -0.24924513697624207 -0.4861016273498535 0.0 0.0 0.0 0.0
1.597 0.01739317551255226 -0.37194880843162537 -0.264255553483963 -0.4768836498260498 0.0 0.0 0.0 0.0
1.598 0.007333424873650074 -0.3704679310321808 -0.281154990196228 -0.4666738212108612 0.0 0.0 0.0 0.0
1.599 -0.001420958898961544 -0.36901870369911194 -0.29591646790504456 -0.45619282126426697 0.0 0.0 0.0 0.0
1.6 -0.010292120277881622 -0.36706721782684326 -0.3107200562953949 -0.44548889994621277 0.0 0.0 0.0 0.0
1.601 -0.019111448898911476 -0.36623695492744446 -0.3260979652404785 -0.4340722858905792 0.0 0.0 0.0 0.0
1.602 -0.027724668383598328 -0.3648332953453064 -0.3393575847148895 -0.424111932516098 0.0 0.0 0.0 0.0
1.603 -0.03737238422036171 -0.3621218204498291 -0.35421133041381836 -0.4094558656215668 0.0 0.0 0.0 0.0
1.604 -0.046006523072719574 -0.3603869378566742 -0.3668162524700165 -0.3986435532569885 0.0 0.0 0.0 0.0
1.605 -0.05561202019453049 -0.3576880097389221 -0.3807744085788727 -0.3837169408798218 0.0 0.0 0.0 0.0
1.606 -0.06501398235559464 -0.35495784878730774 -0.3930410146713257 -0.3708159327507019 0.0 0.0 0.0 0.0
1.607 -0.07323901355266571 -0.35256001353263855 -0.40331265330314636 -0.3585279583930969 0.0 0.0 0.0 0.0
1.608 -0.07955379784107208 -0.3527202010154724 -0.41349005699157715 -0.34653785824775696 0.0 0.0 0.0 0.0
1.609 -0.09146273136138916 -0.34533652663230896 -0.42709699273109436 -0.3283995985984802 0.0 0.0 0.0 0.0
1.61 -0.1007058247923851 -0.3416276276111603 -0.4375956356525421 -0.31356483697891235 0.0 0.0 0.0 0.0
1.611 -0.10952942818403244 -0.33774533867836 -0.44783252477645874 -0.298523873090744 0.0 0.0 0.0 0.0
1.612 -0.11725345253944397 -0.334136426448822 -0.45714011788368225 -0.2825252413749695 0.0 0.0 0.0 0.0
1.613 -0.12622985243797302 -0.3287443518638611 -0.4655208885669708 -0.2657000720500946 0.0 0.0 0.0 0.0
1.614 -0.13551276922225952 -0.3250121772289276 -0.4736231565475464 -0.25004711747169495 0.0 0.0 0.0 0.0
1.615 -0.1429893672466278 -0.3211008608341217 -0.48002269864082336 -0.23441652953624725 0.0 0.0 0.0 0.0
1.616 -0.15065869688987732 -0.31585264205932617 -0.48685309290885925 -0.2168639600276947 0.0 0.0 0.0 0.0
1.617 -0.16042599081993103 -0.3105234205722809 -0.4934227466583252 -0.20046529173851013 0.0 0.0 0.0 0.0
1.618 -0.16940456628799438 -0.3052080273628235 -0.49892130494117737 -0.18482156097888947 0.0 0.0 0.0 0.0
1.619 -0.1760403960943222 -0.2999681830406189 -0.5034157037734985 -0.16862083971500397 0.0 0.0 0.0 0.0
1.62 -0.1856219470500946 -0.29227039217948914 -0.5086196660995483 -0.14935937523841858 0.0 0.0 0.0 0.0
1.621 -0.19284577667713165 -0.28596800565719604 -0.512749195098877 -0.13252130150794983 0.0 0.0 0.0 0.0
1.622 -0.2007988691329956 -0.28020933270454407 -0.5157415866851807 -0.11672366410493851 0.0 0.0 0.0 0.0
1.623 -0.2087763547897339 -0.27337101101875305 -0.518401026725769 -0.09910570085048676 0.0 0.0 0.0 0.0
1.624 -0.2153932899236679 -0.26654961705207825 -0.5204476118087769 -0.0818914994597435 0.0 0.0 0.0 0.0
1.625 -0.2234974354505539 -0.2590707838535309 -0.522196888923645 -0.06450096517801285 0.0 0.0 0.0 0.0
1.626 -0.23106184601783752 -0.25141215324401855 -0.5224915146827698 -0.04788224771618843 0.0 0.0 0.0 0.0
1.627 -0.2376999408006668 -0.24322915077209473 -0.5231907367706299 -0.03136512637138367 0.0 0.0 0.0 0.0
1.628 -0.2445935755968094 -0.23547080159187317 -0.5231878757476807 -0.013091959990561008 0.0 0.0 0.0 0.0
1.629 -0.2522447109222412 -0.22679832577705383 -0.5229496359825134 0.002172415144741535 0.0 0.0 0.0 0.0
1.63 -0.2582118511199951 -0.217609241604805 -0.5217439532279968 0.01861400716006756 0.0 0.0 0.0 0.0
1.631 -0.2646833658218384 -0.20833720266819 -0.5199871063232422 0.03773387521505356 0.0 0.0 0.0 0.0
1.632 -0.26817452907562256 -0.19967155158519745 -0.5191203355789185 0.05251641571521759 0.0 0.0 0.0 0.0
1.633 -0.2751184403896332 -0.191553995013237 -0.5161062479019165 0.06679149717092514 0.0 0.0 0.0 0.0
1.634 -0.2813631296157837 -0.1805858165025711 -0.5122864246368408 0.08548888564109802 0.0 0.0 0.0 0.0
1.635 -0.2870488464832306 -0.16962794959545135 -0.5086767077445984 0.10311314463615417 0.0 0.0 0.0 0.0
1.636 -0.2910498082637787 -0.16113513708114624 -0.5053737163543701 0.11594442278146744 0.0 0.0 0.0 0.0
1.637 -0.295996755361557 -0.14987599849700928 -0.500320553779602 0.1331462413072586 0.0 0.0 0.0 0.0
1.638 -0.30014529824256897 -0.1391645222902298 -0.49564993381500244 0.14888280630111694 0.0 0.0 0.0 0.0
1.639 -0.30434122681617737 -0.12790434062480927 -0.4908164143562317 0.16465821862220764 0.0 0.0 0.0 0.0
1.64 -0.3077399730682373 -0.1170516312122345 -0.484482079744339 0.17967796325683594 0.0 0.0 0.0 0.0
1.641 -0.31078672409057617 -0.1057896837592125 -0.47798922657966614 0.19450333714485168 0.0 0.0 0.0 0.0
1.642 -0.313649982213974 -0.09379187971353531 -0.47174012660980225 0.20911498367786407 0.0 0.0 0.0 0.0
1.643 -0.31591251492500305 -0.08249079436063766 -0.4644820988178253 0.224500373005867 0.0 0.0 0.0 0.0
1.644 -0.31747573614120483 -0.07191315293312073 -0.4579850733280182 0.23906846344470978 0.0 0.0 0.0 0.0
1.645 -0.31938230991363525 -0.05942269042134285 -0.4481072425842285 0.253235787153244 0.0 0.0 0.0 0.0
1.646 -0.3206480145454407 -0.047606032341718674 -0.4403853118419647 0.2662796974182129 0.0 0.0 0.0 0.0
1.647 -0.3215627372264862 -0.03661947697401047 -0.43149903416633606 0.28027766942977905 0.0 0.0 0.0 0.0
1.648 -0.32211199402809143 -0.024956298992037773 -0.42091894149780273 0.29295092821121216 0.0 0.0 0.0 0.0
1.649 -0.32202911376953125 -0.0122259221971035 -0.41228750348091125 0.3065743148326874 0.0 0.0 0.0 0.0
1.65 -0.32199516892433167 -1.8388032913208008e-05 -0.4020390212535858 0.31835654377937317 0.0 0.0 0.0 0.0
1.651 -0.32127803564071655 0.011171300895512104 -0.3919386565685272 0.33106011152267456 0.0 0.0 0.0 0.0
1.652 -0.3202919661998749 0.023341357707977295 -0.3826731741428375 0.343013197183609 0.0 0.0 0.0 0.0
1.653 -0.3188003599643707 0.03615815192461014 -0.37104153633117676 0.35483720898628235 0.0 0.0 0.0 0.0
1.654 -0.3166980743408203 0.04750030115246773 -0.3590669333934784 0.3657425343990326 0.0 0.0 0.0 0.0
1.655 -0.31417664885520935 0.059108518064022064 -0.34709659218788147 0.3779321014881134 0.0 0.0 0.0 0.0
1.656 -0.3120531737804413 0.07084619253873825 -0.33885592222213745 0.38594332337379456 0.0 0.0 0.0 0.0
1.657 -0.3086637258529663 0.08279890567064285 -0.3244364559650421 0.39719486236572266 0.0 0.0 0.0 0.0
1.658 -0.3050704896450043 0.09437328577041626 -0.3126218318939209 0.4071955382823944 0.0 0.0 0.0 0.0
1.659 -0.3010229468345642 0.10634349286556244 -0.298990398645401 0.41674497723579407 0.0 0.0 0.0 0.0
1.66 -0.2968583106994629 0.11831539869308472 -0.2878469228744507 0.4260457158088684 0.0 0.0 0.0 0.0
1.661 -0.29217541217803955 0.12986664474010468 -0.27405044436454773 0.435912162065506 0.0 0.0 0.0 0.0
1.662 -0.28664088249206543 0.14094220101833344 -0.2599468231201172 0.4447537064552307 0.0 0.0 0.0 0.0
1.663 -0.2804112434387207 0.1527826339006424 -0.2459419071674347 0.4531041085720062 0.0 0.0 0.0 0.0
1.664 -0.2747642993927002 0.16226117312908173 -0.23306486010551453 0.4588979482650757 0.0 0.0 0.0 0.0
1.665 -0.2684757709503174 0.1738169640302658 -0.2188345044851303 0.4682752788066864 0.0 0.0 0.0 0.0
1.666 -0.2608431577682495 0.1839887499809265 -0.20445673167705536 0.4731050133705139 0.0 0.0 0.0 0.0
1.667 -0.253356009721756 0.19566363096237183 -0.18777555227279663 0.482869952917099 0.0 0.0 0.0 0.0
1.668 -0.2451053261756897 0.20370367169380188 -0.17264895141124725 0.486172080039978 0.0 0.0 0.0 0.0
1.669 -0.23795288801193237 0.2146695852279663 -0.1588888019323349 0.49502062797546387 0.0 0.0 0.0 0.0
1.67 -0.23012103140354156 0.22359681129455566 -0.14509037137031555 0.4989470839500427 0.0 0.0 0.0 0.0
1.671 -0.220988467335701 0.23308059573173523 -0.12802979350090027 0.5048709511756897 0.0 0.0 0.0 0.0
1.672 -0.21181772649288177 0.24172237515449524 -0.11248774081468582 0.5092034339904785 0.0 0.0 0.0 0.0
1.673 -0.20267654955387115 0.24971963465213776 -0.097655288875103 0.5134232044219971 0.0 0.0 0.0 0.0
1.674 -0.19287511706352234 0.2575719654560089 -0.08101718872785568 0.5164803266525269 0.0 0.0 0.0 0.0
1.675 -0.18294575810432434 0.2656019926071167 -0.06506650894880295 0.5197494029998779 0.0 0.0 0.0 0.0
1.676 -0.17262102663516998 0.27323058247566223 -0.04852770268917084 0.5224601030349731 0.0 0.0 0.0 0.0
1.677 -0.16379448771476746 0.2794290781021118 -0.034571897238492966 0.5246333479881287 0.0 0.0 0.0 0.0
1.678 -0.15168146789073944 0.2858718931674957 -0.0156759861856699 0.5254515409469604 0.0 0.0 0.0 0.0
1.679 -0.140437051653862 0.2933403253555298 -0.00039741117507219315 0.5284024477005005 0.0 0.0 0.0 0.0
1.68 -0.12959302961826324 0.2970114052295685 0.0168954785913229 0.525460422039032 0.0 0.0 0.0 0.0
1.681 -0.1183423399925232 0.30385035276412964 0.034420356154441833 0.5297184586524963 0.0 0.0 0.0 0.0
1.682 -0.10594277083873749 0.30827876925468445 0.05269048362970352 0.5287500023841858 0.0 0.0 0.0 0.0
1.683 -0.09488862007856369 0.3124839961528778 0.06878241151571274 0.5280697345733643 0.0 0.0 0.0 0.0
1.684 -0.08361811190843582 0.31577083468437195 0.08615076541900635 0.5250730514526367 0.0 0.0 0.0 0.0
1.685 -0.07246363162994385 0.3198221027851105 0.10241542756557465 0.5242050290107727 0.0 0.0 0.0 0.0
1.686 -0.059491824358701706 0.32343506813049316 0.1214875653386116 0.5208443403244019 0.0 0.0 0.0 0.0
1.687 -0.048241641372442245 0.32654714584350586 0.13627947866916656 0.5193555355072021 0.0 0.0 0.0 0.0
1.688 -0.036461662501096725 0.3287905156612396 0.1527085155248642 0.5153887271881104 0.0 0.0 0.0 0.0
1.689 -0.023523133248090744 0.33042049407958984 0.17154859006404877 0.5114293098449707 0.0 0.0 0.0 0.0
1.69 -0.011466625146567822 0.3313615918159485 0.18681268393993378 0.506277859210968 0.0 0.0 0.0 0.0
1.691 0.0009743776172399521 0.3330771327018738 0.20439091324806213 0.5019348859786987 0.0 0.0 0.0 0.0
1.692 0.014484982006251812 0.3340134918689728 0.2246783822774887 0.4969041049480438 0.0 0.0 0.0 0.0
1.693 0.024959176778793335 0.3337680697441101 0.23732337355613708 0.49107879400253296 0.0 0.0 0.0 0.0
1.694 0.03662431985139847 0.33336904644966125 0.25343459844589233 0.48426884412765503 0.0 0.0 0.0 0.0
1.695 0.048436131328344345 0.3323790431022644 0.2692473232746124 0.47654688358306885 0.0 0.0 0.0 0.0
1.696 0.061112456023693085 0.3307115435600281 0.2874145209789276 0.4679880142211914 0.0 0.0 0.0 0.0
1.697 0.07384823262691498 0.32897841930389404 0.3035475015640259 0.4595698118209839 0.0 0.0 0.0 0.0
1.698 0.08606457710266113 0.3270488381385803 0.3191021680831909 0.4518309235572815 0.0 0.0 0.0 0.0
1.699 0.09677057713270187 0.32350412011146545 0.33509567379951477 0.4410920739173889 0.0 0.0 0.0 0.0
1.7 0.10830851644277573 0.32018178701400757 0.3509225845336914 0.43044430017471313 0.0 0.0 0.0 0.0
1.701 0.11870331317186356 0.3168905973434448 0.3647990822792053 0.4200265407562256 0.0 0.0 0.0 0.0
1.702 0.13019117712974548 0.31296876072883606 0.38051527738571167 0.4081091284751892 0.0 0.0 0.0 0.0
1.703 0.14016497135162354 0.30875372886657715 0.39471524953842163 0.3962843120098114 0.0 0.0 0.0 0.0
1.704 0.15207307040691376 0.3021206259727478 0.4107184410095215 0.38165414333343506 0.0 0.0 0.0 0.0
1.705 0.16120758652687073 0.29931941628456116 0.42162132263183594 0.37165847420692444 0.0 0.0 0.0 0.0
1.706 0.1707257330417633 0.29394590854644775 0.4354018270969391 0.35744205117225647 0.0 0.0 0.0 0.0
1.707 0.1809839904308319 0.28759151697158813 0.44890597462654114 0.34244394302368164 0.0 0.0 0.0 0.0
1.708 0.19007988274097443 0.2815830111503601 0.460313618183136 0.3292004466056824 0.0 0.0 0.0 0.0
1.709 0.1992625892162323 0.2760224938392639 0.4728429913520813 0.3143775165081024 0.0 0.0 0.0 0.0
1.71 0.20761311054229736 0.26928773522377014 0.4848489463329315 0.29789358377456665 0.0 0.0 0.0 0.0
1.711 0.21656060218811035 0.26225215196609497 0.4958977699279785 0.2819770574569702 0.0 0.0 0.0 0.0
1.712 0.22434289753437042 0.25543415546417236 0.506047248840332 0.26565679907798767 0.0 0.0 0.0 0.0
1.713 0.2316451370716095 0.24793067574501038 0.5156711339950562 0.24799419939517975 0.0 0.0 0.0 0.0
1.714 0.23883362114429474 0.24136170744895935 0.5254985094070435 0.23019422590732574 0.0 0.0 0.0 0.0
1.715 0.2465379238128662 0.23374462127685547 0.5341976881027222 0.2132459282875061 0.0 0.0 0.0 0.0
1.716 0.2531563937664032 0.2244524508714676 0.5421302318572998 0.19440127909183502 0.0 0.0 0.0 0.0
1.717 0.2589871287345886 0.21819500625133514 0.5495054721832275 0.17630279064178467 0.0 0.0 0.0 0.0
1.718 0.26582273840904236 0.2099038064479828 0.5567732453346252 0.1573266088962555 0.0 0.0 0.0 0.0
1.719 0.27213844656944275 0.2026195377111435 0.5624695420265198 0.13950981199741364 0.0 0.0 0.0 0.0
1.72 0.276528000831604 0.1964700073003769 0.5673838257789612 0.12283903360366821 0.0 0.0 0.0 0.0
1.721 0.28295794129371643 0.1861368864774704 0.5729795694351196 0.10109250992536545 0.0 0.0 0.0 0.0
1.722 0.28798118233680725 0.17787623405456543 0.5772873759269714 0.08216975629329681 0.0 0.0 0.0 0.0
1.723 0.2930501103401184 0.1695641279220581 0.5808946490287781 0.0619756355881691 0.0 0.0 0.0 0.0
1.724 0.2970351278781891 0.16151729226112366 0.5839486718177795 0.04199712723493576 0.0 0.0 0.0 0.0
1.725 0.3015722334384918 0.15164928138256073 0.5861280560493469 0.021573273465037346 0.0 0.0 0.0 0.0
1.726 0.3047846257686615 0.14329040050506592 0.5875775218009949 0.0011093942448496819 0.0 0.0 0.0 0.0
1.727 0.3075921833515167 0.13528499007225037 0.5880422592163086 -0.019173484295606613 0.0 0.0 0.0 0.0
1.728 0.3113780617713928 0.12665283679962158 0.5873650312423706 -0.040785837918519974 0.0 0.0 0.0 0.0
1.729 0.31400343775749207 0.11858753859996796 0.5871469378471375 -0.06002642959356308 0.0 0.0 0.0 0.0
1.73 0.31673818826675415 0.10997027903795242 0.5850720405578613 -0.08163757622241974 0.0 0.0 0.0 0.0
1.731 0.3192467987537384 0.10132265090942383 0.5828779935836792 -0.1019292101264 0.0 0.0 0.0 0.0
1.732 0.3211504817008972 0.09273271262645721 0.5799329876899719 -0.12139761447906494 0.0 0.0 0.0 0.0
1.733 0.32341986894607544 0.08401814103126526 0.575761079788208 -0.14311915636062622 0.0 0.0 0.0 0.0
1.734 0.32525935769081116 0.07538960874080658 0.570976972579956 -0.16332398355007172 0.0 0.0 0.0 0.0
1.735 0.3265132009983063 0.0673714131116867 0.5657869577407837 -0.18310661613941193 0.0 0.0 0.0 0.0
1.736 0.327873557806015 0.05949429050087929 0.5600878000259399 -0.20184974372386932 0.0 0.0 0.0 0.0
1.737 0.32919853925704956 0.049657173454761505 0.5531456470489502 -0.22202923893928528 0.0 0.0 0.0 0.0
1.738 0.32985779643058777 0.04205840453505516 0.5455968379974365 -0.24073833227157593 0.0 0.0 0.0 0.0
1.739 0.33015158772468567 0.033253856003284454 0.5369571447372437 -0.2620723843574524 0.0 0.0 0.0 0.0
1.74 0.330344557762146 0.024654699489474297 0.5268942713737488 -0.2806701064109802 0.0 0.0 0.0 0.0
1.741 0.3304804861545563 0.015955504029989243 0.5174157619476318 -0.2995145320892334 0.0 0.0 0.0 0.0
1.742 0.33054858446121216 0.009412630461156368 0.506555438041687 -0.3175416588783264 0.0 0.0 0.0 0.0
1.743 0.3308960497379303 0.0018347091972827911 0.49579206109046936 -0.33470797538757324 0.0 0.0 0.0 0.0
1.744 0.33111971616744995 -0.007405788637697697 0.4846525192260742 -0.35193756222724915 0.0 0.0 0.0 0.0
1.745 0.33116963505744934 -0.01584792137145996 0.47172442078590393 -0.36867180466651917 0.0 0.0 0.0 0.0
1.746 0.3308611810207367 -0.02365978993475437 0.46039846539497375 -0.3851855993270874 0.0 0.0 0.0 0.0
1.747 0.32989564538002014 -0.03263680636882782 0.4459017217159271 -0.4015134274959564 0.0 0.0 0.0 0.0
1.748 0.3285844624042511 -0.0420663021504879 0.43297868967056274 -0.41720080375671387 0.0 0.0 0.0 0.0
1.749 0.32664042711257935 -0.050311800092458725 0.4182948172092438 -0.43272849917411804 0.0 0.0 0.0 0.0
1.75 0.3248368799686432 -0.05836131423711777 0.4025056064128876 -0.44755566120147705 0.0 0.0 0.0 0.0
1.751 0.3226352632045746 -0.06616485863924026 0.3870415687561035 -0.46149179339408875 0.0 0.0 0.0 0.0
1.752 0.31946542859077454 -0.07457421720027924 0.3660089373588562 -0.47532138228416443 0.0 0.0 0.0 0.0
1.753 0.31799817085266113 -0.08135349303483963 0.3525417447090149 -0.488333135843277 0.0 0.0 0.0 0.0
1.754 0.3157919645309448 -0.09016144275665283 0.33295729756355286 -0.5008307099342346 0.0 0.0 0.0 0.0
1.755 0.3137168884277344 -0.09731622785329819 0.3164662718772888 -0.5111815333366394 0.0 0.0 0.0 0.0
1.756 0.31160837411880493 -0.10461132228374481 0.29917219281196594 -0.5202734470367432 0.0 0.0 0.0 0.0
1.757 0.3086543381214142 -0.11399440467357635 0.2792742848396301 -0.5310192704200745 0.0 0.0 0.0 0.0
1.758 0.30619147419929504 -0.12120070308446884 0.26159951090812683 -0.5407530665397644 0.0 0.0 0.0 0.0
1.759 0.30312132835388184 -0.130042165517807 0.24270442128181458 -0.5490821599960327 0.0 0.0 0.0 0.0
1.76 0.2992572486400604 -0.1379385143518448 0.22268563508987427 -0.5559583902359009 0.0 0.0 0.0 0.0
1.761 0.2955757677555084 -0.14559702575206757 0.2044076770544052 -0.5632085800170898 0.0 0.0 0.0 0.0
1.762 0.2908647358417511 -0.15412479639053345 0.18328562378883362 -0.5697411298751831 0.0 0.0 0.0 0.0
1.763 0.28652915358543396 -0.162550151348114 0.16366538405418396 -0.5750583410263062 0.0 0.0 0.0 0.0
1.764 0.28223150968551636 -0.16926215589046478 0.14370161294937134 -0.5789482593536377 0.0 0.0 0.0 0.0
1.765 0.27747842669487 -0.1777907907962799 0.12432154268026352 -0.5848682522773743 0.0 0.0 0.0 0.0
1.766 0.2719515264034271 -0.1859167218208313 0.10317650437355042 -0.589302659034729 0.0 0.0 0.0 0.0
1.767 0.26546499133110046 -0.19350053369998932 0.08206983655691147 -0.5909265875816345 0.0 0.0 0.0 0.0
1.768 0.25986942648887634 -0.20038947463035583 0.06194689869880676 -0.5936716794967651 0.0 0.0 0.0 0.0
1.769 0.2534058392047882 -0.2075555920600891 0.03954391926527023 -0.5945215821266174 0.0 0.0 0.0 0.0
1.77 0.24715270102024078 -0.2150421440601349 0.020171280950307846 -0.595720648765564 0.0 0.0 0.0 0.0
1.771 0.24066996574401855 -0.2221887856721878 -0.00048668868839740753 -0.5957589745521545 0.0 0.0 0.0 0.0
1.772 0.23367512226104736 -0.2283635437488556 -0.020935874432325363 -0.5937819480895996 0.0 0.0 0.0 0.0
1.773 0.22619760036468506 -0.2346983253955841 -0.042335644364356995 -0.5918658971786499 0.0 0.0 0.0 0.0
1.774 0.21826136112213135 -0.2404620349407196 -0.06353176385164261 -0.5867509245872498 0.0 0.0 0.0 0.0
1.775 0.21076229214668274 -0.24776993691921234 -0.08395421504974365 -0.5857933759689331 0.0 0.0 0.0 0.0
1.776 0.20364412665367126 -0.2514966130256653 -0.10147763788700104 -0.5776536464691162 0.0 0.0 0.0 0.0
1.777 0.1939690262079239 -0.25960806012153625 -0.1242668628692627 -0.5771467685699463 0.0 0.0 0.0 0.0
1.778 0.1853744238615036 -0.264991819858551 -0.14330433309078217 -0.5714259147644043 0.0 0.0 0.0 0.0
1.779 0.17860537767410278 -0.2697122395038605 -0.15953576564788818 -0.5666877031326294 0.0 0.0 0.0 0.0
1.78 0.16726118326187134 -0.2749163806438446 -0.18275666236877441 -0.5585667490959167 0.0 0.0 0.0 0.0
1.781 0.1590437889099121 -0.2795206308364868 -0.19853191077709198 -0.5514761805534363 0.0 0.0 0.0 0.0
1.782 0.14865243434906006 -0.28485503792762756 -0.21979714930057526 -0.542664110660553 0.0 0.0 0.0 0.0
1.783 0.13848452270030975 -0.28997382521629333 -0.23644712567329407 -0.536594569683075 0.0 0.0 0.0 0.0
1.784 0.13013777136802673 -0.29252734780311584 -0.2506771385669708 -0.526508629322052 0.0 0.0 0.0 0.0
1.785 0.11866950988769531 -0.29580065608024597 -0.26972636580467224 -0.5162471532821655 0.0 0.0 0.0 0.0
1.786 0.1074296161532402 -0.2998919188976288 -0.2874293327331543 -0.5073463916778564 0.0 0.0 0.0 0.0
1.787 0.09707418829202652 -0.3018622398376465 -0.30422505736351013 -0.49633848667144775 0.0 0.0 0.0 0.0
1.788 0.08658924698829651 -0.301843523979187 -0.31894952058792114 -0.48216062784194946 0.0 0.0 0.0 0.0
1.789 0.07564748078584671 -0.30497246980667114 -0.33552244305610657 -0.4713473916053772 0.0 0.0 0.0 0.0
1.79 0.06511170417070389 -0.30734437704086304 -0.3488231301307678 -0.46128955483436584 0.0 0.0 0.0 0.0
1.791 0.05420583486557007 -0.30823108553886414 -0.3646695613861084 -0.44689562916755676 0.0 0.0 0.0 0.0
1.792 0.041419461369514465 -0.30836746096611023 -0.37977349758148193 -0.43334269523620605 0.0 0.0 0.0 0.0
1.793 0.031107032671570778 -0.3095029592514038 -0.39176318049430847 -0.42081981897354126 0.0 0.0 0.0 0.0
1.794 0.019252097234129906 -0.3094959259033203 -0.40468791127204895 -0.40784236788749695 0.0 0.0 0.0 0.0
1.795 0.00873785000294447 -0.3097147047519684 -0.4166293740272522 -0.39574211835861206 0.0 0.0 0.0 0.0
1.796 -0.003731396049261093 -0.3080368638038635 -0.42812809348106384 -0.379825234413147 0.0 0.0 0.0 0.0
1.797 -0.015247159637510777 -0.3063930869102478 -0.4399661719799042 -0.3654128313064575 0.0 0.0 0.0 0.0
1.798 -0.028347769752144814 -0.30479058623313904 -0.45338892936706543 -0.34974318742752075 0.0 0.0 0.0 0.0
1.799 -0.038833655416965485 -0.3012554943561554 -0.4627663195133209 -0.33379170298576355 0.0 0.0 0.0 0.0
1.8 -0.05016890913248062 -0.29545357823371887 -0.4723970592021942 -0.31511297821998596 0.0 0.0 0.0 0.0
1.801 -0.06217636913061142 -0.2960544228553772 -0.4831678867340088 -0.3022730350494385 0.0 0.0 0.0 0.0
1.802 -0.07166813313961029 -0.29179856181144714 -0.49059805274009705 -0.2861383855342865 0.0 0.0 0.0 0.0
1.803 -0.08331751823425293 -0.28796350955963135 -0.4990052282810211 -0.269188791513443 0.0 0.0 0.0 0.0
1.804 -0.0943768173456192 -0.28295138478279114 -0.5066770911216736 -0.25287526845932007 0.0 0.0 0.0 0.0
1.805 -0.10535996407270432 -0.27796658873558044 -0.5138811469078064 -0.23700305819511414 0.0 0.0 0.0 0.0
1.806 -0.11631768941879272 -0.2727231979370117 -0.5210747122764587 -0.22051125764846802 0.0 0.0 0.0 0.0
1.807 -0.12644369900226593 -0.2667563259601593 -0.5270037651062012 -0.2030966877937317 0.0 0.0 0.0 0.0
1.808 -0.13717269897460938 -0.26023662090301514 -0.5334030389785767 -0.18574465811252594 0.0 0.0 0.0 0.0
1.809 -0.14766433835029602 -0.253568172454834 -0.5388357639312744 -0.16941098868846893 0.0 0.0 0.0 0.0
1.81 -0.15700672566890717 -0.24730165302753448 -0.5431183576583862 -0.15159446001052856 0.0 0.0 0.0 0.0
1.811 -0.16634304821491241 -0.2384977489709854 -0.5474925637245178 -0.13270685076713562 0.0 0.0 0.0 0.0
1.812 -0.175543874502182 -0.23045101761817932 -0.5507057309150696 -0.11625920236110687 0.0 0.0 0.0 0.0
1.813 -0.1847144216299057 -0.22166021168231964 -0.5541266798973083 -0.09777451306581497 0.0 0.0 0.0 0.0
1.814 -0.1927320808172226 -0.213923841714859 -0.5559440851211548 -0.07972762733697891 0.0 0.0 0.0 0.0
1.815 -0.20081287622451782 -0.20524881780147552 -0.557629406452179 -0.063059002161026 0.0 0.0 0.0 0.0
1.816 -0.20924557745456696 -0.19499589502811432 -0.5590813755989075 -0.04412258043885231 0.0 0.0 0.0 0.0
1.817 -0.2163550704717636 -0.18663835525512695 -0.560118556022644 -0.027759244665503502 0.0 0.0 0.0 0.0
1.818 -0.22344502806663513 -0.1767643541097641 -0.5606891512870789 -0.009186419658362865 0.0 0.0 0.0 0.0
1.819 -0.23051445186138153 -0.16663840413093567 -0.5604295134544373 0.008342082612216473 0.0 0.0 0.0 0.0
1.82 -0.23755531013011932 -0.1559922993183136 -0.5589576959609985 0.02687189355492592 0.0 0.0 0.0 0.0
1.821 -0.2427341789007187 -0.14687339961528778 -0.5578041672706604 0.04321356862783432 0.0 0.0 0.0 0.0
1.822 -0.2486552745103836 -0.13700000941753387 -0.5561141967773438 0.06032485142350197 0.0 0.0 0.0 0.0
1.823 -0.25390031933784485 -0.12531863152980804 -0.5535513758659363 0.07843072712421417 0.0 0.0 0.0 0.0
1.824 -0.2598663866519928 -0.11348574608564377 -0.55046546459198 0.0945577546954155 0.0 0.0 0.0 0.0
1.825 -0.2642991542816162 -0.10347490012645721 -0.5477985143661499 0.1111358255147934 0.0 0.0 0.0 0.0
1.826 -0.2683950662612915 -0.09136563539505005 -0.5443954467773438 0.12965792417526245 0.0 0.0 0.0 0.0
1.827 -0.27177488803863525 -0.08028712868690491 -0.540337085723877 0.1457451581954956 0.0 0.0 0.0 0.0
1.828 -0.2747677266597748 -0.06820237636566162 -0.5355813503265381 0.16268290579319 0.0 0.0 0.0 0.0
1.829 -0.2778165638446808 -0.05628029257059097 -0.530371904373169 0.18073724210262299 0.0 0.0 0.0 0.0
1.83 -0.2800569236278534 -0.044922251254320145 -0.5250341892242432 0.1962766796350479 0.0 0.0 0.0 0.0
1.831 -0.28204697370529175 -0.03301602602005005 -0.518673837184906 0.21111130714416504 0.0 0.0 0.0 0.0
1.832 -0.2831011414527893 -0.021201638504862785 -0.5124550461769104 0.2302098274230957 0.0 0.0 0.0 0.0
1.833 -0.28425517678260803 -0.008284032344818115 -0.5047951340675354 0.24564290046691895 0.0 0.0 0.0 0.0
1.834 -0.28467032313346863 0.003403906710445881 -0.4988158941268921 0.2614101469516754 0.0 0.0 0.0 0.0
1.835 -0.2842572331428528 0.014930925332009792 -0.49020299315452576 0.2771010994911194 0.0 0.0 0.0 0.0
1.836 -0.28366369009017944 0.027079248800873756 -0.4806216359138489 0.2940605580806732 0.0 0.0 0.0 0.0
1.837 -0.28265807032585144 0.0388348251581192 -0.47264519333839417 0.30864280462265015 0.0 0.0 0.0 0.0
1.838 -0.28126782178878784 0.04950576648116112 -0.46310722827911377 0.3232402801513672 0.0 0.0 0.0 0.0
1.839 -0.27931636571884155 0.06097034364938736 -0.4522883892059326 0.3390805423259735 0.0 0.0 0.0 0.0
1.84 -0.2770499885082245 0.07318048179149628 -0.44232192635536194 0.3525559902191162 0.0 0.0 0.0 0.0
1.841 -0.2743915319442749 0.08398465812206268 -0.43114253878593445 0.36643046140670776 0.0 0.0 0.0 0.0
1.842 -0.27132299542427063 0.09495101869106293 -0.41871851682662964 0.3819150924682617 0.0 0.0 0.0 0.0
1.843 -0.2680409252643585 0.10487499833106995 -0.4067287743091583 0.39323458075523376 0.0 0.0 0.0 0.0
1.844 -0.26471227407455444 0.11633588373661041 -0.39491593837738037 0.40766793489456177 0.0 0.0 0.0 0.0
1.845 -0.26102325320243835 0.12642323970794678 -0.3827543556690216 0.41938236355781555 0.0 0.0 0.0 0.0
1.846 -0.2572317123413086 0.1368531584739685 -0.36900758743286133 0.4337085783481598 0.0 0.0 0.0 0.0
1.847 -0.2524794936180115 0.14687249064445496 -0.3561341166496277 0.4454917907714844 0.0 0.0 0.0 0.0
1.848 -0.2462494820356369 0.15644194185733795 -0.33940109610557556 0.4553399682044983 0.0 0.0 0.0 0.0
1.849 -0.24246948957443237 0.1668228954076767 -0.3287936747074127 0.46779516339302063 0.0 0.0 0.0 0.0
1.85 -0.2370324581861496 0.17537711560726166 -0.31549695134162903 0.4784609377384186 0.0 0.0 0.0 0.0
1.851 -0.23062586784362793 0.18561357259750366 -0.2992521822452545 0.4907527565956116 0.0 0.0 0.0 0.0
1.852 -0.2236350029706955 0.19442328810691833 -0.28306546807289124 0.49994370341300964 0.0 0.0 0.0 0.0
1.853 -0.21782603859901428 0.2029687613248825 -0.2673579752445221 0.5103359818458557 0.0 0.0 0.0 0.0
1.854 -0.21184754371643066 0.21061676740646362 -0.25289103388786316 0.5187069773674011 0.0 0.0 0.0 0.0
1.855 -0.20397678017616272 0.2189110517501831 -0.23400002717971802 0.5283195972442627 0.0 0.0 0.0 0.0
1.856 -0.1966003179550171 0.22696258127689362 -0.21905387938022614 0.5362240076065063 0.0 0.0 0.0 0.0
1.857 -0.1900644153356552 0.23411542177200317 -0.2028515636920929 0.5439087748527527 0.0 0.0 0.0 0.0
1.858 -0.18377405405044556 0.240451380610466 -0.18644502758979797 0.5494691133499146 0.0 0.0 0.0 0.0
1.859 -0.17380179464817047 0.2491975724697113 -0.16714124381542206 0.5591530203819275 0.0 0.0 0.0 0.0
1.86 -0.1662236899137497 0.2550102174282074 -0.14979185163974762 0.5643563866615295 0.0 0.0 0.0 0.0
1.861 -0.15770332515239716 0.2626350224018097 -0.1303628832101822 0.5742879509925842 0.0 0.0 0.0 0.0
1.862 -0.14906948804855347 0.2677956819534302 -0.11218521744012833 0.5775144100189209 0.0 0.0 0.0 0.0
1.863 -0.13972125947475433 0.2734372019767761 -0.09148748219013214 0.5826334357261658 0.0 0.0 0.0 0.0
1.864 -0.13220824301242828 0.2773190140724182 -0.07354585081338882 0.5848240852355957 0.0 0.0 0.0 0.0
1.865 -0.12344677746295929 0.2819724380970001 -0.05467817932367325 0.5889488458633423 0.0 0.0 0.0 0.0
1.866 -0.11402969062328339 0.2878178060054779 -0.03363842889666557 0.5942521691322327 0.0 0.0 0.0 0.0
1.867 -0.10610827803611755 0.28987473249435425 -0.0156131312251091 0.5927931666374207 0.0 0.0 0.0 0.0
1.868 -0.09804142266511917 0.2951303720474243 0.004866785369813442 0.5964239239692688 0.0 0.0 0.0 0.0
1.869 -0.0907914787530899 0.29796066880226135 0.021606311202049255 0.5969734191894531 0.0 0.0 0.0 0.0
1.87 -0.07900001853704453 0.3032875061035156 0.04639167711138725 0.6002799272537231 0.0 0.0 0.0 0.0
1.871 -0.07256361097097397 0.3042098581790924 0.061243053525686264 0.5972205400466919 0.0 0.0 0.0 0.0
1.872 -0.06099292263388634 0.30758482217788696 0.08787867426872253 0.5965341925621033 0.0 0.0 0.0 0.0
1.873 -0.05532683804631233 0.3095278739929199 0.1005650982260704 0.5945570468902588 0.0 0.0 0.0 0.0
1.874 -0.04544992744922638 0.31180036067962646 0.12362372130155563 0.5924615859985352 0.0 0.0 0.0 0.0
1.875 -0.0366114042699337 0.3135235905647278 0.1436847299337387 0.5897956490516663 0.0 0.0 0.0 0.0
1.876 -0.027714626863598824 0.3142620325088501 0.16585470736026764 0.5846546292304993 0.0 0.0 0.0 0.0
1.877 -0.020712774246931076 0.3164260983467102 0.18246223032474518 0.5817487239837646 0.0 0.0 0.0 0.0
1.878 -0.011423441581428051 0.31770533323287964 0.20263999700546265 0.576627790927887 0.0 0.0 0.0 0.0
1.879 -0.004389730282127857 0.32021987438201904 0.2217339724302292 0.5737941861152649 0.0 0.0 0.0 0.0
1.88 0.004895650781691074 0.31956228613853455 0.2437007576227188 0.5640361309051514 0.0 0.0 0.0 0.0
1.881 0.013930798508226871 0.3206304609775543 0.2623158097267151 0.5582938194274902 0.0 0.0 0.0 0.0
1.882 0.0222984179854393 0.3205004930496216 0.28136518597602844 0.5506435632705688 0.0 0.0 0.0 0.0
1.883 0.030230393633246422 0.3201827108860016 0.30181455612182617 0.5415925979614258 0.0 0.0 0.0 0.0
1.884 0.04015614092350006 0.3205268979072571 0.32249048352241516 0.5343511700630188 0.0 0.0 0.0 0.0
1.885 0.04599224403500557 0.31900477409362793 0.3368847966194153 0.523689866065979 0.0 0.0 0.0 0.0
1.886 0.054342109709978104 0.3182922899723053 0.3574811518192291 0.5118461847305298 0.0 0.0 0.0 0.0
1.887 0.06271246075630188 0.31653082370758057 0.37609001994132996 0.500541090965271 0.0 0.0 0.0 0.0
1.888 0.07025156915187836 0.3169456124305725 0.39328983426094055 0.4915289878845215 0.0 0.0 0.0 0.0
1.889 0.07719382643699646 0.31411534547805786 0.4108748137950897 0.47649163007736206 0.0 0.0 0.0 0.0
1.89 0.08394569903612137 0.3129969537258148 0.4276716709136963 0.46361133456230164 0.0 0.0 0.0 0.0
1.891 0.09352608025074005 0.3092479705810547 0.4472624361515045 0.4449027180671692 0.0 0.0 0.0 0.0
1.892 0.09957382827997208 0.3091030418872833 0.4619069993495941 0.4331456124782562 0.0 0.0 0.0 0.0
1.893 0.10552305728197098 0.3082851767539978 0.4757709205150604 0.42008426785469055 0.0 0.0 0.0 0.0
1.894 0.11359166353940964 0.3070177733898163 0.4930790960788727 0.40450847148895264 0.0 0.0 0.0 0.0
1.895 0.12061041593551636 0.3031091094017029 0.5080932378768921 0.3858935236930847 0.0 0.0 0.0 0.0
1.896 0.12917521595954895 0.3021589517593384 0.5235649347305298 0.3719758987426758 0.0 0.0 0.0 0.0
1.897 0.13470229506492615 0.29864680767059326 0.537369966506958 0.3513462543487549 0.0 0.0 0.0 0.0
1.898 0.1407109498977661 0.29600638151168823 0.5489504337310791 0.33238446712493896 0.0 0.0 0.0 0.0
1.899 0.14752055704593658 0.2932916581630707 0.5608903765678406 0.31450632214546204 0.0 0.0 0.0 0.0
1.9 0.15360823273658752 0.29144495725631714 0.5724561810493469 0.2961500883102417 0.0 0.0 0.0 0.0
1.901 0.15991400182247162 0.2875460982322693 0.5837389826774597 0.27510303258895874 0.0 0.0 0.0 0.0
1.902 0.1676708310842514 0.28390806913375854 0.5946019291877747 0.25405019521713257 0.0 0.0 0.0 0.0
1.903 0.17308920621871948 0.2806698679924011 0.6040927767753601 0.23343659937381744 0.0 0.0 0.0 0.0
1.904 0.17878727614879608 0.278292715549469 0.6125048398971558 0.21273858845233917 0.0 0.0 0.0 0.0
1.905 0.1855599284172058 0.27429723739624023 0.6211286783218384 0.18934690952301025 0.0 0.0 0.0 0.0
1.906 0.18968285620212555 0.2706473171710968 0.6269590854644775 0.16795510053634644 0.0 0.0 0.0 0.0
1.907 0.19698527455329895 0.2677617371082306 0.6335724592208862 0.14612235128879547 0.0 0.0 0.0 0.0
1.908 0.20275884866714478 0.2669527232646942 0.6392644643783569 0.12400458008050919 0.0 0.0 0.0 0.0
1.909 0.20809519290924072 0.25997108221054077 0.6429208517074585 0.10185673087835312 0.0 0.0 0.0 0.0
1.91 0.21545319259166718 0.25705307722091675 0.6477540135383606 0.07926326990127563 0.0 0.0 0.0 0.0
1.911 0.22083806991577148 0.25351426005363464 0.6502191424369812 0.056846603751182556 0.0 0.0 0.0 0.0
1.912 0.22684592008590698 0.24965140223503113 0.6522003412246704 0.033911850303411484 0.0 0.0 0.0 0.0
1.913 0.23220424354076385 0.2458556592464447 0.653963565826416 0.013405069708824158 0.0 0.0 0.0 0.0
1.914 0.23859946429729462 0.24003145098686218 0.6539503931999207 -0.01279860083013773 0.0 0.0 0.0 0.0
1.915 0.24434730410575867 0.23525525629520416 0.6532894968986511 -0.03688286989927292 0.0 0.0 0.0 0.0
1.916 0.2504764795303345 0.23112770915031433 0.652351975440979 -0.05833851546049118 0.0 0.0 0.0 0.0
1.917 0.257199227809906 0.22592994570732117 0.650276243686676 -0.08352375775575638 0.0 0.0 0.0 0.0
1.918 0.2610231637954712 0.2222861796617508 0.6482162475585938 -0.10356613248586655 0.0 0.0 0.0 0.0
1.919 0.26764342188835144 0.21618518233299255 0.6440459489822388 -0.1260983645915985 0.0 0.0 0.0 0.0
1.92 0.27418333292007446 0.210397869348526 0.6388921141624451 -0.15169109404087067 0.0 0.0 0.0 0.0
1.921 0.2799224257469177 0.20420344173908234 0.6338465213775635 -0.17340423166751862 0.0 0.0 0.0 0.0
1.922 0.28440237045288086 0.19825902581214905 0.6276841163635254 -0.19541576504707336 0.0 0.0 0.0 0.0
1.923 0.2890119254589081 0.19193583726882935 0.6203277111053467 -0.21844233572483063 0.0 0.0 0.0 0.0
1.924 0.29458490014076233 0.1848141998052597 0.6126847267150879 -0.24141861498355865 0.0 0.0 0.0 0.0
1.925 0.29929736256599426 0.17862877249717712 0.6041254997253418 -0.26106786727905273 0.0 0.0 0.0 0.0
1.926 0.3044396936893463 0.17113812267780304 0.5938351154327393 -0.2828466296195984 0.0 0.0 0.0 0.0
1.927 0.3093186914920807 0.16470754146575928 0.582161009311676 -0.3044849634170532 0.0 0.0 0.0 0.0
1.928 0.31365346908569336 0.15604150295257568 0.5714908838272095 -0.3239956796169281 0.0 0.0 0.0 0.0
1.929 0.31801632046699524 0.14925558865070343 0.5604490041732788 -0.3424091041088104 0.0 0.0 0.0 0.0
1.93 0.32248690724372864 0.14054955542087555 0.5473242998123169 -0.36298316717147827 0.0 0.0 0.0 0.0
1.931 0.3260160982608795 0.13263046741485596 0.5347992181777954 -0.38233712315559387 0.0 0.0 0.0 0.0
1.932 0.3300192654132843 0.1224185898900032 0.5191119909286499 -0.39823117852211 0.0 0.0 0.0 0.0
1.933 0.3338470458984375 0.1142893061041832 0.5054199695587158 -0.41869598627090454 0.0 0.0 0.0 0.0
1.934 0.33642813563346863 0.1058710366487503 0.49030551314353943 -0.43625402450561523 0.0 0.0 0.0 0.0
1.935 0.33922886848449707 0.09717710316181183 0.4745706021785736 -0.45274966955184937 0.0 0.0 0.0 0.0
1.936 0.3424018621444702 0.08750737458467484 0.4561515152454376 -0.46810027956962585 0.0 0.0 0.0 0.0
1.937 0.34471848607063293 0.07791952788829803 0.4415590465068817 -0.48497554659843445 0.0 0.0 0.0 0.0
1.938 0.3462609350681305 0.06759897619485855 0.42257577180862427 -0.49911168217658997 0.0 0.0 0.0 0.0
1.939 0.34780433773994446 0.058228813111782074 0.40727314352989197 -0.514032781124115 0.0 0.0 0.0 0.0
1.94 0.34953728318214417 0.04755396023392677 0.3882087171077728 -0.5274970531463623 0.0 0.0 0.0 0.0
1.941 0.35059499740600586 0.038101084530353546 0.3700583279132843 -0.5402236580848694 0.0 0.0 0.0 0.0
1.942 0.35055845975875854 0.025792425498366356 0.3490298390388489 -0.5514841675758362 0.0 0.0 0.0 0.0
1.943 0.3510861396789551 0.015434893779456615 0.3291107714176178 -0.5641623735427856 0.0 0.0 0.0 0.0
1.944 0.35068461298942566 0.004385071806609631 0.312756210565567 -0.5756890177726746 0.0 0.0 0.0 0.0
1.945 0.35010024905204773 -0.004747111350297928 0.29393503069877625 -0.5852761268615723 0.0 0.0 0.0 0.0
1.946 0.34821680188179016 -0.017208747565746307 0.2687872350215912 -0.593424916267395 0.0 0.0 0.0 0.0
1.947 0.34610462188720703 -0.02896030619740486 0.24610409140586853 -0.6033867001533508 0.0 0.0 0.0 0.0
1.948 0.3439086973667145 -0.039400119334459305 0.2278623729944229 -0.6114184856414795 0.0 0.0 0.0 0.0
1.949 0.3413566052913666 -0.050542570650577545 0.206346333026886 -0.6165400147438049 0.0 0.0 0.0 0.0
1.95 0.3374083936214447 -0.06211608648300171 0.18304502964019775 -0.6235325336456299 0.0 0.0 0.0 0.0
1.951 0.33377671241760254 -0.07336035370826721 0.16209259629249573 -0.6294770240783691 0.0 0.0 0.0 0.0
1.952 0.3296537697315216 -0.0833113044500351 0.141473650932312 -0.632984459400177 0.0 0.0 0.0 0.0
1.953 0.3250277638435364 -0.09415944665670395 0.11818765848875046 -0.6376888155937195 0.0 0.0 0.0 0.0
1.954 0.3188687264919281 -0.10505860298871994 0.09351219981908798 -0.6411519646644592 0.0 0.0 0.0 0.0
1.955 0.3133130371570587 -0.11627417802810669 0.07287821918725967 -0.6423696279525757 0.0 0.0 0.0 0.0
1.956 0.3084230422973633 -0.12574152648448944 0.05747593194246292 -0.6462778449058533 0.0 0.0 0.0 0.0
1.957 0.30079329013824463 -0.135915607213974 0.0315004326403141 -0.64811772108078 0.0 0.0 0.0 0.0
1.958 0.2931499183177948 -0.1463661640882492 0.00802595354616642 -0.6455081105232239 0.0 0.0 0.0 0.0
1.959 0.28484565019607544 -0.15644438564777374 -0.016039207577705383 -0.6443468332290649 0.0 0.0 0.0 0.0
1.96 0.27689656615257263 -0.16553890705108643 -0.036571890115737915 -0.6413650512695312 0.0 0.0 0.0 0.0
1.961 0.2680124044418335 -0.1742071658372879 -0.057919491082429886 -0.6412498354911804 0.0 0.0 0.0 0.0
1.962 0.25839680433273315 -0.18350772559642792 -0.08180620521306992 -0.6374460458755493 0.0 0.0 0.0 0.0
1.963 0.24893894791603088 -0.19140590727329254 -0.10188749432563782 -0.6351907849311829 0.0 0.0 0.0 0.0
1.964 0.23887749016284943 -0.19861412048339844 -0.12410025298595428 -0.627659797668457 0.0 0.0 0.0 0.0
1.965 0.22860249876976013 -0.2061733901500702 -0.1454695463180542 -0.6237260103225708 0.0 0.0 0.0 0.0
1.966 0.21678607165813446 -0.2127886265516281 -0.1702825278043747 -0.6145198941230774 0.0 0.0 0.0 0.0
1.967 0.2075822502374649 -0.21976147592067719 -0.18644121289253235 -0.6096821427345276 0.0 0.0 0.0 0.0
1.968 0.1964782178401947 -0.2267291396856308 -0.20620766282081604 -0.6031593084335327 0.0 0.0 0.0 0.0
1.969 0.1830892711877823 -0.23218634724617004 -0.22793439030647278 -0.5949440598487854 0.0 0.0 0.0 0.0
1.97 0.17176364362239838 -0.2378501296043396 -0.24684026837348938 -0.5871086716651917 0.0 0.0 0.0 0.0
1.971 0.15942269563674927 -0.24187305569648743 -0.2664017975330353 -0.5766535997390747 0.0 0.0 0.0 0.0
1.972 0.14758199453353882 -0.24434375762939453 -0.28446030616760254 -0.5669201612472534 0.0 0.0 0.0 0.0
1.973 0.13302397727966309 -0.24995893239974976 -0.3047286868095398 -0.5569606423377991 0.0 0.0 0.0 0.0
1.974 0.12103010714054108 -0.2527611553668976 -0.32175248861312866 -0.5455249547958374 0.0 0.0 0.0 0.0
1.975 0.10775341838598251 -0.25567978620529175 -0.3412420451641083 -0.5364822149276733 0.0 0.0 0.0 0.0
1.976 0.09424367547035217 -0.2572186291217804 -0.35930418968200684 -0.5229646563529968 0.0 0.0 0.0 0.0
1.977 0.08064772188663483 -0.25829681754112244 -0.3744792342185974 -0.508030354976654 0.0 0.0 0.0 0.0
1.978 0.06827693432569504 -0.2587830722332001 -0.39175549149513245 -0.49538224935531616 0.0 0.0 0.0 0.0
1.979 0.054172154515981674 -0.258335143327713 -0.4075596332550049 -0.4822632670402527 0.0 0.0 0.0 0.0
1.98 0.03896196931600571 -0.25678685307502747 -0.4262164831161499 -0.46567022800445557 0.0 0.0 0.0 0.0
1.981 0.028049034997820854 -0.25646665692329407 -0.4377261698246002 -0.45088574290275574 0.0 0.0 0.0 0.0
1.982 0.0149237597361207 -0.2547188997268677 -0.45232564210891724 -0.4361189007759094 0.0 0.0 0.0 0.0
1.983 0.0020755017176270485 -0.2531234920024872 -0.4662608206272125 -0.4215807616710663 0.0 0.0 0.0 0.0
1.984 -0.009608108550310135 -0.25037458539009094 -0.4775984585285187 -0.40544959902763367 0.0 0.0 0.0 0.0
1.985 -0.02370680309832096 -0.24682292342185974 -0.49143296480178833 -0.3886867165565491 0.0 0.0 0.0 0.0
1.986 -0.0361015647649765 -0.24341076612472534 -0.5040585994720459 -0.3715009391307831 0.0 0.0 0.0 0.0
1.987 -0.04941422864794731 -0.23925353586673737 -0.5163966417312622 -0.3540690243244171 0.0 0.0 0.0 0.0
1.988 -0.06204733997583389 -0.23317694664001465 -0.526526689529419 -0.3372141122817993 0.0 0.0 0.0 0.0
1.989 -0.07390403747558594 -0.22806960344314575 -0.5377885103225708 -0.31818586587905884 0.0 0.0 0.0 0.0
1.99 -0.08503203839063644 -0.22098712623119354 -0.5468468070030212 -0.29869920015335083 0.0 0.0 0.0 0.0
1.991 -0.0975344106554985 -0.21444475650787354 -0.5568678975105286 -0.28083670139312744 0.0 0.0 0.0 0.0
1.992 -0.1078997328877449 -0.20740212500095367 -0.5643869042396545 -0.260784387588501 0.0 0.0 0.0 0.0
1.993 -0.11864881217479706 -0.1996438354253769 -0.5720297694206238 -0.2420271635055542 0.0 0.0 0.0 0.0
1.994 -0.12933653593063354 -0.19275282323360443 -0.5797718167304993 -0.2227824628353119 0.0 0.0 0.0 0.0
1.995 -0.13970547914505005 -0.18433918058872223 -0.5868918299674988 -0.20273800194263458 0.0 0.0 0.0 0.0
1.996 -0.14960235357284546 -0.1756775677204132 -0.5925467610359192 -0.1854153573513031 0.0 0.0 0.0 0.0
1.997 -0.15811866521835327 -0.1674022376537323 -0.5979868769645691 -0.16581346094608307 0.0 0.0 0.0 0.0
1.998 -0.1677047461271286 -0.15724655985832214 -0.6035580039024353 -0.14284640550613403 0.0 0.0 0.0 0.0
1.999 -0.1755937784910202 -0.14819948375225067 -0.6065524220466614 -0.12829235196113586 0.0 0.0 0.0 0.0
2.0 -0.1848486214876175 -0.1375378668308258 -0.6110784411430359 -0.10454197227954865 0.0 0.0 0.0 0.0
2.001 -0.192457914352417 -0.12752583622932434 -0.613824725151062 -0.0864686593413353 0.0 0.0 0.0 0.0
2.002 -0.2006911039352417 -0.11581044644117355 -0.6166703701019287 -0.06244049593806267 0.0 0.0 0.0 0.0
2.003 -0.20667658746242523 -0.10529183596372604 -0.6181572079658508 -0.044450949877500534 0.0 0.0 0.0 0.0
2.004 -0.21219509840011597 -0.09407752007246017 -0.6189438700675964 -0.02316318452358246 0.0 0.0 0.0 0.0
2.005 -0.21767234802246094 -0.08300618827342987 -0.6192668080329895 -0.00220424123108387 0.0 0.0 0.0 0.0
2.006 -0.223067507147789 -0.07087817788124084 -0.6190170049667358 0.018260488286614418 0.0 0.0 0.0 0.0
2.007 -0.2278895229101181 -0.05918007344007492 -0.6184382438659668 0.03785775601863861 0.0 0.0 0.0 0.0
2.008 -0.23140817880630493 -0.04858333244919777 -0.6167463660240173 0.05680180713534355 0.0 0.0 0.0 0.0
2.009 -0.23477201163768768 -0.035859812051057816 -0.6134824156761169 0.07834310084581375 0.0 0.0 0.0 0.0
2.01 -0.2375265657901764 -0.024293001741170883 -0.6105066537857056 0.100371815264225 0.0 0.0 0.0 0.0
2.011 -0.23986472189426422 -0.012577584944665432 -0.6069154143333435 0.11934265494346619 0.0 0.0 0.0 0.0
2.012 -0.2418111264705658 -0.0017211530357599258 -0.6017880439758301 0.13931341469287872 0.0 0.0 0.0 0.0
2.013 -0.24355415999889374 0.009531404823064804 -0.5969329476356506 0.15950345993041992 0.0 0.0 0.0 0.0
2.014 -0.2447487860918045 0.021333523094654083 -0.5908834338188171 0.17736706137657166 0.0 0.0 0.0 0.0
2.015 -0.24538743495941162 0.032575156539678574 -0.5859116315841675 0.1961696743965149 0.0 0.0 0.0 0.0
2.016 -0.24571846425533295 0.043651282787323 -0.5788533687591553 0.21597830951213837 0.0 0.0 0.0 0.0
2.017 -0.24511376023292542 0.05529811233282089 -0.5708991289138794 0.2352144867181778 0.0 0.0 0.0 0.0
2.018 -0.2450299859046936 0.06689056754112244 -0.5633149743080139 0.2531813681125641 0.0 0.0 0.0 0.0
2.019 -0.24410240352153778 0.07650533318519592 -0.555804431438446 0.2700987756252289 0.0 0.0 0.0 0.0
2.02 -0.24219828844070435 0.08802777528762817 -0.5450290441513062 0.2889215648174286 0.0 0.0 0.0 0.0
2.021 -0.24062351882457733 0.09916361421346664 -0.536178469657898 0.3078126907348633 0.0 0.0 0.0 0.0
2.022 -0.2387889325618744 0.11002802848815918 -0.5264953374862671 0.3251360058784485 0.0 0.0 0.0 0.0
2.023 -0.23642559349536896 0.11960458010435104 -0.5151771306991577 0.3410765528678894 0.0 0.0 0.0 0.0
2.024 -0.2331194132566452 0.13054434955120087 -0.5041046142578125 0.3597845435142517 0.0 0.0 0.0 0.0
2.025 -0.22902034223079681 0.14109863340854645 -0.4914035499095917 0.37684643268585205 0.0 0.0 0.0 0.0
2.026 -0.22572706639766693 0.15035495162010193 -0.4808695316314697 0.3926924467086792 0.0 0.0 0.0 0.0
2.027 -0.2216513454914093 0.15943707525730133 -0.4670336842536926 0.4084779918193817 0.0 0.0 0.0 0.0
2.028 -0.2177671641111374 0.1682998538017273 -0.45390453934669495 0.42558589577674866 0.0 0.0 0.0 0.0
2.029 -0.21318088471889496 0.17590266466140747 -0.4405154883861542 0.4369847774505615 0.0 0.0 0.0 0.0
2.03 -0.2067510187625885 0.1864156723022461 -0.4221467077732086 0.4561936557292938 0.0 0.0 0.0 0.0
2.031 -0.20307554304599762 0.19295082986354828 -0.4100920259952545 0.46745240688323975 0.0 0.0 0.0 0.0
2.032 -0.1969718635082245 0.2022475153207779 -0.3923364579677582 0.4832877814769745 0.0 0.0 0.0 0.0
2.033 -0.19216203689575195 0.20880788564682007 -0.3784078359603882 0.49375537037849426 0.0 0.0 0.0 0.0
2.034 -0.18698608875274658 0.21580952405929565 -0.3616766035556793 0.5061584711074829 0.0 0.0 0.0 0.0
2.035 -0.18263810873031616 0.22193416953086853 -0.3472191393375397 0.5173389911651611 0.0 0.0 0.0 0.0
2.036 -0.17526866495609283 0.22990737855434418 -0.3271671533584595 0.5305113196372986 0.0 0.0 0.0 0.0
2.037 -0.16933418810367584 0.23625798523426056 -0.31074950098991394 0.5405194759368896 0.0 0.0 0.0 0.0
2.038 -0.163399800658226 0.24238640069961548 -0.29149129986763 0.5526742935180664 0.0 0.0 0.0 0.0
2.039 -0.15731766819953918 0.24836792051792145 -0.27300533652305603 0.5631605982780457 0.0 0.0 0.0 0.0
2.04 -0.15020568668842316 0.2540211081504822 -0.2546957731246948 0.5713680386543274 0.0 0.0 0.0 0.0
2.041 -0.1454067975282669 0.2598414719104767 -0.2377331703901291 0.5819866061210632 0.0 0.0 0.0 0.0
2.042 -0.1391562521457672 0.26303592324256897 -0.21696481108665466 0.5873291492462158 0.0 0.0 0.0 0.0
2.043 -0.13243690133094788 0.26800552010536194 -0.19666381180286407 0.5949481129646301 0.0 0.0 0.0 0.0
2.044 -0.12565810978412628 0.2722247242927551 -0.17665143311023712 0.6013341546058655 0.0 0.0 0.0 0.0
2.045 -0.12014857679605484 0.2768087685108185 -0.15693654119968414 0.608718991279602 0.0 0.0 0.0 0.0
2.046 -0.11390520632266998 0.28103336691856384 -0.13728657364845276 0.6145988702774048 0.0 0.0 0.0 0.0
2.047 -0.10780146718025208 0.2842170000076294 -0.11699502170085907 0.6189886927604675 0.0 0.0 0.0 0.0
2.048 -0.10069488734006882 0.28766655921936035 -0.0938883051276207 0.6227325201034546 0.0 0.0 0.0 0.0
2.049 -0.09489475190639496 0.29108238220214844 -0.07444051653146744 0.626052737236023 0.0 0.0 0.0 0.0
2.05 -0.08905857056379318 0.29254332184791565 -0.05307835340499878 0.6254229545593262 0.0 0.0 0.0 0.0
2.051 -0.08316600322723389 0.29688432812690735 -0.03268931806087494 0.6309502124786377 0.0 0.0 0.0 0.0
2.052 -0.07498936355113983 0.299937903881073 -0.009402149356901646 0.632052481174469 0.0 0.0 0.0 0.0
2.053 -0.07177314162254333 0.3032468855381012 0.008056680671870708 0.6341177821159363 0.0 0.0 0.0 0.0
2.054 -0.06503120809793472 0.3045634329319 0.03192615509033203 0.6324560642242432 0.0 0.0 0.0 0.0
2.055 -0.05784951150417328 0.3071421980857849 0.056135281920433044 0.6321353316307068 0.0 0.0 0.0 0.0
2.056 -0.05096486583352089 0.30920255184173584 0.07729241997003555 0.6306743025779724 0.0 0.0 0.0 0.0
2.057 -0.046505510807037354 0.3111072778701782 0.09771890938282013 0.6280253529548645 0.0 0.0 0.0 0.0
2.058 -0.040596477687358856 0.31232768297195435 0.12002885341644287 0.6244634389877319 0.0 0.0 0.0 0.0
2.059 -0.03493330255150795 0.3133091926574707 0.1420244425535202 0.6192975044250488 0.0 0.0 0.0 0.0
2.06 -0.028333857655525208 0.3158474862575531 0.16400067508220673 0.616393506526947 0.0 0.0 0.0 0.0
2.061 -0.023697832599282265 0.31711551547050476 0.18401706218719482 0.6107487678527832 0.0 0.0 0.0 0.0
2.062 -0.018488243222236633 0.31979238986968994 0.20540814101696014 0.6084303259849548 0.0 0.0 0.0 0.0
2.063 -0.01274675689637661 0.3194565176963806 0.22566890716552734 0.598205029964447 0.0 0.0 0.0 0.0
2.064 -0.007529908791184425 0.32020819187164307 0.247854545712471 0.5891531705856323 0.0 0.0 0.0 0.0
2.065 -0.0028304466977715492 0.3207262456417084 0.26725319027900696 0.5801218748092651 0.0 0.0 0.0 0.0
2.066 0.001677200198173523 0.322406530380249 0.2864610552787781 0.5718872547149658 0.0 0.0 0.0 0.0
2.067 0.006978648714721203 0.32327884435653687 0.30472061038017273 0.5622910857200623 0.0 0.0 0.0 0.0
2.068 0.011279026977717876 0.3242439925670624 0.32413238286972046 0.5496197938919067 0.0 0.0 0.0 0.0
2.069 0.01684579625725746 0.32533273100852966 0.34407663345336914 0.5392511487007141 0.0 0.0 0.0 0.0
2.07 0.02259179763495922 0.32638615369796753 0.3636712431907654 0.5263257622718811 0.0 0.0 0.0 0.0
2.071 0.02790401503443718 0.3263510763645172 0.3811909556388855 0.512619137763977 0.0 0.0 0.0 0.0
2.072 0.03283052146434784 0.32891038060188293 0.39960893988609314 0.50141841173172 0.0 0.0 0.0 0.0
2.073 0.03712780773639679 0.3293226361274719 0.41572603583335876 0.48804035782814026 0.0 0.0 0.0 0.0
2.074 0.0433332733809948 0.33051949739456177 0.4330539107322693 0.47297903895378113 0.0 0.0 0.0 0.0
2.075 0.048193737864494324 0.3307150900363922 0.4491330087184906 0.45665016770362854 0.0 0.0 0.0 0.0
2.076 0.05200850963592529 0.3313515782356262 0.4619380533695221 0.44254398345947266 0.0 0.0 0.0 0.0
2.077 0.058268655091524124 0.3321617841720581 0.4789618253707886 0.4249061644077301 0.0 0.0 0.0 0.0
2.078 0.06408099085092545 0.33330264687538147 0.49320849776268005 0.40902361273765564 0.0 0.0 0.0 0.0
2.079 0.070014089345932 0.33317771553993225 0.5080742239952087 0.3909776210784912 0.0 0.0 0.0 0.0
2.08 0.07602784037590027 0.3335340619087219 0.5225309729576111 0.37362414598464966 0.0 0.0 0.0 0.0
2.081 0.08149504661560059 0.3338472843170166 0.5350785851478577 0.35346484184265137 0.0 0.0 0.0 0.0
2.082 0.08741860091686249 0.33481377363204956 0.5467641949653625 0.33591172099113464 0.0 0.0 0.0 0.0
2.083 0.09212413430213928 0.3353751301765442 0.5570417642593384 0.31696727871894836 0.0 0.0 0.0 0.0
2.084 0.09866899251937866 0.3341381549835205 0.5687820315361023 0.29511451721191406 0.0 0.0 0.0 0.0
2.085 0.10227685421705246 0.3348711133003235 0.5771429538726807 0.2779828906059265 0.0 0.0 0.0 0.0
2.086 0.11060935258865356 0.3348676264286041 0.5869672298431396 0.2578612267971039 0.0 0.0 0.0 0.0
2.087 0.11580505222082138 0.3345418870449066 0.5953830480575562 0.23548434674739838 0.0 0.0 0.0 0.0
2.088 0.12334198504686356 0.3345116972923279 0.6040528416633606 0.21366268396377563 0.0 0.0 0.0 0.0
2.089 0.12785129249095917 0.33435872197151184 0.6093398332595825 0.19564169645309448 0.0 0.0 0.0 0.0
2.09 0.1350601762533188 0.3329891562461853 0.6160539984703064 0.17257356643676758 0.0 0.0 0.0 0.0
2.091 0.1401054710149765 0.33210277557373047 0.6204708218574524 0.1525505632162094 0.0 0.0 0.0 0.0
2.092 0.14555835723876953 0.33052441477775574 0.6246942281723022 0.12980465590953827 0.0 0.0 0.0 0.0
2.093 0.1529858559370041 0.32935935258865356 0.6284376382827759 0.10759402066469193 0.0 0.0 0.0 0.0
2.094 0.15881723165512085 0.3283449113368988 0.6311286687850952 0.0882667750120163 0.0 0.0 0.0 0.0
2.095 0.16547821462154388 0.32732728123664856 0.6332080364227295 0.06526658684015274 0.0 0.0 0.0 0.0
2.096 0.17252224683761597 0.3258664608001709 0.6349770426750183 0.04327714070677757 0.0 0.0 0.0 0.0
2.097 0.17944756150245667 0.32357707619667053 0.6357955932617188 0.02137371152639389 0.0 0.0 0.0 0.0
2.098 0.1865585893392563 0.31959855556488037 0.6357347369194031 9.796116501092911e-05 0.0 0.0 0.0 0.0
2.099 0.1936834752559662 0.31853458285331726 0.6348652839660645 -0.02143441140651703 0.0 0.0 0.0 0.0
2.1 0.19990800321102142 0.31616753339767456 0.6333489418029785 -0.0425875149667263 0.0 0.0 0.0 0.0
2.101 0.20710337162017822 0.3110780715942383 0.6312001943588257 -0.0652528926730156 0.0 0.0 0.0 0.0
2.102 0.21350008249282837 0.30884289741516113 0.628174901008606 -0.08488328754901886 0.0 0.0 0.0 0.0
2.103 0.21922433376312256 0.30603310465812683 0.6245778799057007 -0.1070542261004448 0.0 0.0 0.0 0.0
2.104 0.22636175155639648 0.30174577236175537 0.6193513870239258 -0.1302739977836609 0.0 0.0 0.0 0.0
2.105 0.23437564074993134 0.29706835746765137 0.6145635843276978 -0.1492818146944046 0.0 0.0 0.0 0.0
2.106 0.24086056649684906 0.29283520579338074 0.6088378429412842 -0.1690378487110138 0.0 0.0 0.0 0.0
2.107 0.24697239696979523 0.28838586807250977 0.6026673913002014 -0.1896098256111145 0.0 0.0 0.0 0.0
2.108 0.25255054235458374 0.28266963362693787 0.5956107974052429 -0.20923809707164764 0.0 0.0 0.0 0.0
2.109 0.2600197196006775 0.2759721577167511 0.5876878499984741 -0.23090265691280365 0.0 0.0 0.0 0.0
2.11 0.2662922441959381 0.2717902958393097 0.579127848148346 -0.24928198754787445 0.0 0.0 0.0 0.0
2.111 0.27101951837539673 0.26457205414772034 0.5699082016944885 -0.2695216238498688 0.0 0.0 0.0 0.0
2.112 0.27625444531440735 0.2600118815898895 0.5613274574279785 -0.2889808714389801 0.0 0.0 0.0 0.0
2.113 0.2824976146221161 0.2515639662742615 0.5509361028671265 -0.30647367238998413 0.0 0.0 0.0 0.0
2.114 0.2886042594909668 0.24367760121822357 0.5392321944236755 -0.3257084786891937 0.0 0.0 0.0 0.0
2.115 0.29278695583343506 0.23658953607082367 0.5284342765808105 -0.342529833316803 0.0 0.0 0.0 0.0
2.116 0.2964760363101959 0.22942999005317688 0.5169612169265747 -0.3599342703819275 0.0 0.0 0.0 0.0
2.117 0.30157026648521423 0.22122769057750702 0.5028045773506165 -0.37827572226524353 0.0 0.0 0.0 0.0
2.118 0.3050483763217926 0.21434327960014343 0.49124205112457275 -0.39309996366500854 0.0 0.0 0.0 0.0
2.119 0.30948469042778015 0.20521162450313568 0.4757974147796631 -0.41251811385154724 0.0 0.0 0.0 0.0
2.12 0.312487930059433 0.19740217924118042 0.4601347744464874 -0.42629432678222656 0.0 0.0 0.0 0.0
2.121 0.31653499603271484 0.1870792806148529 0.44525858759880066 -0.44244852662086487 0.0 0.0 0.0 0.0
2.122 0.3190962076187134 0.17995958030223846 0.43057990074157715 -0.4553358554840088 0.0 0.0 0.0 0.0
2.123 0.32133710384368896 0.17079806327819824 0.41402196884155273 -0.4705996811389923 0.0 0.0 0.0 0.0
2.124 0.32250285148620605 0.16184577345848083 0.40029823780059814 -0.48233771324157715 0.0 0.0 0.0 0.0
2.125 0.3255552351474762 0.15211983025074005 0.38150671124458313 -0.4956539571285248 0.0 0.0 0.0 0.0
2.126 0.32696717977523804 0.14271940290927887 0.3648913502693176 -0.508563756942749 0.0 0.0 0.0 0.0
2.127 0.3278845250606537 0.1335594356060028 0.3481801450252533 -0.5195030570030212 0.0 0.0 0.0 0.0
2.128 0.3280753493309021 0.12439907342195511 0.3311493694782257 -0.5314717292785645 0.0 0.0 0.0 0.0
2.129 0.32913655042648315 0.11415679007768631 0.31141015887260437 -0.5416833162307739 0.0 0.0 0.0 0.0
2.13 0.3290008008480072 0.10374628007411957 0.2940554916858673 -0.552696704864502 0.0 0.0 0.0 0.0
2.131 0.32822710275650024 0.09324672818183899 0.2745751440525055 -0.562286376953125 0.0 0.0 0.0 0.0
2.132 0.32684871554374695 0.08404553681612015 0.25532078742980957 -0.5701189637184143 0.0 0.0 0.0 0.0
2.133 0.3251233994960785 0.0735187903046608 0.23516704142093658 -0.5787821412086487 0.0 0.0 0.0 0.0
2.134 0.3232989013195038 0.06372888386249542 0.2156180441379547 -0.5847364664077759 0.0 0.0 0.0 0.0
2.135 0.3205181658267975 0.054561302065849304 0.19665372371673584 -0.5922286510467529 0.0 0.0 0.0 0.0
2.136 0.3172945976257324 0.04543190449476242 0.1783745139837265 -0.6029505729675293 0.0 0.0 0.0 0.0
2.137 0.31408146023750305 0.03499768674373627 0.15519869327545166 -0.6045243144035339 0.0 0.0 0.0 0.0
2.138 0.3104512691497803 0.025619739666581154 0.13437600433826447 -0.6091215014457703 0.0 0.0 0.0 0.0
2.139 0.30601784586906433 0.017171405255794525 0.1127447709441185 -0.6133372783660889 0.0 0.0 0.0 0.0
2.14 0.30121129751205444 0.007587164640426636 0.09203952550888062 -0.6157194972038269 0.0 0.0 0.0 0.0
2.141 0.29611361026763916 -0.0016061719506978989 0.07004036754369736 -0.6184629201889038 0.0 0.0 0.0 0.0
2.142 0.2911452651023865 -0.009762992151081562 0.050467103719711304 -0.6204461455345154 0.0 0.0 0.0 0.0
2.143 0.2852204740047455 -0.018023110926151276 0.027866827324032784 -0.6215279698371887 0.0 0.0 0.0 0.0
2.144 0.27945011854171753 -0.02644340880215168 0.008532199077308178 -0.6220873594284058 0.0 0.0 0.0 0.0
2.145 0.27312204241752625 -0.03475352004170418 -0.012810817919671535 -0.6217938661575317 0.0 0.0 0.0 0.0
2.146 0.2660010755062103 -0.04210128262639046 -0.033886391669511795 -0.6183557510375977 0.0 0.0 0.0 0.0
2.147 0.2588488757610321 -0.04982380196452141 -0.05523838847875595 -0.6185295581817627 0.0 0.0 0.0 0.0
2.148 0.2512541115283966 -0.05776900425553322 -0.07510841637849808 -0.6207054853439331 0.0 0.0 0.0 0.0
2.149 0.24309761822223663 -0.06357655674219131 -0.09667017310857773 -0.6139853596687317 0.0 0.0 0.0 0.0
2.15 0.23458077013492584 -0.07080584764480591 -0.11891444772481918 -0.6100345849990845 0.0 0.0 0.0 0.0
2.151 0.22646217048168182 -0.0759853795170784 -0.13614681363105774 -0.6057628393173218 0.0 0.0 0.0 0.0
2.152 0.21710644662380219 -0.08272379636764526 -0.16054987907409668 -0.599263072013855 0.0 0.0 0.0 0.0
2.153 0.20840254426002502 -0.08673515170812607 -0.17639203369617462 -0.5957890152931213 0.0 0.0 0.0 0.0
2.154 0.1984960287809372 -0.09210416674613953 -0.20072446763515472 -0.586243748664856 0.0 0.0 0.0 0.0
2.155 0.1891670972108841 -0.09661625325679779 -0.2187146246433258 -0.5801318287849426 0.0 0.0 0.0 0.0
2.156 0.179452046751976 -0.10052236169576645 -0.23722852766513824 -0.5739828944206238 0.0 0.0 0.0 0.0
2.157 0.16928410530090332 -0.10391994565725327 -0.25874805450439453 -0.5642759203910828 0.0 0.0 0.0 0.0
2.158 0.15959681570529938 -0.10641731321811676 -0.2756718695163727 -0.5535600781440735 0.0 0.0 0.0 0.0
2.159 0.14913107454776764 -0.10931842029094696 -0.29610490798950195 -0.5449211001396179 0.0 0.0 0.0 0.0
2.16 0.13977353274822235 -0.11167014390230179 -0.313254714012146 -0.5370922684669495 0.0 0.0 0.0 0.0
2.161 0.12917830049991608 -0.11272331327199936 -0.3344554305076599 -0.5213682055473328 0.0 0.0 0.0 0.0
2.162 0.11917883157730103 -0.11387953162193298 -0.3508217930793762 -0.5101441740989685 0.0 0.0 0.0 0.0
2.163 0.10940415412187576 -0.11451716721057892 -0.36762291193008423 -0.4969666302204132 0.0 0.0 0.0 0.0
2.164 0.09958410263061523 -0.11465366184711456 -0.3842477798461914 -0.4831618070602417 0.0 0.0 0.0 0.0
2.165 0.08943455666303635 -0.11457172781229019 -0.3990921378135681 -0.47159627079963684 0.0 0.0 0.0 0.0
2.166 0.07900851964950562 -0.11427513509988785 -0.4161147475242615 -0.4562421441078186 0.0 0.0 0.0 0.0
2.167 0.06872106343507767 -0.11298924684524536 -0.4320705235004425 -0.4417686462402344 0.0 0.0 0.0 0.0
2.168 0.05952424183487892 -0.11116323620080948 -0.4457867443561554 -0.42619767785072327 0.0 0.0 0.0 0.0
2.169 0.04975968599319458 -0.1094311997294426 -0.459383487701416 -0.4099114239215851 0.0 0.0 0.0 0.0
2.17 0.04001181945204735 -0.1076020821928978 -0.4731428921222687 -0.3940337300300598 0.0 0.0 0.0 0.0
2.171 0.030682211741805077 -0.10478805750608444 -0.4854772388935089 -0.3767162561416626 0.0 0.0 0.0 0.0
2.172 0.021646760404109955 -0.10097363591194153 -0.4977031350135803 -0.3579745292663574 0.0 0.0 0.0 0.0
2.173 0.012302341870963573 -0.09820525348186493 -0.5110189914703369 -0.34096643328666687 0.0 0.0 0.0 0.0
2.174 0.003427896648645401 -0.0946093499660492 -0.5199944376945496 -0.32558390498161316 0.0 0.0 0.0 0.0
2.175 -0.00469942856580019 -0.09048043191432953 -0.5307338833808899 -0.30671554803848267 0.0 0.0 0.0 0.0
2.176 -0.01247613038867712 -0.08608048409223557 -0.5406236052513123 -0.287411093711853 0.0 0.0 0.0 0.0
2.177 -0.020851917564868927 -0.08141601830720901 -0.5510156154632568 -0.26701292395591736 0.0 0.0 0.0 0.0
2.178 -0.028440916910767555 -0.07674543559551239 -0.5581371188163757 -0.2493453174829483 0.0 0.0 0.0 0.0
2.179 -0.03576403111219406 -0.07202723622322083 -0.5665372014045715 -0.2300775945186615 0.0 0.0 0.0 0.0
2.18 -0.04302115738391876 -0.06667221337556839 -0.5733309388160706 -0.21026715636253357 0.0 0.0 0.0 0.0
2.181 -0.05007445439696312 -0.06122714281082153 -0.5789517164230347 -0.1913577765226364 0.0 0.0 0.0 0.0
2.182 -0.05687624216079712 -0.05547954514622688 -0.5849502086639404 -0.16872528195381165 0.0 0.0 0.0 0.0
2.183 -0.06340619176626205 -0.04970879107713699 -0.5897009968757629 -0.15174154937267303 0.0 0.0 0.0 0.0
2.184 -0.06971416622400284 -0.04331264644861221 -0.5943185091018677 -0.13077838718891144 0.0 0.0 0.0 0.0
2.185 -0.07564454525709152 -0.03704902157187462 -0.597966730594635 -0.11081262677907944 0.0 0.0 0.0 0.0
2.186 -0.0811409130692482 -0.03043556585907936 -0.6011307835578918 -0.09000641852617264 0.0 0.0 0.0 0.0
2.187 -0.0862419381737709 -0.023687729611992836 -0.6029682755470276 -0.06858419626951218 0.0 0.0 0.0 0.0
2.188 -0.0908639058470726 -0.01684422232210636 -0.6047159433364868 -0.04809705540537834 0.0 0.0 0.0 0.0
2.189 -0.09545356035232544 -0.009831737726926804 -0.6055510640144348 -0.02688431181013584 0.0 0.0 0.0 0.0
2.19 -0.09977906197309494 -0.002763506956398487 -0.6049882769584656 -0.0065818168222904205 0.0 0.0 0.0 0.0
2.191 -0.10354501754045486 0.0037055136635899544 -0.6044753789901733 0.013415337540209293 0.0 0.0 0.0 0.0
2.192 -0.10713028162717819 0.010941768065094948 -0.6032677888870239 0.034512653946876526 0.0 0.0 0.0 0.0
2.193 -0.11040985584259033 0.018244752660393715 -0.600424587726593 0.05642513558268547 0.0 0.0 0.0 0.0
2.194 -0.11329396814107895 0.024629047140479088 -0.5977721810340881 0.07466934621334076 0.0 0.0 0.0 0.0
2.195 -0.11612269282341003 0.03142911568284035 -0.5942721962928772 0.09587685018777847 0.0 0.0 0.0 0.0
2.196 -0.11871816962957382 0.03820951655507088 -0.5901311039924622 0.11443983763456345 0.0 0.0 0.0 0.0
2.197 -0.12072505801916122 0.045606911182403564 -0.5846226811408997 0.13590086996555328 0.0 0.0 0.0 0.0
2.198 -0.12332552671432495 0.051826111972332 -0.5797848701477051 0.1540604531764984 0.0 0.0 0.0 0.0
2.199 -0.12484791874885559 0.05897068232297897 -0.5737717151641846 0.17375046014785767 0.0 0.0 0.0 0.0
2.2 -0.1266098916530609 0.06570804864168167 -0.5660622119903564 0.19439101219177246 0.0 0.0 0.0 0.0
2.201 -0.1279457062482834 0.07225456833839417 -0.5586879849433899 0.21236571669578552 0.0 0.0 0.0 0.0
2.202 -0.1296902894973755 0.0779934749007225 -0.5515428781509399 0.22931867837905884 0.0 0.0 0.0 0.0
2.203 -0.13065876066684723 0.08477125316858292 -0.542158305644989 0.24916282296180725 0.0 0.0 0.0 0.0
2.204 -0.13106882572174072 0.09193141758441925 -0.5322610139846802 0.26859092712402344 0.0 0.0 0.0 0.0
2.205 -0.1326972395181656 0.09689082950353622 -0.5240764617919922 0.2818596065044403 0.0 0.0 0.0 0.0
2.206 -0.13371746242046356 0.10377953946590424 -0.512808084487915 0.3027014136314392 0.0 0.0 0.0 0.0
2.207 -0.1335299015045166 0.11024108529090881 -0.501365065574646 0.31882256269454956 0.0 0.0 0.0 0.0
2.208 -0.1339133083820343 0.1160709336400032 -0.49020639061927795 0.33304068446159363 0.0 0.0 0.0 0.0
2.209 -0.13457956910133362 0.12272901833057404 -0.4775736927986145 0.35105711221694946 0.0 0.0 0.0 0.0
2.21 -0.13473264873027802 0.12866418063640594 -0.46501991152763367 0.36665648221969604 0.0 0.0 0.0 0.0
2.211 -0.13428811728954315 0.13481096923351288 -0.4517843723297119 0.38176751136779785 0.0 0.0 0.0 0.0
2.212 -0.1348153054714203 0.1406795233488083 -0.43945157527923584 0.3949553072452545 0.0 0.0 0.0 0.0
2.213 -0.1344846785068512 0.14659012854099274 -0.4240513741970062 0.41036826372146606 0.0 0.0 0.0 0.0
2.214 -0.13334034383296967 0.15277783572673798 -0.40879735350608826 0.4247930347919464 0.0 0.0 0.0 0.0
2.215 -0.13246707618236542 0.15900534391403198 -0.3927180767059326 0.43928131461143494 0.0 0.0 0.0 0.0
2.216 -0.13256052136421204 0.16410349309444427 -0.379437118768692 0.44985711574554443 0.0 0.0 0.0 0.0
2.217 -0.13164731860160828 0.1694527268409729 -0.36183279752731323 0.4629080593585968 0.0 0.0 0.0 0.0
2.218 -0.13041932880878448 0.17494241893291473 -0.34503015875816345 0.47358617186546326 0.0 0.0 0.0 0.0
2.219 -0.1298777014017105 0.17998285591602325 -0.32881444692611694 0.48385000228881836 0.0 0.0 0.0 0.0
2.22 -0.12871482968330383 0.1861671358346939 -0.30961427092552185 0.4964168071746826 0.0 0.0 0.0 0.0
2.221 -0.1297195702791214 0.19036437571048737 -0.2962004840373993 0.5039088129997253 0.0 0.0 0.0 0.0
2.222 -0.12753577530384064 0.19632355868816376 -0.2751620411872864 0.5136677622795105 0.0 0.0 0.0 0.0
2.223 -0.12725795805454254 0.2014077603816986 -0.2589271068572998 0.5209707021713257 0.0 0.0 0.0 0.0
2.224 -0.12595319747924805 0.20683814585208893 -0.23973268270492554 0.5285974144935608 0.0 0.0 0.0 0.0
2.225 -0.12456747144460678 0.2128736674785614 -0.2222842276096344 0.5360850691795349 0.0 0.0 0.0 0.0
2.226 -0.12271270155906677 0.21848426759243011 -0.20197193324565887 0.5430610775947571 0.0 0.0 0.0 0.0
2.227 -0.12156002968549728 0.22377759218215942 -0.1844579428434372 0.5495373010635376 0.0 0.0 0.0 0.0
2.228 -0.1213601753115654 0.22894884645938873 -0.1664389967918396 0.5540545582771301 0.0 0.0 0.0 0.0
2.229 -0.12006885558366776 0.23390597105026245 -0.14836299419403076 0.5582948327064514 0.0 0.0 0.0 0.0
2.23 -0.11729066073894501 0.24029003083705902 -0.12605233490467072 0.5636082887649536 0.0 0.0 0.0 0.0
2.231 -0.11574452370405197 0.24521279335021973 -0.10715843737125397 0.5654670596122742 0.0 0.0 0.0 0.0
2.232 -0.11363235116004944 0.249945268034935 -0.08550325781106949 0.5668028593063354 0.0 0.0 0.0 0.0
2.233 -0.11336422711610794 0.2556111812591553 -0.07004590332508087 0.5684751868247986 0.0 0.0 0.0 0.0
2.234 -0.1112942099571228 0.26128286123275757 -0.05069859325885773 0.5700984597206116 0.0 0.0 0.0 0.0
2.235 -0.10915016382932663 0.26676562428474426 -0.031028326600790024 0.5700933933258057 0.0 0.0 0.0 0.0
2.236 -0.10663942247629166 0.27215442061424255 -0.01072823628783226 0.5693867802619934 0.0 0.0 0.0 0.0
2.237 -0.10397367179393768 0.27810320258140564 0.009173446334898472 0.568975031375885 0.0 0.0 0.0 0.0
2.238 -0.10101192444562912 0.2834208011627197 0.03010333888232708 0.5666355490684509 0.0 0.0 0.0 0.0
2.239 -0.0990532785654068 0.28934937715530396 0.046582646667957306 0.5645449161529541 0.0 0.0 0.0 0.0
2.24 -0.09727109968662262 0.2946365177631378 0.06336812674999237 0.562191367149353 0.0 0.0 0.0 0.0
2.241 -0.09244278818368912 0.30045709013938904 0.08586203306913376 0.5582044720649719 0.0 0.0 0.0 0.0
2.242 -0.08852788060903549 0.3060747981071472 0.10439154505729675 0.5547069907188416 0.0 0.0 0.0 0.0
2.243 -0.08561588823795319 0.3110951781272888 0.1210542768239975 0.5492807626724243 0.0 0.0 0.0 0.0
2.244 -0.08375053852796555 0.3176775276660919 0.13832145929336548 0.5460778474807739 0.0 0.0 0.0 0.0
2.245 -0.07908482104539871 0.3215583860874176 0.15564315021038055 0.536806046962738 0.0 0.0 0.0 0.0
2.246 -0.07336331158876419 0.3276312053203583 0.17616480588912964 0.5301317572593689 0.0 0.0 0.0 0.0
2.247 -0.0710863471031189 0.3328225910663605 0.1904352754354477 0.5236489772796631 0.0 0.0 0.0 0.0
2.248 -0.06589820981025696 0.3377528190612793 0.20858561992645264 0.5148506760597229 0.0 0.0 0.0 0.0
2.249 -0.06088061258196831 0.34260591864585876 0.22527042031288147 0.506687581539154 0.0 0.0 0.0 0.0
2.25 -0.057015225291252136 0.3477466404438019 0.24088291823863983 0.49798816442489624 0.0 0.0 0.0 0.0
2.251 -0.051570095121860504 0.3527514338493347 0.2568501830101013 0.4890194237232208 0.0 0.0 0.0 0.0
2.252 -0.046341534703969955 0.35780835151672363 0.2732049226760864 0.47861653566360474 0.0 0.0 0.0 0.0
2.253 -0.042234793305397034 0.3617449998855591 0.28746238350868225 0.46847185492515564 0.0 0.0 0.0 0.0
2.254 -0.03552323207259178 0.3666856288909912 0.30162063241004944 0.4568236470222473 0.0 0.0 0.0 0.0
2.255 -0.03108658827841282 0.37071359157562256 0.31525570154190063 0.4468313455581665 0.0 0.0 0.0 0.0
2.256 -0.02385173738002777 0.3751160204410553 0.3307550847530365 0.43476733565330505 0.0 0.0 0.0 0.0
2.257 -0.019008098170161247 0.37914589047431946 0.34097298979759216 0.4248853623867035 0.0 0.0 0.0 0.0
2.258 -0.012331499718129635 0.3825632333755493 0.35557207465171814 0.40948858857154846 0.0 0.0 0.0 0.0
2.259 -0.005815863609313965 0.38651973009109497 0.367470920085907 0.3969248831272125 0.0 0.0 0.0 0.0
2.26 0.0006691338494420052 0.3896220028400421 0.3794707655906677 0.3837180435657501 0.0 0.0 0.0 0.0
2.261 0.007311093620955944 0.3938102126121521 0.3897668123245239 0.3712809681892395 0.0 0.0 0.0 0.0
2.262 0.014879685826599598 0.3972141444683075 0.4008369445800781 0.3573821783065796 0.0 0.0 0.0 0.0
2.263 0.019191935658454895 0.4002147912979126 0.4094284176826477 0.3443048298358917 0.0 0.0 0.0 0.0
2.264 0.028114812448620796 0.40284281969070435 0.42063596844673157 0.32937735319137573 0.0 0.0 0.0 0.0
2.265 0.03591146320104599 0.4054689109325409 0.43040817975997925 0.3136275112628937 0.0 0.0 0.0 0.0
2.266 0.04189036786556244 0.4084256887435913 0.43744030594825745 0.3023664653301239 0.0 0.0 0.0 0.0
2.267 0.05066530033946037 0.4095200300216675 0.44670185446739197 0.28614065051078796 0.0 0.0 0.0 0.0
2.268 0.056538090109825134 0.41233575344085693 0.4531165361404419 0.27343466877937317 0.0 0.0 0.0 0.0
2.269 0.06816298514604568 0.41264915466308594 0.46261587738990784 0.2564076781272888 0.0 0.0 0.0 0.0
2.27 0.0748116672039032 0.4133490025997162 0.4688037037849426 0.24290113151073456 0.0 0.0 0.0 0.0
2.271 0.08124825358390808 0.41448795795440674 0.47469550371170044 0.22786298394203186 0.0 0.0 0.0 0.0
2.272 0.09232639521360397 0.41316214203834534 0.4832957088947296 0.20755639672279358 0.0 0.0 0.0 0.0
2.273 0.09898608922958374 0.4139372408390045 0.4869873821735382 0.1945224404335022 0.0 0.0 0.0 0.0
2.274 0.10812269896268845 0.4142063558101654 0.49199220538139343 0.17836785316467285 0.0 0.0 0.0 0.0
2.275 0.11479777842760086 0.41338229179382324 0.49614813923835754 0.16270363330841064 0.0 0.0 0.0 0.0
2.276 0.1235634833574295 0.41237977147102356 0.5001600384712219 0.1455300748348236 0.0 0.0 0.0 0.0
2.277 0.13156066834926605 0.41171005368232727 0.5031400322914124 0.1317540556192398 0.0 0.0 0.0 0.0
2.278 0.13931904733181 0.4111761152744293 0.5060834884643555 0.11522480100393295 0.0 0.0 0.0 0.0
2.279 0.1464662104845047 0.40891775488853455 0.5083346962928772 0.0985412672162056 0.0 0.0 0.0 0.0
2.28 0.15517579019069672 0.4079653024673462 0.5102481245994568 0.0828404650092125 0.0 0.0 0.0 0.0
2.281 0.1622811257839203 0.4049183428287506 0.511425256729126 0.06643962860107422 0.0 0.0 0.0 0.0
2.282 0.17029742896556854 0.4026349186897278 0.5126824378967285 0.05214426666498184 0.0 0.0 0.0 0.0
2.283 0.17774620652198792 0.40007317066192627 0.5133659243583679 0.03631184622645378 0.0 0.0 0.0 0.0
2.284 0.18592731654644012 0.3965068459510803 0.5132301449775696 0.017976529896259308 0.0 0.0 0.0 0.0
2.285 0.19405953586101532 0.39289364218711853 0.5129258036613464 0.003914537839591503 0.0 0.0 0.0 0.0
2.286 0.20192044973373413 0.3890128433704376 0.5124186873435974 -0.011508166790008545 0.0 0.0 0.0 0.0
2.287 0.20753243565559387 0.3864530622959137 0.5112751722335815 -0.02518755942583084 0.0 0.0 0.0 0.0
2.288 0.21609240770339966 0.38047945499420166 0.5094581246376038 -0.04317580536007881 0.0 0.0 0.0 0.0
2.289 0.22223517298698425 0.37685346603393555 0.5078663229942322 -0.05764298141002655 0.0 0.0 0.0 0.0
2.29 0.23222318291664124 0.3710142970085144 0.5049663782119751 -0.07530444115400314 0.0 0.0 0.0 0.0
2.291 0.23652173578739166 0.36712533235549927 0.5027501583099365 -0.08762501180171967 0.0 0.0 0.0 0.0
2.292 0.24160973727703094 0.3614511489868164 0.4995659291744232 -0.10450709611177444 0.0 0.0 0.0 0.0
2.293 0.2485973834991455 0.3558332026004791 0.49609479308128357 -0.1186489537358284 0.0 0.0 0.0 0.0
2.294 0.2571328580379486 0.34813442826271057 0.4914249777793884 -0.13458549976348877 0.0 0.0 0.0 0.0
2.295 0.26176589727401733 0.3425094187259674 0.4870474636554718 -0.14964359998703003 0.0 0.0 0.0 0.0
2.296 0.2666128873825073 0.3366265296936035 0.48213499784469604 -0.16549289226531982 0.0 0.0 0.0 0.0
2.297 0.2728743851184845 0.3281788229942322 0.4759136736392975 -0.18125927448272705 0.0 0.0 0.0 0.0
2.298 0.2786669135093689 0.32130715250968933 0.4707340598106384 -0.19401699304580688 0.0 0.0 0.0 0.0
2.299 0.28176599740982056 0.31486234068870544 0.46492519974708557 -0.20866450667381287 0.0 0.0 0.0 0.0
2.3 0.28457051515579224 0.30866140127182007 0.45873698592185974 -0.22056958079338074 0.0 0.0 0.0 0.0
2.301 0.29121601581573486 0.29951947927474976 0.45035499334335327 -0.23739612102508545 0.0 0.0 0.0 0.0
2.302 0.2938392758369446 0.2925257086753845 0.4439649283885956 -0.24861614406108856 0.0 0.0 0.0 0.0
2.303 0.2974039316177368 0.286175936460495 0.4367147982120514 -0.26208996772766113 0.0 0.0 0.0 0.0
2.304 0.3006645441055298 0.27850720286369324 0.4275962710380554 -0.27762266993522644 0.0 0.0 0.0 0.0
2.305 0.30455684661865234 0.26944610476493835 0.41861963272094727 -0.2901919484138489 0.0 0.0 0.0 0.0
2.306 0.30722349882125854 0.26135215163230896 0.4102320671081543 -0.30297213792800903 0.0 0.0 0.0 0.0
2.307 0.30965059995651245 0.2532861828804016 0.40110453963279724 -0.31517261266708374 0.0 0.0 0.0 0.0
2.308 0.3117065131664276 0.24417844414710999 0.3914003074169159 -0.3282984793186188 0.0 0.0 0.0 0.0
2.309 0.31329721212387085 0.23639769852161407 0.3811286389827728 -0.3403795063495636 0.0 0.0 0.0 0.0
2.31 0.31505537033081055 0.22773224115371704 0.370724618434906 -0.351784348487854 0.0 0.0 0.0 0.0
2.311 0.3160167932510376 0.21906588971614838 0.3601047098636627 -0.3627976179122925 0.0 0.0 0.0 0.0
2.312 0.3152640461921692 0.21153104305267334 0.34932583570480347 -0.37434473633766174 0.0 0.0 0.0 0.0
2.313 0.3158518075942993 0.20270375907421112 0.33695659041404724 -0.38735464215278625 0.0 0.0 0.0 0.0
2.314 0.31651514768600464 0.19306735694408417 0.3247438371181488 -0.39704450964927673 0.0 0.0 0.0 0.0
2.315 0.3150014281272888 0.18663974106311798 0.31480762362480164 -0.406236469745636 0.0 0.0 0.0 0.0
2.316 0.31365305185317993 0.17767304182052612 0.3033047616481781 -0.41732797026634216 0.0 0.0 0.0 0.0
2.317 0.31427401304244995 0.1686105579137802 0.2880364954471588 -0.4277617633342743 0.0 0.0 0.0 0.0
2.318 0.31288284063339233 0.15999369323253632 0.2757028341293335 -0.43653392791748047 0.0 0.0 0.0 0.0
2.319 0.31073111295700073 0.15160076320171356 0.26143211126327515 -0.44602060317993164 0.0 0.0 0.0 0.0
2.32 0.30799365043640137 0.144262433052063 0.2475607544183731 -0.4537091553211212 0.0 0.0 0.0 0.0
2.321 0.3063872158527374 0.13477303087711334 0.23178549110889435 -0.46365591883659363 0.0 0.0 0.0 0.0
2.322 0.30363914370536804 0.1274625062942505 0.21919633448123932 -0.47093966603279114 0.0 0.0 0.0 0.0
2.323 0.29987549781799316 0.12062058597803116 0.20461514592170715 -0.47720709443092346 0.0 0.0 0.0 0.0
2.324 0.2964939773082733 0.11221142113208771 0.18701064586639404 -0.485796719789505 0.0 0.0 0.0 0.0
2.325 0.29326289892196655 0.10357583314180374 0.17271055281162262 -0.4926232099533081 0.0 0.0 0.0 0.0
2.326 0.289114773273468 0.09723345190286636 0.15892507135868073 -0.49745750427246094 0.0 0.0 0.0 0.0
2.327 0.28395360708236694 0.09187046438455582 0.144708514213562 -0.5030767917633057 0.0 0.0 0.0 0.0
2.328 0.2797161638736725 0.08331675827503204 0.12365128099918365 -0.5121034979820251 0.0 0.0 0.0 0.0
2.329 0.27480581402778625 0.0769050195813179 0.10792548209428787 -0.5132293105125427 0.0 0.0 0.0 0.0
2.33 0.26939383149147034 0.07176124304533005 0.09448634833097458 -0.5174469947814941 0.0 0.0 0.0 0.0
2.331 0.26373007893562317 0.0665968582034111 0.07876671105623245 -0.5210210680961609 0.0 0.0 0.0 0.0
2.332 0.25847792625427246 0.05940017104148865 0.05882060155272484 -0.5238590836524963 0.0 0.0 0.0 0.0
2.333 0.2530726194381714 0.05361555889248848 0.04173814877867699 -0.5272024273872375 0.0 0.0 0.0 0.0
2.334 0.2471073865890503 0.04842197149991989 0.02580016292631626 -0.5293222069740295 0.0 0.0 0.0 0.0
2.335 0.24106748402118683 0.04335782676935196 0.007786555215716362 -0.530935525894165 0.0 0.0 0.0 0.0
2.336 0.2345552295446396 0.03933172672986984 -0.008959103375673294 -0.5314692258834839 0.0 0.0 0.0 0.0
2.337 0.22826628386974335 0.03442524001002312 -0.02744879573583603 -0.5318125486373901 0.0 0.0 0.0 0.0
2.338 0.22180017828941345 0.031089767813682556 -0.04428371414542198 -0.5316325426101685 0.0 0.0 0.0 0.0
2.339 0.21511144936084747 0.027390386909246445 -0.06138429045677185 -0.531055748462677 0.0 0.0 0.0 0.0
2.34 0.2079300880432129 0.023735225200653076 -0.07920855283737183 -0.5284706354141235 0.0 0.0 0.0 0.0
2.341 0.20147481560707092 0.019956571981310844 -0.09890442341566086 -0.5264976620674133 0.0 0.0 0.0 0.0
2.342 0.19431211054325104 0.018155360594391823 -0.11555763334035873 -0.5253636240959167 0.0 0.0 0.0 0.0
2.343 0.18714827299118042 0.015855249017477036 -0.13263262808322906 -0.5209337472915649 0.0 0.0 0.0 0.0
2.344 0.18029625713825226 0.014157712459564209 -0.15076319873332977 -0.5176810026168823 0.0 0.0 0.0 0.0
2.345 0.17367514967918396 0.01224774681031704 -0.16803842782974243 -0.5121204853057861 0.0 0.0 0.0 0.0
2.346 0.16714756190776825 0.011445674113929272 -0.18532250821590424 -0.5072706341743469 0.0 0.0 0.0 0.0
2.347 0.16066986322402954 0.009876172058284283 -0.20345230400562286 -0.5000231266021729 0.0 0.0 0.0 0.0
2.348 0.1543026715517044 0.008789515122771263 -0.22137820720672607 -0.493774950504303 0.0 0.0 0.0 0.0
2.349 0.14795777201652527 0.008262785151600838 -0.23643241822719574 -0.4874212443828583 0.0 0.0 0.0 0.0
2.35 0.14189229905605316 0.00792790949344635 -0.2520436942577362 -0.4782891273498535 0.0 0.0 0.0 0.0
2.351 0.13536594808101654 0.007097449153661728 -0.26949289441108704 -0.47060278058052063 0.0 0.0 0.0 0.0
2.352 0.12923204898834229 0.007169414311647415 -0.2852421998977661 -0.46128883957862854 0.0 0.0 0.0 0.0
2.353 0.12306415289640427 0.007071429863572121 -0.30145061016082764 -0.45260894298553467 0.0 0.0 0.0 0.0
2.354 0.11734525859355927 0.007784822024405003 -0.3166653513908386 -0.4425751566886902 0.0 0.0 0.0 0.0
2.355 0.11135095357894897 0.00847393088042736 -0.3311150074005127 -0.43250536918640137 0.0 0.0 0.0 0.0
2.356 0.10545405745506287 0.00916254986077547 -0.3465365469455719 -0.42168042063713074 0.0 0.0 0.0 0.0
2.357 0.10009803622961044 0.00895458273589611 -0.3630627691745758 -0.40810781717300415 0.0 0.0 0.0 0.0
2.358 0.09443850815296173 0.010827782563865185 -0.3724001348018646 -0.3995571434497833 0.0 0.0 0.0 0.0
2.359 0.08916602283716202 0.011415752582252026 -0.3884890675544739 -0.38479599356651306 0.0 0.0 0.0 0.0
2.36 0.08375862240791321 0.011991283856332302 -0.40267300605773926 -0.3710296154022217 0.0 0.0 0.0 0.0
2.361 0.07866407185792923 0.013645610772073269 -0.41375893354415894 -0.3597623407840729 0.0 0.0 0.0 0.0
2.362 0.07341765612363815 0.015723414719104767 -0.4244544208049774 -0.34714964032173157 0.0 0.0 0.0 0.0
2.363 0.0685156062245369 0.01651793159544468 -0.4381098747253418 -0.3308766484260559 0.0 0.0 0.0 0.0
2.364 0.06379988044500351 0.017981557175517082 -0.4506145417690277 -0.31691956520080566 0.0 0.0 0.0 0.0
2.365 0.05890251696109772 0.01967301219701767 -0.45954689383506775 -0.30113622546195984 0.0 0.0 0.0 0.0
2.366 0.05420873686671257 0.021666698157787323 -0.4690253436565399 -0.28689849376678467 0.0 0.0 0.0 0.0
2.367 0.04977358505129814 0.022869987413287163 -0.4802669286727905 -0.2688157260417938 0.0 0.0 0.0 0.0
2.368 0.045170824974775314 0.024994442239403725 -0.48844626545906067 -0.2533796727657318 0.0 0.0 0.0 0.0
2.369 0.04110242426395416 0.026901986449956894 -0.4977506697177887 -0.23599179089069366 0.0 0.0 0.0 0.0
2.37 0.03697631508111954 0.028688378632068634 -0.5055789947509766 -0.21945318579673767 0.0 0.0 0.0 0.0
2.371 0.03307432308793068 0.030496323481202126 -0.5138005614280701 -0.20015914738178253 0.0 0.0 0.0 0.0
2.372 0.029272476211190224 0.032184161245822906 -0.5208612680435181 -0.18181408941745758 0.0 0.0 0.0 0.0
2.373 0.02492697164416313 0.034145090728998184 -0.5252894759178162 -0.16835960745811462 0.0 0.0 0.0 0.0
2.374 0.021307680755853653 0.03601049259305 -0.5319300889968872 -0.14732377231121063 0.0 0.0 0.0 0.0
2.375 0.017807612195611 0.03764181211590767 -0.5367894768714905 -0.12791869044303894 0.0 0.0 0.0 0.0
2.376 0.013509622775018215 0.039377547800540924 -0.5398553013801575 -0.11263088881969452 0.0 0.0 0.0 0.0
2.377 0.009709994308650494 0.04103279858827591 -0.5437524318695068 -0.09431107342243195 0.0 0.0 0.0 0.0
2.378 0.005929115228354931 0.04273112863302231 -0.5472860336303711 -0.07273568958044052 0.0 0.0 0.0 0.0
2.379 0.0014949087053537369 0.044224075973033905 -0.5493465662002563 -0.055643193423748016 0.0 0.0 0.0 0.0
2.38 -0.002558436244726181 0.046247921884059906 -0.5506032109260559 -0.035806819796562195 0.0 0.0 0.0 0.0
2.381 -0.006783773191273212 0.04808851704001427 -0.551866888999939 -0.01795557700097561 0.0 0.0 0.0 0.0
2.382 -0.011065387167036533 0.049980297684669495 -0.5522705316543579 -0.0002426188439130783 0.0 0.0 0.0 0.0
2.383 -0.01472877711057663 0.05225794389843941 -0.5520403981208801 0.022244378924369812 0.0 0.0 0.0 0.0
2.384 -0.01938537135720253 0.05427892506122589 -0.5511651039123535 0.03869098424911499 0.0 0.0 0.0 0.0
2.385 -0.02337667904794216 0.056536585092544556 -0.5493912100791931 0.05669180303812027 0.0 0.0 0.0 0.0
2.386 -0.02763274312019348 0.058711905032396317 -0.5468721985816956 0.07639773190021515 0.0 0.0 0.0 0.0
2.387 -0.03174453228712082 0.06097991764545441 -0.5437085032463074 0.09572198987007141 0.0 0.0 0.0 0.0
2.388 -0.036503735929727554 0.06340808421373367 -0.5402655601501465 0.113479383289814 0.0 0.0 0.0 0.0
2.389 -0.04037484899163246 0.06594319641590118 -0.5358350276947021 0.13254740834236145 0.0 0.0 0.0 0.0
2.39 -0.044648997485637665 0.06888547539710999 -0.5305933952331543 0.1514148861169815 0.0 0.0 0.0 0.0
2.391 -0.04920875281095505 0.07143610715866089 -0.524933397769928 0.16827410459518433 0.0 0.0 0.0 0.0
2.392 -0.05347641929984093 0.07447870075702667 -0.5176324844360352 0.18809457123279572 0.0 0.0 0.0 0.0
2.393 -0.05769488587975502 0.07729191333055496 -0.5102998614311218 0.20573149621486664 0.0 0.0 0.0 0.0
2.394 -0.06243623048067093 0.0804075375199318 -0.5034064650535583 0.22192656993865967 0.0 0.0 0.0 0.0
2.395 -0.06696362048387527 0.08400464057922363 -0.49461162090301514 0.23896662890911102 0.0 0.0 0.0 0.0
2.396 -0.07200359553098679 0.08714848011732101 -0.4858872592449188 0.2557568848133087 0.0 0.0 0.0 0.0
2.397 -0.07646022737026215 0.09121615439653397 -0.4754719138145447 0.2736755311489105 0.0 0.0 0.0 0.0
2.398 -0.0810244157910347 0.0952734649181366 -0.4659397602081299 0.28892281651496887 0.0 0.0 0.0 0.0
2.399 -0.08536900579929352 0.09933637827634811 -0.4541747272014618 0.305186927318573 0.0 0.0 0.0 0.0
2.4 -0.09025414288043976 0.10389810055494308 -0.44417259097099304 0.3193815350532532 0.0 0.0 0.0 0.0
2.401 -0.09443987160921097 0.1084398701786995 -0.4324585795402527 0.332907110452652 0.0 0.0 0.0 0.0
2.402 -0.09860725700855255 0.11392197012901306 -0.41838908195495605 0.3497435748577118 0.0 0.0 0.0 0.0
2.403 -0.1028616726398468 0.11876218765974045 -0.4069579243659973 0.3616202771663666 0.0 0.0 0.0 0.0
2.404 -0.10682696104049683 0.12431827932596207 -0.39333492517471313 0.37454161047935486 0.0 0.0 0.0 0.0
2.405 -0.11153102666139603 0.12938378751277924 -0.38029345870018005 0.38688066601753235 0.0 0.0 0.0 0.0
2.406 -0.11469654738903046 0.1358085572719574 -0.36427757143974304 0.40074029564857483 0.0 0.0 0.0 0.0
2.407 -0.11849778145551682 0.1420961320400238 -0.35124486684799194 0.4110316038131714 0.0 0.0 0.0 0.0
2.408 -0.12205570191144943 0.14813277125358582 -0.33531707525253296 0.4219149053096771 0.0 0.0 0.0 0.0
2.409 -0.12524661421775818 0.15483708679676056 -0.31963199377059937 0.4328553080558777 0.0 0.0 0.0 0.0
2.41 -0.1283835470676422 0.16127333045005798 -0.305774450302124 0.4413493871688843 0.0 0.0 0.0 0.0
2.411 -0.13081160187721252 0.16854450106620789 -0.28671807050704956 0.45206335186958313 0.0 0.0 0.0 0.0
2.412 -0.13400119543075562 0.1754322499036789 -0.27203625440597534 0.46065428853034973 0.0 0.0 0.0 0.0
2.413 -0.13624736666679382 0.1822807639837265 -0.25495919585227966 0.4677540361881256 0.0 0.0 0.0 0.0
2.414 -0.1385650485754013 0.1894548535346985 -0.2395837903022766 0.47409021854400635 0.0 0.0 0.0 0.0
2.415 -0.14052630960941315 0.1975015103816986 -0.22034157812595367 0.4823603630065918 0.0 0.0 0.0 0.0
2.416 -0.1422811597585678 0.20474952459335327 -0.20684482157230377 0.4868379533290863 0.0 0.0 0.0 0.0
2.417 -0.14329811930656433 0.21301160752773285 -0.18832744657993317 0.4924035966396332 0.0 0.0 0.0 0.0
2.418 -0.14403554797172546 0.22142894566059113 -0.1714271754026413 0.4980885684490204 0.0 0.0 0.0 0.0
2.419 -0.1447078287601471 0.22904489934444427 -0.15474146604537964 0.5009984970092773 0.0 0.0 0.0 0.0
2.42 -0.14538629353046417 0.23700465261936188 -0.13700149953365326 0.5041766166687012 0.0 0.0 0.0 0.0
2.421 -0.14556846022605896 0.24502131342887878 -0.12070704251527786 0.5071646571159363 0.0 0.0 0.0 0.0
2.422 -0.14419996738433838 0.2534455358982086 -0.10160177201032639 0.5094659328460693 0.0 0.0 0.0 0.0
2.423 -0.1438922882080078 0.2616301476955414 -0.08641759306192398 0.5105190873146057 0.0 0.0 0.0 0.0
2.424 -0.14338985085487366 0.2695934474468231 -0.06943951547145844 0.5118988752365112 0.0 0.0 0.0 0.0
2.425 -0.14177198708057404 0.2774083912372589 -0.051121193915605545 0.5117366909980774 0.0 0.0 0.0 0.0
2.426 -0.13979043066501617 0.2855946719646454 -0.03511573374271393 0.5111595392227173 0.0 0.0 0.0 0.0
2.427 -0.13793765008449554 0.2942672669887543 -0.018708372488617897 0.5107807517051697 0.0 0.0 0.0 0.0
2.428 -0.13714450597763062 0.30116814374923706 -0.004801692441105843 0.5087883472442627 0.0 0.0 0.0 0.0
2.429 -0.1343352198600769 0.3096456825733185 0.013966524973511696 0.5073615312576294 0.0 0.0 0.0 0.0
2.43 -0.13026686012744904 0.3179340958595276 0.03023095801472664 0.5051243305206299 0.0 0.0 0.0 0.0
2.431 -0.12693889439105988 0.32579442858695984 0.04685103893280029 0.5019146800041199 0.0 0.0 0.0 0.0
2.432 -0.12341507524251938 0.3332694172859192 0.06144965812563896 0.49858760833740234 0.0 0.0 0.0 0.0
2.433 -0.12018980085849762 0.34067070484161377 0.07616334408521652 0.49520328640937805 0.0 0.0 0.0 0.0
2.434 -0.11561363190412521 0.34829843044281006 0.09151189774274826 0.4912581443786621 0.0 0.0 0.0 0.0
2.435 -0.11120717972517014 0.355386883020401 0.10500407218933105 0.4862973392009735 0.0 0.0 0.0 0.0
2.436 -0.10830024629831314 0.3642998933792114 0.1183222085237503 0.4841859042644501 0.0 0.0 0.0 0.0
2.437 -0.10209863632917404 0.36901867389678955 0.13435831665992737 0.47622764110565186 0.0 0.0 0.0 0.0
2.438 -0.09610845148563385 0.37607285380363464 0.14867088198661804 0.4698942005634308 0.0 0.0 0.0 0.0
2.439 -0.09097745269536972 0.3822389543056488 0.16147007048130035 0.46442005038261414 0.0 0.0 0.0 0.0
2.44 -0.08468581736087799 0.38845643401145935 0.17663748562335968 0.4577343761920929 0.0 0.0 0.0 0.0
2.441 -0.07593734562397003 0.39467066526412964 0.19227229058742523 0.45027485489845276 0.0 0.0 0.0 0.0
2.442 -0.07091005146503448 0.400149941444397 0.20411528646945953 0.44364339113235474 0.0 0.0 0.0 0.0
2.443 -0.06575705111026764 0.405120313167572 0.215040922164917 0.4365609586238861 0.0 0.0 0.0 0.0
2.444 -0.058959946036338806 0.4100579023361206 0.22789102792739868 0.42855215072631836 0.0 0.0 0.0 0.0
2.445 -0.04986381158232689 0.41534489393234253 0.24197706580162048 0.4197140336036682 0.0 0.0 0.0 0.0
2.446 -0.044900719076395035 0.42027637362480164 0.250718355178833 0.4136277437210083 0.0 0.0 0.0 0.0
2.447 -0.037965256720781326 0.42439234256744385 0.2627098560333252 0.40443092584609985 0.0 0.0 0.0 0.0
2.448 -0.030150290578603745 0.42839154601097107 0.27481403946876526 0.3957143723964691 0.0 0.0 0.0 0.0
2.449 -0.020710719749331474 0.4319869875907898 0.28588178753852844 0.38605883717536926 0.0 0.0 0.0 0.0
2.45 -0.015561891719698906 0.4357607662677765 0.2943316102027893 0.37863555550575256 0.0 0.0 0.0 0.0
2.451 -0.007482150569558144 0.4386880695819855 0.30619198083877563 0.3681165874004364 0.0 0.0 0.0 0.0
2.452 0.0011636177077889442 0.44070079922676086 0.31706127524375916 0.35729628801345825 0.0 0.0 0.0 0.0
2.453 0.009817279875278473 0.4434964954853058 0.3255862891674042 0.3488976061344147 0.0 0.0 0.0 0.0
2.454 0.016991565003991127 0.4461771845817566 0.33522552251815796 0.3394317328929901 0.0 0.0 0.0 0.0
2.455 0.02355000749230385 0.447763055562973 0.34434908628463745 0.3291378319263458 0.0 0.0 0.0 0.0
2.456 0.0327608697116375 0.44892221689224243 0.3530844449996948 0.31853121519088745 0.0 0.0 0.0 0.0
2.457 0.041425034403800964 0.4505585730075836 0.3618222177028656 0.3088955283164978 0.0 0.0 0.0 0.0
2.458 0.04946107417345047 0.4510055184364319 0.3703388273715973 0.2973180413246155 0.0 0.0 0.0 0.0
2.459 0.057887058705091476 0.45179954171180725 0.3794599175453186 0.28577879071235657 0.0 0.0 0.0 0.0
2.46 0.06447920948266983 0.4546889364719391 0.38528937101364136 0.27804750204086304 0.0 0.0 0.0 0.0
2.461 0.07270852476358414 0.45218807458877563 0.3942040205001831 0.264085054397583 0.0 0.0 0.0 0.0
2.462 0.08097027987241745 0.45159316062927246 0.40131062269210815 0.2531115710735321 0.0 0.0 0.0 0.0
2.463 0.09093989431858063 0.45099902153015137 0.4097810983657837 0.24043720960617065 0.0 0.0 0.0 0.0
2.464 0.0980805829167366 0.4500568211078644 0.41546347737312317 0.23098619282245636 0.0 0.0 0.0 0.0
2.465 0.1060829609632492 0.4483135938644409 0.42237406969070435 0.21815189719200134 0.0 0.0 0.0 0.0
2.466 0.11384092271327972 0.4458162784576416 0.42848455905914307 0.20638732612133026 0.0 0.0 0.0 0.0
2.467 0.12294492870569229 0.44459861516952515 0.43541640043258667 0.19430816173553467 0.0 0.0 0.0 0.0
2.468 0.12876278162002563 0.4427620470523834 0.44056105613708496 0.18253494799137115 0.0 0.0 0.0 0.0
2.469 0.1391366571187973 0.4391041398048401 0.44686493277549744 0.16845329105854034 0.0 0.0 0.0 0.0
2.47 0.14524954557418823 0.43633633852005005 0.45214298367500305 0.15577223896980286 0.0 0.0 0.0 0.0
2.471 0.15195757150650024 0.43378597497940063 0.4566052258014679 0.14396435022354126 0.0 0.0 0.0 0.0
2.472 0.15742796659469604 0.4305102229118347 0.4607783555984497 0.13183467090129852 0.0 0.0 0.0 0.0
2.473 0.1660434454679489 0.4267282783985138 0.4660017490386963 0.11764553189277649 0.0 0.0 0.0 0.0
2.474 0.17217907309532166 0.4223593473434448 0.4704228639602661 0.1029592975974083 0.0 0.0 0.0 0.0
2.475 0.18098698556423187 0.41784918308258057 0.47408851981163025 0.09041621536016464 0.0 0.0 0.0 0.0
2.476 0.1860312670469284 0.4139364957809448 0.4777073264122009 0.07826507091522217 0.0 0.0 0.0 0.0
2.477 0.1908596009016037 0.4096161425113678 0.4809085428714752 0.06400318443775177 0.0 0.0 0.0 0.0
2.478 0.19796741008758545 0.4036337435245514 0.4836234450340271 0.04880494996905327 0.0 0.0 0.0 0.0
2.479 0.20339623093605042 0.39895957708358765 0.48603495955467224 0.036162469536066055 0.0 0.0 0.0 0.0
2.48 0.20778734982013702 0.39449140429496765 0.48824548721313477 0.022999657317996025 0.0 0.0 0.0 0.0
2.481 0.21407601237297058 0.38757219910621643 0.4899791181087494 0.006898882798850536 0.0 0.0 0.0 0.0
2.482 0.21807852387428284 0.38234567642211914 0.4917445182800293 -0.006244482472538948 0.0 0.0 0.0 0.0
2.483 0.22318705916404724 0.3764760494232178 0.49257197976112366 -0.021179277449846268 0.0 0.0 0.0 0.0
2.484 0.22807253897190094 0.3684729337692261 0.4932774603366852 -0.03708933666348457 0.0 0.0 0.0 0.0
2.485 0.23232215642929077 0.3639678657054901 0.49347540736198425 -0.05090390518307686 0.0 0.0 0.0 0.0
2.486 0.23449043929576874 0.3586421012878418 0.4935087561607361 -0.06556466221809387 0.0 0.0 0.0 0.0
2.487 0.2385430634021759 0.35186633467674255 0.4929431080818176 -0.08053212612867355 0.0 0.0 0.0 0.0
2.488 0.24320828914642334 0.34490957856178284 0.4915997087955475 -0.09728820621967316 0.0 0.0 0.0 0.0
2.489 0.2451082020998001 0.3387416899204254 0.4905107617378235 -0.11107336729764938 0.0 0.0 0.0 0.0
2.49 0.24730239808559418 0.3316943049430847 0.4889596402645111 -0.12744849920272827 0.0 0.0 0.0 0.0
2.491 0.24990354478359222 0.32582998275756836 0.4863656461238861 -0.14195916056632996 0.0 0.0 0.0 0.0
2.492 0.2519087493419647 0.3183530569076538 0.4835844933986664 -0.1573503464460373 0.0 0.0 0.0 0.0
2.493 0.25471505522727966 0.31118470430374146 0.480966717004776 -0.17284180223941803 0.0 0.0 0.0 0.0
2.494 0.25478482246398926 0.3047846555709839 0.47774770855903625 -0.18796342611312866 0.0 0.0 0.0 0.0
2.495 0.2568236291408539 0.297049343585968 0.47186923027038574 -0.20564280450344086 0.0 0.0 0.0 0.0
2.496 0.2563894987106323 0.29083430767059326 0.4684935510158539 -0.21794794499874115 0.0 0.0 0.0 0.0
2.497 0.2568664252758026 0.2844162881374359 0.46394824981689453 -0.23481343686580658 0.0 0.0 0.0 0.0
2.498 0.25791123509407043 0.27738600969314575 0.4568246304988861 -0.2514418363571167 0.0 0.0 0.0 0.0
2.499 0.2577950060367584 0.2701895236968994 0.44968411326408386 -0.2667209208011627 0.0 0.0 0.0 0.0
2.5 0.256677508354187 0.2650050222873688 0.4439575970172882 -0.2807975113391876 0.0 0.0 0.0 0.0
2.501 0.2574041187763214 0.25645384192466736 0.4350738227367401 -0.2991030216217041 0.0 0.0 0.0 0.0
2.502 0.25420328974723816 0.251656711101532 0.4298354387283325 -0.31091076135635376 0.0 0.0 0.0 0.0
2.503 0.2525769770145416 0.2451016753911972 0.4194892942905426 -0.32775554060935974 0.0 0.0 0.0 0.0
2.504 0.2525942623615265 0.23878931999206543 0.40944913029670715 -0.34351038932800293 0.0 0.0 0.0 0.0
2.505 0.25031089782714844 0.23314563930034637 0.4012454152107239 -0.35623523592948914 0.0 0.0 0.0 0.0
2.506 0.24744415283203125 0.22809858620166779 0.391162246465683 -0.37088125944137573 0.0 0.0 0.0 0.0
2.507 0.2449852079153061 0.2224346101284027 0.3797748386859894 -0.38453203439712524 0.0 0.0 0.0 0.0
2.508 0.24176348745822906 0.21777021884918213 0.36996281147003174 -0.4005347490310669 0.0 0.0 0.0 0.0
2.509 0.24014608561992645 0.2126232385635376 0.35672467947006226 -0.41223812103271484 0.0 0.0 0.0 0.0
2.51 0.2376016229391098 0.207474946975708 0.34188613295555115 -0.42563867568969727 0.0 0.0 0.0 0.0
2.511 0.23439499735832214 0.20320682227611542 0.33105042576789856 -0.4378562867641449 0.0 0.0 0.0 0.0
2.512 0.23317696154117584 0.19758503139019012 0.3157300651073456 -0.45026305317878723 0.0 0.0 0.0 0.0
2.513 0.22846297919750214 0.19455687701702118 0.30226555466651917 -0.4617747664451599 0.0 0.0 0.0 0.0
2.514 0.22559228539466858 0.189996600151062 0.2881627380847931 -0.47373104095458984 0.0 0.0 0.0 0.0
2.515 0.2229948788881302 0.185639888048172 0.2731071412563324 -0.4855857491493225 0.0 0.0 0.0 0.0
2.516 0.21881529688835144 0.18212060630321503 0.25721609592437744 -0.4955907464027405 0.0 0.0 0.0 0.0
2.517 0.2151591032743454 0.1788065880537033 0.23990941047668457 -0.505654513835907 0.0 0.0 0.0 0.0
2.518 0.21207238733768463 0.17528121173381805 0.22375477850437164 -0.5162215828895569 0.0 0.0 0.0 0.0
2.519 0.20828649401664734 0.17264875769615173 0.20869754254817963 -0.5249050855636597 0.0 0.0 0.0 0.0
2.52 0.2046288698911667 0.16976355016231537 0.18993297219276428 -0.5322380661964417 0.0 0.0 0.0 0.0
2.521 0.20178869366645813 0.16665711998939514 0.16964414715766907 -0.5416065454483032 0.0 0.0 0.0 0.0
2.522 0.19741995632648468 0.1647387593984604 0.1537877917289734 -0.5487715005874634 0.0 0.0 0.0 0.0
2.523 0.19343942403793335 0.1630103439092636 0.1382284313440323 -0.554627001285553 0.0 0.0 0.0 0.0
2.524 0.18965445458889008 0.161736398935318 0.11837303638458252 -0.5605940818786621 0.0 0.0 0.0 0.0
2.525 0.18712978065013885 0.1589779555797577 0.0970512181520462 -0.5671094059944153 0.0 0.0 0.0 0.0
2.526 0.18345248699188232 0.15772005915641785 0.07905060797929764 -0.5707241892814636 0.0 0.0 0.0 0.0
2.527 0.1799469292163849 0.15641702711582184 0.05974996089935303 -0.574415385723114 0.0 0.0 0.0 0.0
2.528 0.17710435390472412 0.1550149917602539 0.040635861456394196 -0.5781596899032593 0.0 0.0 0.0 0.0
2.529 0.17369595170021057 0.1541144996881485 0.01985948160290718 -0.5818229913711548 0.0 0.0 0.0 0.0
2.53 0.17115862667560577 0.15277573466300964 -0.0016051512211561203 -0.5835915803909302 0.0 0.0 0.0 0.0
2.531 0.16705772280693054 0.15209653973579407 -0.0186512041836977 -0.5829495787620544 0.0 0.0 0.0 0.0
2.532 0.16354215145111084 0.1501038372516632 -0.03772224113345146 -0.5820217132568359 0.0 0.0 0.0 0.0
2.533 0.16280098259449005 0.14934968948364258 -0.06548337638378143 -0.5830771923065186 0.0 0.0 0.0 0.0
2.534 0.15905821323394775 0.14920225739479065 -0.0802597627043724 -0.5824103355407715 0.0 0.0 0.0 0.0
2.535 0.1565331220626831 0.1482914835214615 -0.103227898478508 -0.5787638425827026 0.0 0.0 0.0 0.0
2.536 0.1538800597190857 0.14749908447265625 -0.12058812379837036 -0.576589047908783 0.0 0.0 0.0 0.0
2.537 0.15228253602981567 0.14620576798915863 -0.14465554058551788 -0.5745524764060974 0.0 0.0 0.0 0.0
2.538 0.14993087947368622 0.14498353004455566 -0.16346780955791473 -0.5686506032943726 0.0 0.0 0.0 0.0
2.539 0.14589719474315643 0.1460394561290741 -0.1774340718984604 -0.5669854879379272 0.0 0.0 0.0 0.0
2.54 0.14491388201713562 0.1438933163881302 -0.20416776835918427 -0.5595399737358093 0.0 0.0 0.0 0.0
2.541 0.14273202419281006 0.14300480484962463 -0.22191038727760315 -0.5548647046089172 0.0 0.0 0.0 0.0
2.542 0.14006391167640686 0.14337432384490967 -0.2386486828327179 -0.5510883927345276 0.0 0.0 0.0 0.0
2.543 0.13791584968566895 0.14212214946746826 -0.2597178518772125 -0.5403769612312317 0.0 0.0 0.0 0.0
2.544 0.13607916235923767 0.14080648124217987 -0.2787078022956848 -0.5315804481506348 0.0 0.0 0.0 0.0
2.545 0.13438020646572113 0.13974584639072418 -0.2985064685344696 -0.5221225619316101 0.0 0.0 0.0 0.0
2.546 0.1321864128112793 0.1387753039598465 -0.3162722587585449 -0.5126630663871765 0.0 0.0 0.0 0.0
2.547 0.13005810976028442 0.13735081255435944 -0.33477166295051575 -0.5016180872917175 0.0 0.0 0.0 0.0
2.548 0.1283777505159378 0.13593214750289917 -0.35383328795433044 -0.48990166187286377 0.0 0.0 0.0 0.0
2.549 0.12635467946529388 0.13491611182689667 -0.3707800507545471 -0.47946199774742126 0.0 0.0 0.0 0.0
2.55 0.1238664910197258 0.13401804864406586 -0.38745540380477905 -0.46758463978767395 0.0 0.0 0.0 0.0
2.551 0.12198857218027115 0.13264931738376617 -0.4047498404979706 -0.4548700749874115 0.0 0.0 0.0 0.0
2.552 0.11952667683362961 0.1303863823413849 -0.4193038046360016 -0.4406994581222534 0.0 0.0 0.0 0.0
2.553 0.1166701465845108 0.1294257491827011 -0.434121310710907 -0.4281405806541443 0.0 0.0 0.0 0.0
2.554 0.11412516236305237 0.12819558382034302 -0.44991567730903625 -0.41434669494628906 0.0 0.0 0.0 0.0
2.555 0.11091368645429611 0.12654034793376923 -0.46375975012779236 -0.3990281820297241 0.0 0.0 0.0 0.0
2.556 0.10989932715892792 0.12475986033678055 -0.4836549758911133 -0.38172927498817444 0.0 0.0 0.0 0.0
2.557 0.10581742227077484 0.12292369455099106 -0.4935850501060486 -0.36412957310676575 0.0 0.0 0.0 0.0
2.558 0.10242543369531631 0.12167532742023468 -0.5061802268028259 -0.34901902079582214 0.0 0.0 0.0 0.0
2.559 0.09945692867040634 0.11984821408987045 -0.5201153755187988 -0.3308778703212738 0.0 0.0 0.0 0.0
2.56 0.0959692895412445 0.11749802529811859 -0.5306676030158997 -0.3124474287033081 0.0 0.0 0.0 0.0
2.561 0.09240888059139252 0.11664479970932007 -0.5425399541854858 -0.2956077456474304 0.0 0.0 0.0 0.0
2.562 0.08852354437112808 0.1148909255862236 -0.553846538066864 -0.27412089705467224 0.0 0.0 0.0 0.0
2.563 0.08498222380876541 0.11412369459867477 -0.5634543895721436 -0.25835010409355164 0.0 0.0 0.0 0.0
2.564 0.08081882447004318 0.11217519640922546 -0.5734769105911255 -0.23629644513130188 0.0 0.0 0.0 0.0
2.565 0.07649830728769302 0.11077649891376495 -0.5816887617111206 -0.21704567968845367 0.0 0.0 0.0 0.0
2.566 0.07160503417253494 0.10991156846284866 -0.5893060564994812 -0.19819797575473785 0.0 0.0 0.0 0.0
2.567 0.06719625741243362 0.10829617828130722 -0.596707284450531 -0.1764371395111084 0.0 0.0 0.0 0.0
2.568 0.06268759816884995 0.10739926993846893 -0.603447675704956 -0.15649467706680298 0.0 0.0 0.0 0.0
2.569 0.05782713741064072 0.10670250654220581 -0.609474241733551 -0.1344580203294754 0.0 0.0 0.0 0.0
2.57 0.05196709930896759 0.10643715411424637 -0.6136317253112793 -0.11392756551504135 0.0 0.0 0.0 0.0
2.571 0.047423362731933594 0.10588916391134262 -0.6183236837387085 -0.08895493298768997 0.0 0.0 0.0 0.0
2.572 0.0416649766266346 0.10608997195959091 -0.6215318441390991 -0.06609652936458588 0.0 0.0 0.0 0.0
2.573 0.03598245605826378 0.1064063161611557 -0.6239019632339478 -0.047519005835056305 0.0 0.0 0.0 0.0
2.574 0.030056439340114594 0.10687621682882309 -0.6251559853553772 -0.02578354999423027 0.0 0.0 0.0 0.0
2.575 0.023570412769913673 0.10702303051948547 -0.6256291270256042 -0.001825997605919838 0.0 0.0 0.0 0.0
2.576 0.01792171224951744 0.10839707404375076 -0.6260440945625305 0.01784542016685009 0.0 0.0 0.0 0.0
2.577 0.012085583992302418 0.10930370539426804 -0.6247000098228455 0.04198835790157318 0.0 0.0 0.0 0.0
2.578 0.0061814431101083755 0.11066488921642303 -0.6224217414855957 0.0642448291182518 0.0 0.0 0.0 0.0
2.579 0.0001590736210346222 0.11274757236242294 -0.6193138957023621 0.0882427841424942 0.0 0.0 0.0 0.0
2.58 -0.005651678889989853 0.11542569845914841 -0.6155361533164978 0.10947666317224503 0.0 0.0 0.0 0.0
2.581 -0.012023678980767727 0.11687123775482178 -0.6119123101234436 0.12995901703834534 0.0 0.0 0.0 0.0
2.582 -0.019194671884179115 0.12034226953983307 -0.6068625450134277 0.1505996137857437 0.0 0.0 0.0 0.0
2.583 -0.024364087730646133 0.12346920371055603 -0.5995295643806458 0.17521728575229645 0.0 0.0 0.0 0.0
2.584 -0.030628962442278862 0.12672731280326843 -0.5938178896903992 0.19524657726287842 0.0 0.0 0.0 0.0
2.585 -0.036013830453157425 0.13122081756591797 -0.5852524638175964 0.21643801033496857 0.0 0.0 0.0 0.0
2.586 -0.04249786585569382 0.1347457468509674 -0.5772738456726074 0.23468881845474243 0.0 0.0 0.0 0.0
2.587 -0.04681544005870819 0.13955077528953552 -0.5655710101127625 0.2574659287929535 0.0 0.0 0.0 0.0
2.588 -0.05320359021425247 0.14393073320388794 -0.5574543476104736 0.2752367854118347 0.0 0.0 0.0 0.0
2.589 -0.05854335054755211 0.1483851969242096 -0.546363890171051 0.29374611377716064 0.0 0.0 0.0 0.0
2.59 -0.06280357390642166 0.15273550152778625 -0.5326106548309326 0.31157585978507996 0.0 0.0 0.0 0.0
2.591 -0.06876054406166077 0.15940965712070465 -0.5227858424186707 0.3306519091129303 0.0 0.0 0.0 0.0
2.592 -0.07252232730388641 0.1651924103498459 -0.5066795945167542 0.3508945405483246 0.0 0.0 0.0 0.0
2.593 -0.07815328240394592 0.17167285084724426 -0.49723395705223083 0.36636289954185486 0.0 0.0 0.0 0.0
2.594 -0.0821981430053711 0.1774139702320099 -0.48306506872177124 0.38112595677375793 0.0 0.0 0.0 0.0
2.595 -0.08600737154483795 0.18393616378307343 -0.4670422077178955 0.39745745062828064 0.0 0.0 0.0 0.0
2.596 -0.08885228633880615 0.19031554460525513 -0.4510718286037445 0.41222289204597473 0.0 0.0 0.0 0.0
2.597 -0.09279985725879669 0.19823063910007477 -0.43793821334838867 0.4262758791446686 0.0 0.0 0.0 0.0
2.598 -0.09656358510255814 0.20546118915081024 -0.4228254556655884 0.4402709901332855 0.0 0.0 0.0 0.0
2.599 -0.0990765243768692 0.21318770945072174 -0.40511903166770935 0.4566839933395386 0.0 0.0 0.0 0.0
2.6 -0.09993089735507965 0.22048620879650116 -0.385495126247406 0.4684630036354065 0.0 0.0 0.0 0.0
2.601 -0.10171065479516983 0.22855953872203827 -0.37034642696380615 0.4785836637020111 0.0 0.0 0.0 0.0
2.602 -0.10408809036016464 0.23592022061347961 -0.35451722145080566 0.48973846435546875 0.0 0.0 0.0 0.0
2.603 -0.10452719032764435 0.24351701140403748 -0.3330644369125366 0.500058650970459 0.0 0.0 0.0 0.0
2.604 -0.10603442043066025 0.25331035256385803 -0.3164866268634796 0.5146182775497437 0.0 0.0 0.0 0.0
2.605 -0.10631165653467178 0.25875505805015564 -0.3004913032054901 0.516608715057373 0.0 0.0 0.0 0.0
2.606 -0.10647329688072205 0.2670489549636841 -0.28073960542678833 0.5270048975944519 0.0 0.0 0.0 0.0
2.607 -0.1064816489815712 0.27478355169296265 -0.26201969385147095 0.534364640712738 0.0 0.0 0.0 0.0
2.608 -0.10510259866714478 0.2819080054759979 -0.24213622510433197 0.5402852296829224 0.0 0.0 0.0 0.0
2.609 -0.10471873730421066 0.29051727056503296 -0.22601495683193207 0.5471047163009644 0.0 0.0 0.0 0.0
2.61 -0.10215511918067932 0.29874300956726074 -0.2033967524766922 0.5538423657417297 0.0 0.0 0.0 0.0
2.611 -0.10567498952150345 0.30562567710876465 -0.1934417486190796 0.5578539371490479 0.0 0.0 0.0 0.0
2.612 -0.09931046515703201 0.3140212595462799 -0.1705235093832016 0.5628427267074585 0.0 0.0 0.0 0.0
2.613 -0.09886329621076584 0.32091811299324036 -0.15452755987644196 0.5655521750450134 0.0 0.0 0.0 0.0
2.614 -0.0992540642619133 0.3269517421722412 -0.1391105204820633 0.5669414401054382 0.0 0.0 0.0 0.0
2.615 -0.09240484237670898 0.33526310324668884 -0.11389690637588501 0.5711148977279663 0.0 0.0 0.0 0.0
2.616 -0.09021037071943283 0.3413151502609253 -0.09943235665559769 0.5710011720657349 0.0 0.0 0.0 0.0
2.617 -0.08691161870956421 0.35077017545700073 -0.0792536661028862 0.5767061114311218 0.0 0.0 0.0 0.0
2.618 -0.08333771675825119 0.356008917093277 -0.06064479798078537 0.5746826529502869 0.0 0.0 0.0 0.0
2.619 -0.07739194482564926 0.36283671855926514 -0.04094504192471504 0.5752649903297424 0.0 0.0 0.0 0.0
2.62 -0.07425020635128021 0.36782899498939514 -0.02356703206896782 0.5731870532035828 0.0 0.0 0.0 0.0
2.621 -0.07078208774328232 0.37518754601478577 -0.006608380004763603 0.574546217918396 0.0 0.0 0.0 0.0
2.622 -0.06471480429172516 0.3814777135848999 0.013019328005611897 0.5731244087219238 0.0 0.0 0.0 0.0
2.623 -0.06046910956501961 0.3878503441810608 0.026652760803699493 0.5724077820777893 0.0 0.0 0.0 0.0
2.624 -0.05573688820004463 0.3928759694099426 0.044637590646743774 0.5699033737182617 0.0 0.0 0.0 0.0
2.625 -0.0492282398045063 0.396949827671051 0.06522386521100998 0.5656346082687378 0.0 0.0 0.0 0.0
2.626 -0.04363343492150307 0.400160551071167 0.08092797547578812 0.5602025389671326 0.0 0.0 0.0 0.0
2.627 -0.03827514499425888 0.4068533778190613 0.0959727019071579 0.5595841407775879 0.0 0.0 0.0 0.0
2.628 -0.032550148665905 0.41549190878868103 0.11283960938453674 0.5609076619148254 0.0 0.0 0.0 0.0
2.629 -0.026850001886487007 0.4128575623035431 0.12970048189163208 0.5471494793891907 0.0 0.0 0.0 0.0
2.63 -0.02064686454832554 0.419736385345459 0.1461063027381897 0.5468786358833313 0.0 0.0 0.0 0.0
2.631 -0.013599708676338196 0.4251466393470764 0.16279877722263336 0.5429849624633789 0.0 0.0 0.0 0.0
2.632 -0.010756178759038448 0.4256957173347473 0.17501239478588104 0.5349265336990356 0.0 0.0 0.0 0.0
2.633 -0.0006582429632544518 0.43009674549102783 0.19485947489738464 0.5304653644561768 0.0 0.0 0.0 0.0
2.634 0.0053046271204948425 0.43153536319732666 0.2095956802368164 0.5219215154647827 0.0 0.0 0.0 0.0
2.635 0.013794963248074055 0.4353434443473816 0.228060781955719 0.5159960389137268 0.0 0.0 0.0 0.0
2.636 0.01722734421491623 0.43893522024154663 0.23851124942302704 0.5117806792259216 0.0 0.0 0.0 0.0
2.637 0.025574523955583572 0.43837836384773254 0.25532397627830505 0.5007215738296509 0.0 0.0 0.0 0.0
2.638 0.034808237105607986 0.4447616636753082 0.27241548895835876 0.49837639927864075 0.0 0.0 0.0 0.0
2.639 0.03945150971412659 0.4430028200149536 0.283852756023407 0.48655885457992554 0.0 0.0 0.0 0.0
2.64 0.04528772085905075 0.44394028186798096 0.2967546582221985 0.4786793887615204 0.0 0.0 0.0 0.0
2.641 0.05274633318185806 0.4461441934108734 0.3118640184402466 0.47148647904396057 0.0 0.0 0.0 0.0
2.642 0.05934743955731392 0.44630300998687744 0.32592061161994934 0.46150919795036316 0.0 0.0 0.0 0.0
2.643 0.06485491991043091 0.4456760287284851 0.33750683069229126 0.45191121101379395 0.0 0.0 0.0 0.0
2.644 0.07163184136152267 0.44796308875083923 0.35310906171798706 0.4413784444332123 0.0 0.0 0.0 0.0
2.645 0.07972697913646698 0.44623497128486633 0.36665159463882446 0.43113231658935547 0.0 0.0 0.0 0.0
2.646 0.08875712007284164 0.4444391131401062 0.3811168372631073 0.41822198033332825 0.0 0.0 0.0 0.0
2.647 0.0926126092672348 0.4439341425895691 0.3920016288757324 0.41057878732681274 0.0 0.0 0.0 0.0
2.648 0.09893983602523804 0.4436235725879669 0.4049290716648102 0.3980432152748108 0.0 0.0 0.0 0.0
2.649 0.10647787898778915 0.44122084975242615 0.41780850291252136 0.38442131876945496 0.0 0.0 0.0 0.0
2.65 0.11166421324014664 0.44286903738975525 0.42817452549934387 0.37925535440444946 0.0 0.0 0.0 0.0
2.651 0.1172119751572609 0.43951719999313354 0.44189974665641785 0.36168479919433594 0.0 0.0 0.0 0.0
2.652 0.12488497793674469 0.44073474407196045 0.4538922607898712 0.3497231602668762 0.0 0.0 0.0 0.0
2.653 0.13061405718326569 0.43615880608558655 0.4637010097503662 0.3386591672897339 0.0 0.0 0.0 0.0
2.654 0.13448260724544525 0.4347820580005646 0.47329655289649963 0.32782408595085144 0.0 0.0 0.0 0.0
2.655 0.142761692404747 0.4319000840187073 0.4870946705341339 0.3084941506385803 0.0 0.0 0.0 0.0
2.656 0.1483629196882248 0.42642226815223694 0.49784600734710693 0.2941371202468872 0.0 0.0 0.0 0.0
2.657 0.15232235193252563 0.4254358112812042 0.5057129263877869 0.28256797790527344 0.0 0.0 0.0 0.0
2.658 0.15865646302700043 0.422349214553833 0.5163338780403137 0.267947793006897 0.0 0.0 0.0 0.0
2.659 0.1623416543006897 0.422641783952713 0.5240481495857239 0.2581048011779785 0.0 0.0 0.0 0.0
2.66 0.16905908286571503 0.41479331254959106 0.5342333316802979 0.23715223371982574 0.0 0.0 0.0 0.0
2.661 0.17386451363563538 0.4129922091960907 0.5428194999694824 0.22226537764072418 0.0 0.0 0.0 0.0
2.662 0.17836391925811768 0.4130919873714447 0.551489531993866 0.2072666883468628 0.0 0.0 0.0 0.0
2.663 0.18240754306316376 0.40580683946609497 0.559090793132782 0.189551442861557 0.0 0.0 0.0 0.0
2.664 0.18585141003131866 0.40128394961357117 0.5663384199142456 0.17379450798034668 0.0 0.0 0.0 0.0
2.665 0.18789544701576233 0.3987223207950592 0.5722334980964661 0.15716037154197693 0.0 0.0 0.0 0.0
2.666 0.19294339418411255 0.3928193151950836 0.5801246762275696 0.13602589070796967 0.0 0.0 0.0 0.0
2.667 0.19849421083927155 0.3887166380882263 0.5868929028511047 0.11881377547979355 0.0 0.0 0.0 0.0
2.668 0.20039354264736176 0.3836945593357086 0.5909618139266968 0.10323615372180939 0.0 0.0 0.0 0.0
2.669 0.2039845585823059 0.3809444010257721 0.5968407392501831 0.08463004976511002 0.0 0.0 0.0 0.0
2.67 0.2088390290737152 0.37475985288619995 0.602131187915802 0.06431449949741364 0.0 0.0 0.0 0.0
2.671 0.21105214953422546 0.3726729452610016 0.6060459613800049 0.04815368726849556 0.0 0.0 0.0 0.0
2.672 0.21308550238609314 0.3683776557445526 0.6092362403869629 0.029446454718708992 0.0 0.0 0.0 0.0
2.673 0.21610087156295776 0.3644877076148987 0.6124023795127869 0.010626819916069508 0.0 0.0 0.0 0.0
2.674 0.2230561375617981 0.3582397699356079 0.6145981550216675 -0.015452969819307327 0.0 0.0 0.0 0.0
2.675 0.22082467377185822 0.3534769117832184 0.6171355843544006 -0.03198933228850365 0.0 0.0 0.0 0.0
2.676 0.21945491433143616 0.3501116931438446 0.6182164549827576 -0.0486808605492115 0.0 0.0 0.0 0.0
2.677 0.2218010574579239 0.34670141339302063 0.6185377240180969 -0.07267209887504578 0.0 0.0 0.0 0.0
2.678 0.22753114998340607 0.33761969208717346 0.6177238821983337 -0.09490159153938293 0.0 0.0 0.0 0.0
2.679 0.2258521467447281 0.3360316753387451 0.6172030568122864 -0.1100846603512764 0.0 0.0 0.0 0.0
2.68 0.2272404581308365 0.33132994174957275 0.6156432628631592 -0.13454565405845642 0.0 0.0 0.0 0.0
2.681 0.22922208905220032 0.32477620244026184 0.6128435134887695 -0.15453685820102692 0.0 0.0 0.0 0.0
2.682 0.22723489999771118 0.32271328568458557 0.6114476323127747 -0.17111539840698242 0.0 0.0 0.0 0.0
2.683 0.23276127874851227 0.3168497383594513 0.6049361228942871 -0.20131845772266388 0.0 0.0 0.0 0.0
2.684 0.23172038793563843 0.3124304413795471 0.6008635759353638 -0.21751980483531952 0.0 0.0 0.0 0.0
2.685 0.230873703956604 0.3090517222881317 0.596303403377533 -0.23655198514461517 0.0 0.0 0.0 0.0
2.686 0.23331071436405182 0.30815210938453674 0.5896345376968384 -0.26273950934410095 0.0 0.0 0.0 0.0
2.687 0.23072680830955505 0.2997831702232361 0.5844354629516602 -0.2771255373954773 0.0 0.0 0.0 0.0
2.688 0.2327640801668167 0.2959411144256592 0.5736139416694641 -0.30376192927360535 0.0 0.0 0.0 0.0
2.689 0.2306184619665146 0.29191914200782776 0.567324697971344 -0.3206414580345154 0.0 0.0 0.0 0.0
2.69 0.2316577285528183 0.28840371966362 0.5575900077819824 -0.3412206172943115 0.0 0.0 0.0 0.0
2.691 0.2303514927625656 0.28546109795570374 0.5495132803916931 -0.3590245246887207 0.0 0.0 0.0 0.0
2.692 0.22976979613304138 0.2824089527130127 0.5387367606163025 -0.3822849988937378 0.0 0.0 0.0 0.0
2.693 0.2304161787033081 0.27763083577156067 0.5243546366691589 -0.3995916545391083 0.0 0.0 0.0 0.0
2.694 0.2301238477230072 0.274141788482666 0.5115991234779358 -0.4199012517929077 0.0 0.0 0.0 0.0
2.695 0.23166628181934357 0.2705608010292053 0.49640196561813354 -0.4376569390296936 0.0 0.0 0.0 0.0
2.696 0.2296983152627945 0.26725611090660095 0.4848087728023529 -0.4560631513595581 0.0 0.0 0.0 0.0
2.697 0.22884561121463776 0.2625576853752136 0.4691653847694397 -0.47269877791404724 0.0 0.0 0.0 0.0
2.698 0.22786763310432434 0.26143771409988403 0.4565459191799164 -0.4943382740020752 0.0 0.0 0.0 0.0
2.699 0.22786001861095428 0.25699305534362793 0.43967458605766296 -0.5078246593475342 0.0 0.0 0.0 0.0
2.7 0.22412678599357605 0.2533695101737976 0.42875275015830994 -0.5204481482505798 0.0 0.0 0.0 0.0
2.701 0.22444555163383484 0.24958573281764984 0.4103425443172455 -0.5378442406654358 0.0 0.0 0.0 0.0
2.702 0.2256373167037964 0.24677537381649017 0.38895025849342346 -0.5550404191017151 0.0 0.0 0.0 0.0
2.703 0.22442975640296936 0.24431665241718292 0.3692348599433899 -0.5698522925376892 0.0 0.0 0.0 0.0
2.704 0.22343377768993378 0.24452592432498932 0.3488128185272217 -0.5889233350753784 0.0 0.0 0.0 0.0
2.705 0.2232646495103836 0.23779073357582092 0.3301638066768646 -0.5976451635360718 0.0 0.0 0.0 0.0
2.706 0.22187185287475586 0.23499272763729095 0.3107556998729706 -0.6087632775306702 0.0 0.0 0.0 0.0
2.707 0.22081734240055084 0.23494641482830048 0.28969961404800415 -0.6217384338378906 0.0 0.0 0.0 0.0
2.708 0.22047321498394012 0.23006542026996613 0.2656406760215759 -0.6344344615936279 0.0 0.0 0.0 0.0
2.709 0.21804854273796082 0.2290874570608139 0.24974191188812256 -0.6426449418067932 0.0 0.0 0.0 0.0
2.71 0.21936462819576263 0.22474797070026398 0.2220831960439682 -0.6528681516647339 0.0 0.0 0.0 0.0
2.711 0.21705931425094604 0.22311508655548096 0.20354460179805756 -0.661708414554596 0.0 0.0 0.0 0.0
2.712 0.2156621664762497 0.22027967870235443 0.18145887553691864 -0.668975830078125 0.0 0.0 0.0 0.0
2.713 0.217143252491951 0.2182118445634842 0.15234561264514923 -0.6791647672653198 0.0 0.0 0.0 0.0
2.714 0.2139548361301422 0.216111421585083 0.1371302306652069 -0.6831057071685791 0.0 0.0 0.0 0.0
2.715 0.2137911468744278 0.21230728924274445 0.10926645249128342 -0.690054714679718 0.0 0.0 0.0 0.0
2.716 0.21165142953395844 0.2099006325006485 0.0927305817604065 -0.6910544633865356 0.0 0.0 0.0 0.0
2.717 0.21231260895729065 0.20714467763900757 0.06335338950157166 -0.6977682113647461 0.0 0.0 0.0 0.0
2.718 0.2101251631975174 0.20443055033683777 0.04145048186182976 -0.6998088359832764 0.0 0.0 0.0 0.0
2.719 0.2093147188425064 0.20220471918582916 0.01567693240940571 -0.7044190168380737 0.0 0.0 0.0 0.0
2.72 0.20959033071994781 0.19914261996746063 -0.009965040720999241 -0.705632209777832 0.0 0.0 0.0 0.0
2.721 0.20923011004924774 0.19608578085899353 -0.03553307056427002 -0.706631064414978 0.0 0.0 0.0 0.0
2.722 0.20843477547168732 0.1934920996427536 -0.06346996873617172 -0.7029629349708557 0.0 0.0 0.0 0.0
2.723 0.20616330206394196 0.19019417464733124 -0.08242674916982651 -0.7024418711662292 0.0 0.0 0.0 0.0
2.724 0.20508065819740295 0.1872607320547104 -0.10669731348752975 -0.7023444771766663 0.0 0.0 0.0 0.0
2.725 0.20316846668720245 0.1863422691822052 -0.12809355556964874 -0.7052568793296814 0.0 0.0 0.0 0.0
2.726 0.20159262418746948 0.18216414749622345 -0.15730570256710052 -0.6944612860679626 0.0 0.0 0.0 0.0
2.727 0.2010907083749771 0.17819459736347198 -0.18027420341968536 -0.6896529793739319 0.0 0.0 0.0 0.0
2.728 0.19986197352409363 0.17330202460289001 -0.20333242416381836 -0.6794649362564087 0.0 0.0 0.0 0.0
2.729 0.1983858197927475 0.17169612646102905 -0.23022879660129547 -0.6760554313659668 0.0 0.0 0.0 0.0
2.73 0.19586744904518127 0.16848412156105042 -0.2526415288448334 -0.6688835024833679 0.0 0.0 0.0 0.0
2.731 0.19451738893985748 0.1641484647989273 -0.2751502990722656 -0.6594754457473755 0.0 0.0 0.0 0.0
2.732 0.19238340854644775 0.16295798122882843 -0.2954971492290497 -0.6557838320732117 0.0 0.0 0.0 0.0
2.733 0.19065052270889282 0.1589849591255188 -0.3241344392299652 -0.6437386274337769 0.0 0.0 0.0 0.0
2.734 0.18699443340301514 0.15387174487113953 -0.3399009108543396 -0.6245913505554199 0.0 0.0 0.0 0.0
2.735 0.18561722338199615 0.1531437486410141 -0.36501774191856384 -0.6238978505134583 0.0 0.0 0.0 0.0
2.736 0.18379877507686615 0.1489422619342804 -0.3888063430786133 -0.6086031794548035 0.0 0.0 0.0 0.0
2.737 0.18011385202407837 0.14590992033481598 -0.40899157524108887 -0.5954408049583435 0.0 0.0 0.0 0.0
2.738 0.17761319875717163 0.14380525052547455 -0.4299609959125519 -0.5853960514068604 0.0 0.0 0.0 0.0
2.739 0.17559054493904114 0.139914408326149 -0.4534424841403961 -0.568884551525116 0.0 0.0 0.0 0.0
2.74 0.17221912741661072 0.13622087240219116 -0.47358882427215576 -0.5485767126083374 0.0 0.0 0.0 0.0
2.741 0.1689247190952301 0.13420021533966064 -0.4924555718898773 -0.53602135181427 0.0 0.0 0.0 0.0
2.742 0.1659833788871765 0.1311783790588379 -0.5130441784858704 -0.5179325938224792 0.0 0.0 0.0 0.0
2.743 0.16171833872795105 0.12917953729629517 -0.5275673270225525 -0.5045945048332214 0.0 0.0 0.0 0.0
2.744 0.15834861993789673 0.12623487412929535 -0.5477224588394165 -0.4857543408870697 0.0 0.0 0.0 0.0
2.745 0.1546790599822998 0.12334800511598587 -0.5655517578125 -0.4658024311065674 0.0 0.0 0.0 0.0
2.746 0.1520545780658722 0.12036153674125671 -0.5859391093254089 -0.4445260465145111 0.0 0.0 0.0 0.0
2.747 0.14648938179016113 0.11805166304111481 -0.5993410348892212 -0.42366039752960205 0.0 0.0 0.0 0.0
2.748 0.14220957458019257 0.11649283766746521 -0.6129017472267151 -0.4058602750301361 0.0 0.0 0.0 0.0
2.749 0.13830959796905518 0.1134071871638298 -0.6286836862564087 -0.3806256353855133 0.0 0.0 0.0 0.0
2.75 0.1335916817188263 0.11222574859857559 -0.6419650316238403 -0.36217036843299866 0.0 0.0 0.0 0.0
2.751 0.12916012108325958 0.11029274016618729 -0.6561914682388306 -0.33659178018569946 0.0 0.0 0.0 0.0
2.752 0.12506313621997833 0.10876870155334473 -0.6699221730232239 -0.3160005211830139 0.0 0.0 0.0 0.0
2.753 0.11964702606201172 0.1071324497461319 -0.6780295372009277 -0.291700541973114 0.0 0.0 0.0 0.0
2.754 0.11420582979917526 0.10632874071598053 -0.6881163120269775 -0.26975157856941223 0.0 0.0 0.0 0.0
2.755 0.10897214710712433 0.10551127046346664 -0.6969134211540222 -0.24505934119224548 0.0 0.0 0.0 0.0
2.756 0.104895681142807 0.10357604175806046 -0.707705020904541 -0.21585850417613983 0.0 0.0 0.0 0.0
2.757 0.09866310656070709 0.10367743670940399 -0.7136269211769104 -0.19637437164783478 0.0 0.0 0.0 0.0
2.758 0.09413762390613556 0.10237888246774673 -0.721925675868988 -0.16677114367485046 0.0 0.0 0.0 0.0
2.759 0.08856109529733658 0.10295407474040985 -0.7271593809127808 -0.14512205123901367 0.0 0.0 0.0 0.0
2.76 0.08378634601831436 0.10306155681610107 -0.7330236434936523 -0.1182921901345253 0.0 0.0 0.0 0.0
2.761 0.07796161621809006 0.10268016159534454 -0.7364521622657776 -0.09148164093494415 0.0 0.0 0.0 0.0
2.762 0.07265721261501312 0.10407523065805435 -0.7398121953010559 -0.06679202616214752 0.0 0.0 0.0 0.0
2.763 0.06785234808921814 0.10428397357463837 -0.7420126795768738 -0.040389999747276306 0.0 0.0 0.0 0.0
2.764 0.06271923333406448 0.10593342036008835 -0.7430523633956909 -0.010089467279613018 0.0 0.0 0.0 0.0
2.765 0.056408513337373734 0.10740503668785095 -0.7427623271942139 0.01063897181302309 0.0 0.0 0.0 0.0
2.766 0.05101858079433441 0.1089116781949997 -0.7424727082252502 0.036020539700984955 0.0 0.0 0.0 0.0
2.767 0.046862926334142685 0.11067590117454529 -0.7400985360145569 0.06268257647752762 0.0 0.0 0.0 0.0
2.768 0.041117049753665924 0.11240341514348984 -0.7369712591171265 0.09049370884895325 0.0 0.0 0.0 0.0
2.769 0.03687746077775955 0.1153039038181305 -0.73212069272995 0.12133779376745224 0.0 0.0 0.0 0.0
2.77 0.031385745853185654 0.11661325395107269 -0.7301648855209351 0.13706564903259277 0.0 0.0 0.0 0.0
2.771 0.026928504928946495 0.1200326532125473 -0.7230994701385498 0.1656486839056015 0.0 0.0 0.0 0.0
2.772 0.02237544395029545 0.12302728742361069 -0.7168511748313904 0.192618727684021 0.0 0.0 0.0 0.0
2.773 0.019465776160359383 0.1262664794921875 -0.7070225477218628 0.21733422577381134 0.0 0.0 0.0 0.0
2.774 0.01424576435238123 0.1293717622756958 -0.7008411884307861 0.24029046297073364 0.0 0.0 0.0 0.0
2.775 0.008657405152916908 0.1330985575914383 -0.6938445568084717 0.26349419355392456 0.0 0.0 0.0 0.0
2.776 0.0060574570670723915 0.13644134998321533 -0.6805505156517029 0.2893903851509094 0.0 0.0 0.0 0.0
2.777 0.002329171635210514 0.13954056799411774 -0.6713611483573914 0.31118321418762207 0.0 0.0 0.0 0.0
2.778 -0.0011929050087928772 0.14359652996063232 -0.6578579545021057 0.33423155546188354 0.0 0.0 0.0 0.0
2.779 -0.004385093227028847 0.14786694943904877 -0.6461743116378784 0.35431039333343506 0.0 0.0 0.0 0.0
2.78 -0.006835203617811203 0.15230795741081238 -0.6335315704345703 0.37918514013290405 0.0 0.0 0.0 0.0
2.781 -0.010964469984173775 0.15643180906772614 -0.6206629276275635 0.3988615572452545 0.0 0.0 0.0 0.0
2.782 -0.0126874390989542 0.16297706961631775 -0.6031638979911804 0.4242473542690277 0.0 0.0 0.0 0.0
2.783 -0.015270491130650043 0.16514892876148224 -0.5895649790763855 0.4410473108291626 0.0 0.0 0.0 0.0
2.784 -0.017359942197799683 0.1703871190547943 -0.572798490524292 0.4623238444328308 0.0 0.0 0.0 0.0
2.785 -0.01876359060406685 0.1733509749174118 -0.5541120171546936 0.47907304763793945 0.0 0.0 0.0 0.0
2.786 -0.021677089855074883 0.17924875020980835 -0.5384953022003174 0.4990628957748413 0.0 0.0 0.0 0.0
2.787 -0.022171175107359886 0.183958038687706 -0.5220779180526733 0.514042854309082 0.0 0.0 0.0 0.0
2.788 -0.023425979539752007 0.18994535505771637 -0.5038108229637146 0.5321949124336243 0.0 0.0 0.0 0.0
2.789 -0.024365266785025597 0.19383317232131958 -0.4845772087574005 0.549530565738678 0.0 0.0 0.0 0.0
2.79 -0.026437321677803993 0.19781218469142914 -0.46754807233810425 0.5628771781921387 0.0 0.0 0.0 0.0
2.791 -0.02620246261358261 0.20183780789375305 -0.44766339659690857 0.576336681842804 0.0 0.0 0.0 0.0
2.792 -0.026220161467790604 0.20698311924934387 -0.42767342925071716 0.5909340381622314 0.0 0.0 0.0 0.0
2.793 -0.025799991562962532 0.21246843039989471 -0.4054693281650543 0.6068502068519592 0.0 0.0 0.0 0.0
2.794 -0.026097087189555168 0.2165871411561966 -0.38496607542037964 0.6199898719787598 0.0 0.0 0.0 0.0
2.795 -0.024482185021042824 0.2207014411687851 -0.36207452416419983 0.6324407458305359 0.0 0.0 0.0 0.0
2.796 -0.02379569597542286 0.22586554288864136 -0.3411687910556793 0.6462015509605408 0.0 0.0 0.0 0.0
2.797 -0.026077715680003166 0.23031197488307953 -0.3251969516277313 0.6545420289039612 0.0 0.0 0.0 0.0
2.798 -0.023427657783031464 0.23354041576385498 -0.30111163854599 0.6635134816169739 0.0 0.0 0.0 0.0
2.799 -0.021129854023456573 0.23729278147220612 -0.27544328570365906 0.6721602082252502 0.0 0.0 0.0 0.0
2.8 -0.021815283223986626 0.2426251322031021 -0.2570503354072571 0.6840570569038391 0.0 0.0 0.0 0.0
2.801 -0.019777454435825348 0.24449864029884338 -0.22916875779628754 0.6875990629196167 0.0 0.0 0.0 0.0
2.802 -0.017597705125808716 0.24814291298389435 -0.20988832414150238 0.6934924721717834 0.0 0.0 0.0 0.0
2.803 -0.01489461213350296 0.2538558542728424 -0.18403705954551697 0.7056697010993958 0.0 0.0 0.0 0.0
2.804 -0.014461635611951351 0.25498273968696594 -0.16293933987617493 0.7052065134048462 0.0 0.0 0.0 0.0
2.805 -0.011008938774466515 0.2594553232192993 -0.1361709088087082 0.714860200881958 0.0 0.0 0.0 0.0
2.806 -0.009134560823440552 0.26173511147499084 -0.11534885317087173 0.7154420614242554 0.0 0.0 0.0 0.0
2.807 -0.007255773060023785 0.264766663312912 -0.09375151246786118 0.7198275923728943 0.0 0.0 0.0 0.0
2.808 -0.004441225901246071 0.2672889530658722 -0.06749287992715836 0.7219122052192688 0.0 0.0 0.0 0.0
2.809 -0.0031942781060934067 0.27095696330070496 -0.046748608350753784 0.7271316051483154 0.0 0.0 0.0 0.0
2.81 0.0004414385184645653 0.27148351073265076 -0.021441353484988213 0.7235109210014343 0.0 0.0 0.0 0.0
2.811 0.0036439476534724236 0.27485206723213196 0.0036723269149661064 0.726481020450592 0.0 0.0 0.0 0.0
2.812 0.005815552547574043 0.27559947967529297 0.026865558698773384 0.724245548248291 0.0 0.0 0.0 0.0
2.813 0.00795509573072195 0.2785083055496216 0.04954197630286217 0.7251740097999573 0.0 0.0 0.0 0.0
2.814 0.011027269065380096 0.2798459827899933 0.07273008674383163 0.7232139110565186 0.0 0.0 0.0 0.0
2.815 0.013755991123616695 0.28074949979782104 0.09820661693811417 0.7192046046257019 0.0 0.0 0.0 0.0
2.816 0.015984931960701942 0.28242525458335876 0.12167251110076904 0.7164567112922668 0.0 0.0 0.0 0.0
2.817 0.021023916080594063 0.28412455320358276 0.149097740650177 0.7145426273345947 0.0 0.0 0.0 0.0
2.818 0.022028038278222084 0.2860501706600189 0.1686563789844513 0.7118551731109619 0.0 0.0 0.0 0.0
2.819 0.02544044889509678 0.28547611832618713 0.19452764093875885 0.701539933681488 0.0 0.0 0.0 0.0
2.82 0.02846837230026722 0.2850415110588074 0.21785801649093628 0.6942920684814453 0.0 0.0 0.0 0.0
2.821 0.0316055491566658 0.28841647505760193 0.2412285953760147 0.6944255232810974 0.0 0.0 0.0 0.0
2.822 0.03130767494440079 0.287240207195282 0.2578052580356598 0.6844788193702698 0.0 0.0 0.0 0.0
2.823 0.035979386419057846 0.2871047556400299 0.2844013571739197 0.6733447313308716 0.0 0.0 0.0 0.0
2.824 0.03722897917032242 0.2888849675655365 0.30439284443855286 0.6694453358650208 0.0 0.0 0.0 0.0
2.825 0.04003598913550377 0.2863059639930725 0.32749590277671814 0.6539991497993469 0.0 0.0 0.0 0.0
2.826 0.0404900498688221 0.2878570258617401 0.34482714533805847 0.6472147703170776 0.0 0.0 0.0 0.0
2.827 0.044166892766952515 0.28806063532829285 0.3719594478607178 0.6363206505775452 0.0 0.0 0.0 0.0
2.828 0.04753349348902702 0.28630363941192627 0.3956444561481476 0.6196449995040894 0.0 0.0 0.0 0.0
2.829 0.04808090254664421 0.28469476103782654 0.4123152494430542 0.6072322726249695 0.0 0.0 0.0 0.0
2.83 0.047086991369724274 0.28560587763786316 0.4271751046180725 0.5960613489151001 0.0 0.0 0.0 0.0
2.831 0.05262771621346474 0.2846662104129791 0.4528096914291382 0.5824287533760071 0.0 0.0 0.0 0.0
2.832 0.05559292063117027 0.2837153673171997 0.476303368806839 0.5661987066268921 0.0 0.0 0.0 0.0
2.833 0.05581440031528473 0.28251004219055176 0.49220579862594604 0.5506613254547119 0.0 0.0 0.0 0.0
2.834 0.05679495632648468 0.28204187750816345 0.5095434784889221 0.5372958779335022 0.0 0.0 0.0 0.0
2.835 0.05962162837386131 0.2803887724876404 0.5298685431480408 0.5182701349258423 0.0 0.0 0.0 0.0
2.836 0.059708867222070694 0.278744637966156 0.5452820062637329 0.5000319480895996 0.0 0.0 0.0 0.0
2.837 0.061151761561632156 0.27942463755607605 0.5649394989013672 0.484009325504303 0.0 0.0 0.0 0.0
2.838 0.062269777059555054 0.2783379554748535 0.5818675756454468 0.46552836894989014 0.0 0.0 0.0 0.0
2.839 0.061584584414958954 0.27776601910591125 0.5946975946426392 0.4460327923297882 0.0 0.0 0.0 0.0
2.84 0.06569308787584305 0.2756827473640442 0.6151630878448486 0.4240037500858307 0.0 0.0 0.0 0.0
2.841 0.06497197598218918 0.27493974566459656 0.6278329491615295 0.4058065116405487 0.0 0.0 0.0 0.0
2.842 0.06671318411827087 0.27483701705932617 0.643079936504364 0.38514944911003113 0.0 0.0 0.0 0.0
2.843 0.06673818826675415 0.2735307514667511 0.6568322777748108 0.36197540163993835 0.0 0.0 0.0 0.0
2.844 0.06918694078922272 0.2723918557167053 0.6722933053970337 0.33870232105255127 0.0 0.0 0.0 0.0
2.845 0.06944715231657028 0.2703228294849396 0.6823810338973999 0.3155217170715332 0.0 0.0 0.0 0.0
2.846 0.0675610825419426 0.27072519063949585 0.6918946504592896 0.2966603636741638 0.0 0.0 0.0 0.0
2.847 0.06898833811283112 0.26934120059013367 0.704685389995575 0.2693336009979248 0.0 0.0 0.0 0.0
2.848 0.07075335085391998 0.2680896520614624 0.7149878740310669 0.2462753802537918 0.0 0.0 0.0 0.0
2.849 0.07005783915519714 0.2671496868133545 0.7222169637680054 0.22204215824604034 0.0 0.0 0.0 0.0
2.85 0.06996562331914902 0.26788967847824097 0.7315201759338379 0.19661907851696014 0.0 0.0 0.0 0.0
2.851 0.06882672011852264 0.26763901114463806 0.7374595403671265 0.17237235605716705 0.0 0.0 0.0 0.0
2.852 0.07003439962863922 0.26571640372276306 0.7435294389724731 0.14769862592220306 0.0 0.0 0.0 0.0
2.853 0.0693667083978653 0.2660733163356781 0.7486026883125305 0.12391695380210876 0.0 0.0 0.0 0.0
2.854 0.06802888959646225 0.26500311493873596 0.752939760684967 0.09856826066970825 0.0 0.0 0.0 0.0
2.855 0.07023435831069946 0.26369693875312805 0.7567810416221619 0.0667111948132515 0.0 0.0 0.0 0.0
2.856 0.06992541998624802 0.26407390832901 0.7595489025115967 0.04280087724328041 0.0 0.0 0.0 0.0
2.857 0.06687851995229721 0.265823096036911 0.7607318758964539 0.024595050141215324 0.0 0.0 0.0 0.0
2.858 0.06777562201023102 0.2639114558696747 0.7614762783050537 -0.00971931405365467 0.0 0.0 0.0 0.0
2.859 0.0691816657781601 0.26446232199668884 0.7613697052001953 -0.03623282536864281 0.0 0.0 0.0 0.0
2.86 0.07004960626363754 0.2638316750526428 0.7600363492965698 -0.06431292742490768 0.0 0.0 0.0 0.0
2.861 0.06777267903089523 0.2650598883628845 0.7577099800109863 -0.08835458010435104 0.0 0.0 0.0 0.0
2.862 0.06902806460857391 0.26441261172294617 0.75453782081604 -0.11409752815961838 0.0 0.0 0.0 0.0
2.863 0.06903459876775742 0.26447394490242004 0.7510807514190674 -0.13843435049057007 0.0 0.0 0.0 0.0
2.864 0.06900687515735626 0.2653644382953644 0.7456271648406982 -0.16527831554412842 0.0 0.0 0.0 0.0
2.865 0.06756612658500671 0.26462092995643616 0.7404912114143372 -0.19013375043869019 0.0 0.0 0.0 0.0
2.866 0.06790877878665924 0.26530778408050537 0.7341259717941284 -0.21711429953575134 0.0 0.0 0.0 0.0
2.867 0.07061894237995148 0.2654631733894348 0.7250511646270752 -0.2417624294757843 0.0 0.0 0.0 0.0
2.868 0.0682571679353714 0.26490986347198486 0.7180486917495728 -0.2680577039718628 0.0 0.0 0.0 0.0
2.869 0.07097626477479935 0.26497799158096313 0.7066039443016052 -0.2932727634906769 0.0 0.0 0.0 0.0
2.87 0.07163286954164505 0.26715460419654846 0.6967257857322693 -0.3141331970691681 0.0 0.0 0.0 0.0
2.871 0.07354845851659775 0.266989529132843 0.683196485042572 -0.34064894914627075 0.0 0.0 0.0 0.0
2.872 0.0716095045208931 0.2674635946750641 0.6737790107727051 -0.36411863565444946 0.0 0.0 0.0 0.0
2.873 0.07446807622909546 0.2681373655796051 0.6600151062011719 -0.3856738209724426 0.0 0.0 0.0 0.0
2.874 0.07467100024223328 0.26731589436531067 0.646507740020752 -0.4064246416091919 0.0 0.0 0.0 0.0
2.875 0.0751265287399292 0.26980724930763245 0.6316343545913696 -0.43221887946128845 0.0 0.0 0.0 0.0
2.876 0.07629477977752686 0.2686351537704468 0.6164522171020508 -0.4516569674015045 0.0 0.0 0.0 0.0
2.877 0.07736603170633316 0.26903557777404785 0.6015604734420776 -0.47391384840011597 0.0 0.0 0.0 0.0
2.878 0.07729771733283997 0.27125227451324463 0.586072564125061 -0.49526432156562805 0.0 0.0 0.0 0.0
2.879 0.08062104880809784 0.2693208158016205 0.5637918710708618 -0.5145336985588074 0.0 0.0 0.0 0.0
2.88 0.08246339857578278 0.26922643184661865 0.5458831787109375 -0.5335274338722229 0.0 0.0 0.0 0.0
2.881 0.08266428112983704 0.27013683319091797 0.5306874513626099 -0.5517256855964661 0.0 0.0 0.0 0.0
2.882 0.08409813791513443 0.2702972888946533 0.5098903775215149 -0.5697557926177979 0.0 0.0 0.0 0.0
2.883 0.08757136017084122 0.26961004734039307 0.4873526692390442 -0.5879337191581726 0.0 0.0 0.0 0.0
2.884 0.08825300633907318 0.26877355575561523 0.4687095880508423 -0.5992796421051025 0.0 0.0 0.0 0.0
2.885 0.08971156924962997 0.26877254247665405 0.4473259449005127 -0.6178291440010071 0.0 0.0 0.0 0.0
2.886 0.09028837829828262 0.26915299892425537 0.4290532171726227 -0.6304007172584534 0.0 0.0 0.0 0.0
2.887 0.09270020574331284 0.2692375183105469 0.40628859400749207 -0.6492563486099243 0.0 0.0 0.0 0.0
2.888 0.09526114910840988 0.2677830159664154 0.38330790400505066 -0.6598581075668335 0.0 0.0 0.0 0.0
2.889 0.09587412327528 0.2672102749347687 0.3598876893520355 -0.6728945374488831 0.0 0.0 0.0 0.0
2.89 0.10116761177778244 0.26460492610931396 0.3301423490047455 -0.6864996552467346 0.0 0.0 0.0 0.0
2.891 0.09923356771469116 0.26496073603630066 0.318533718585968 -0.6932726502418518 0.0 0.0 0.0 0.0
2.892 0.09944621473550797 0.2621653378009796 0.29598209261894226 -0.7007296681404114 0.0 0.0 0.0 0.0
2.893 0.10366570204496384 0.26151490211486816 0.26759716868400574 -0.7112893462181091 0.0 0.0 0.0 0.0
2.894 0.10507242381572723 0.2609916925430298 0.24292123317718506 -0.722255289554596 0.0 0.0 0.0 0.0
2.895 0.10615237057209015 0.2596408724784851 0.21809111535549164 -0.7308751940727234 0.0 0.0 0.0 0.0
2.896 0.10927961766719818 0.2588055729866028 0.1893097162246704 -0.7414012551307678 0.0 0.0 0.0 0.0
2.897 0.11095539480447769 0.25634273886680603 0.16831748187541962 -0.7447001934051514 0.0 0.0 0.0 0.0
2.898 0.11272058635950089 0.2528706192970276 0.13998465240001678 -0.7478817105293274 0.0 0.0 0.0 0.0
2.899 0.11462870985269547 0.2508062720298767 0.11421594023704529 -0.7515192627906799 0.0 0.0 0.0 0.0
2.9 0.11566884070634842 0.2486812025308609 0.09139947593212128 -0.7554183006286621 0.0 0.0 0.0 0.0
2.901 0.11754333972930908 0.24675841629505157 0.061982717365026474 -0.7592663764953613 0.0 0.0 0.0 0.0
2.902 0.11814209818840027 0.244583398103714 0.0359765850007534 -0.7622342109680176 0.0 0.0 0.0 0.0
2.903 0.11922300606966019 0.24184642732143402 0.010817106813192368 -0.7628881931304932 0.0 0.0 0.0 0.0
2.904 0.12090063095092773 0.23912747204303741 -0.013809393160045147 -0.7626615762710571 0.0 0.0 0.0 0.0
2.905 0.11985190957784653 0.23626060783863068 -0.035515230149030685 -0.7614457011222839 0.0 0.0 0.0 0.0
2.906 0.12257254868745804 0.233489990234375 -0.06637603789567947 -0.761037290096283 0.0 0.0 0.0 0.0
2.907 0.12237069010734558 0.23026281595230103 -0.08842124044895172 -0.7580798268318176 0.0 0.0 0.0 0.0
2.908 0.12280319631099701 0.22698266804218292 -0.11615636199712753 -0.7525210380554199 0.0 0.0 0.0 0.0
2.909 0.12295463681221008 0.2239493876695633 -0.1402105838060379 -0.7488510012626648 0.0 0.0 0.0 0.0
2.91 0.12407948821783066 0.22132608294487 -0.16883009672164917 -0.7466892004013062 0.0 0.0 0.0 0.0
2.911 0.12371038645505905 0.21671919524669647 -0.1937507539987564 -0.7359758019447327 0.0 0.0 0.0 0.0
2.912 0.12310651689767838 0.2149731069803238 -0.2182021290063858 -0.7327616214752197 0.0 0.0 0.0 0.0
2.913 0.12456926703453064 0.2089853584766388 -0.2467990666627884 -0.7195684313774109 0.0 0.0 0.0 0.0
2.914 0.12320006638765335 0.2062186300754547 -0.26795366406440735 -0.7129122018814087 0.0 0.0 0.0 0.0
2.915 0.12158607691526413 0.20340313017368317 -0.2923039197921753 -0.704439640045166 0.0 0.0 0.0 0.0
2.916 0.12225359678268433 0.20046481490135193 -0.3205071687698364 -0.6967042088508606 0.0 0.0 0.0 0.0
2.917 0.11905424296855927 0.19751782715320587 -0.33499830961227417 -0.6875024437904358 0.0 0.0 0.0 0.0
2.918 0.1187506690621376 0.19334229826927185 -0.36236464977264404 -0.6727173328399658 0.0 0.0 0.0 0.0
2.919 0.11676285415887833 0.18962779641151428 -0.3910174071788788 -0.6559208035469055 0.0 0.0 0.0 0.0
2.92 0.11628352105617523 0.1867300570011139 -0.41166624426841736 -0.6460673809051514 0.0 0.0 0.0 0.0
2.921 0.11358800530433655 0.1828181892633438 -0.4298606216907501 -0.6290019154548645 0.0 0.0 0.0 0.0
2.922 0.11031326651573181 0.18003526329994202 -0.4500980079174042 -0.6148341298103333 0.0 0.0 0.0 0.0
2.923 0.10877477377653122 0.17659805715084076 -0.47333312034606934 -0.5980939269065857 0.0 0.0 0.0 0.0
2.924 0.10652631521224976 0.1741955429315567 -0.4918302595615387 -0.5841166377067566 0.0 0.0 0.0 0.0
2.925 0.10354949533939362 0.17063996195793152 -0.5113145112991333 -0.5647785067558289 0.0 0.0 0.0 0.0
2.926 0.10094298422336578 0.16751821339130402 -0.5332040190696716 -0.5450122952461243 0.0 0.0 0.0 0.0
2.927 0.0978677049279213 0.16599148511886597 -0.5512987375259399 -0.5281705260276794 0.0 0.0 0.0 0.0
2.928 0.09533986449241638 0.1632709950208664 -0.5691325068473816 -0.5097137689590454 0.0 0.0 0.0 0.0
2.929 0.0907081812620163 0.16153229773044586 -0.5841995477676392 -0.4883063733577728 0.0 0.0 0.0 0.0
2.93 0.08771537244319916 0.15908916294574738 -0.6015720367431641 -0.46886560320854187 0.0 0.0 0.0 0.0
2.931 0.08474843204021454 0.15707363188266754 -0.6182072758674622 -0.44735097885131836 0.0 0.0 0.0 0.0
2.932 0.08114992082118988 0.1543552577495575 -0.6314998269081116 -0.4250023066997528 0.0 0.0 0.0 0.0
2.933 0.07704105973243713 0.15388227999210358 -0.6455312967300415 -0.40412637591362 0.0 0.0 0.0 0.0
2.934 0.07342787086963654 0.1523631066083908 -0.6613612771034241 -0.37931257486343384 0.0 0.0 0.0 0.0
2.935 0.069777712225914 0.1506280153989792 -0.6735143065452576 -0.3526673913002014 0.0 0.0 0.0 0.0
2.936 0.06582225114107132 0.15003620088100433 -0.684151828289032 -0.3330589234828949 0.0 0.0 0.0 0.0
2.937 0.061252299696207047 0.14927025139331818 -0.6945008635520935 -0.30878910422325134 0.0 0.0 0.0 0.0
2.938 0.05750242993235588 0.14877474308013916 -0.7044842839241028 -0.28333818912506104 0.0 0.0 0.0 0.0
2.939 0.05409292131662369 0.1480010449886322 -0.7138758301734924 -0.25840431451797485 0.0 0.0 0.0 0.0
2.94 0.04879157245159149 0.14903120696544647 -0.72029709815979 -0.23471549153327942 0.0 0.0 0.0 0.0
2.941 0.04455883800983429 0.1482684463262558 -0.7272047400474548 -0.21061348915100098 0.0 0.0 0.0 0.0
2.942 0.040909361094236374 0.1487046182155609 -0.7338998913764954 -0.18291938304901123 0.0 0.0 0.0 0.0
2.943 0.03733855485916138 0.14934255182743073 -0.7396101951599121 -0.1589166224002838 0.0 0.0 0.0 0.0
2.944 0.03339892998337746 0.15017971396446228 -0.7436555624008179 -0.1332765817642212 0.0 0.0 0.0 0.0
2.945 0.02923985756933689 0.15161250531673431 -0.7467696070671082 -0.10472211986780167 0.0 0.0 0.0 0.0
2.946 0.02413361705839634 0.15307927131652832 -0.74852454662323 -0.0839306116104126 0.0 0.0 0.0 0.0
2.947 0.022406676784157753 0.15337301790714264 -0.7505901455879211 -0.05208703875541687 0.0 0.0 0.0 0.0
2.948 0.017934737727046013 0.1557740420103073 -0.7512339949607849 -0.030197180807590485 0.0 0.0 0.0 0.0
2.949 0.012895484454929829 0.15741553902626038 -0.7502303719520569 -0.0054608723148703575 0.0 0.0 0.0 0.0
2.95 0.009812640957534313 0.1596570611000061 -0.7491177916526794 0.024239005520939827 0.0 0.0 0.0 0.0
2.951 0.007301946170628071 0.16169366240501404 -0.7468848824501038 0.04908798262476921 0.0 0.0 0.0 0.0
2.952 0.003247195854783058 0.1637992262840271 -0.7442602515220642 0.06969116628170013 0.0 0.0 0.0 0.0
2.953 0.0010598162189126015 0.16594544053077698 -0.7398571372032166 0.09820055216550827 0.0 0.0 0.0 0.0
2.954 -0.0015902230516076088 0.1690964698791504 -0.7353770136833191 0.12454826384782791 0.0 0.0 0.0 0.0
2.955 -0.004833817481994629 0.17180682718753815 -0.7300199866294861 0.14623388648033142 0.0 0.0 0.0 0.0
2.956 -0.00748796109110117 0.17506206035614014 -0.7221498489379883 0.17487165331840515 0.0 0.0 0.0 0.0
2.957 -0.010096483863890171 0.1775253415107727 -0.7155759930610657 0.19496716558933258 0.0 0.0 0.0 0.0
2.958 -0.012296549044549465 0.1807289570569992 -0.7073940634727478 0.21979132294654846 0.0 0.0 0.0 0.0
2.959 -0.014441074803471565 0.1838255226612091 -0.699446976184845 0.24308715760707855 0.0 0.0 0.0 0.0
2.96 -0.016553863883018494 0.1873171329498291 -0.6901420950889587 0.26501065492630005 0.0 0.0 0.0 0.0
2.961 -0.01771203987300396 0.19027811288833618 -0.677724301815033 0.28952309489250183 0.0 0.0 0.0 0.0
2.962 -0.018330663442611694 0.19292332231998444 -0.666333019733429 0.3120766282081604 0.0 0.0 0.0 0.0
2.963 -0.020746422931551933 0.19749152660369873 -0.6567419171333313 0.3313983678817749 0.0 0.0 0.0 0.0
2.964 -0.022461215034127235 0.20216737687587738 -0.6435377597808838 0.35823649168014526 0.0 0.0 0.0 0.0
2.965 -0.02244851551949978 0.2037649303674698 -0.6319202780723572 0.37244582176208496 0.0 0.0 0.0 0.0
2.966 -0.02201838046312332 0.20767225325107574 -0.6162394285202026 0.394503116607666 0.0 0.0 0.0 0.0
2.967 -0.02368868514895439 0.21087786555290222 -0.604019284248352 0.4127281606197357 0.0 0.0 0.0 0.0
2.968 -0.024116113781929016 0.21384571492671967 -0.5875349044799805 0.43247607350349426 0.0 0.0 0.0 0.0
2.969 -0.02357524260878563 0.2174612581729889 -0.5740453004837036 0.45128965377807617 0.0 0.0 0.0 0.0
2.97 -0.0227695032954216 0.22131755948066711 -0.5557202696800232 0.47063517570495605 0.0 0.0 0.0 0.0
2.971 -0.023457735776901245 0.22438733279705048 -0.5411734580993652 0.48726022243499756 0.0 0.0 0.0 0.0
2.972 -0.02207423374056816 0.22792670130729675 -0.5209519863128662 0.5068983435630798 0.0 0.0 0.0 0.0
2.973 -0.021161872893571854 0.2311524897813797 -0.5057476758956909 0.5220946073532104 0.0 0.0 0.0 0.0
2.974 -0.021047299727797508 0.23228414356708527 -0.48769062757492065 0.5342081785202026 0.0 0.0 0.0 0.0
2.975 -0.020805425941944122 0.2363475263118744 -0.46983635425567627 0.5505395531654358 0.0 0.0 0.0 0.0
2.976 -0.017477476969361305 0.23960912227630615 -0.4487377405166626 0.5677791833877563 0.0 0.0 0.0 0.0
2.977 -0.017251092940568924 0.24292829632759094 -0.4302893877029419 0.5834383964538574 0.0 0.0 0.0 0.0
2.978 -0.015658393502235413 0.24451585114002228 -0.40737298130989075 0.5957809686660767 0.0 0.0 0.0 0.0
2.979 -0.013824805617332458 0.2466830313205719 -0.38852667808532715 0.6071704030036926 0.0 0.0 0.0 0.0
2.98 -0.012185906991362572 0.24964356422424316 -0.3697328269481659 0.6205939054489136 0.0 0.0 0.0 0.0
2.981 -0.010514242574572563 0.25132617354393005 -0.3497031331062317 0.6295285224914551 0.0 0.0 0.0 0.0
2.982 -0.009674065746366978 0.25394803285598755 -0.32848280668258667 0.6409263610839844 0.0 0.0 0.0 0.0
2.983 -0.007439887151122093 0.2560005784034729 -0.306353896856308 0.6524152755737305 0.0 0.0 0.0 0.0
2.984 -0.004001423716545105 0.25699326395988464 -0.2824714481830597 0.6601574420928955 0.0 0.0 0.0 0.0
2.985 -0.002897195518016815 0.2586418390274048 -0.26216238737106323 0.6680657267570496 0.0 0.0 0.0 0.0
2.986 -0.0023228665813803673 0.260245680809021 -0.24451397359371185 0.6751216053962708 0.0 0.0 0.0 0.0
2.987 0.0028011146932840347 0.26126208901405334 -0.21515703201293945 0.6846015453338623 0.0 0.0 0.0 0.0
2.988 0.00288466177880764 0.2637217938899994 -0.19891494512557983 0.6932562589645386 0.0 0.0 0.0 0.0
2.989 0.005244305357336998 0.26290398836135864 -0.17350414395332336 0.6958292722702026 0.0 0.0 0.0 0.0
2.99 0.008929142728447914 0.2633238732814789 -0.1473141610622406 0.7002975940704346 0.0 0.0 0.0 0.0
2.991 0.010688245296478271 0.2639584541320801 -0.12574975192546844 0.7034569978713989 0.0 0.0 0.0 0.0
2.992 0.013097120448946953 0.26568666100502014 -0.10172810405492783 0.7098473310470581 0.0 0.0 0.0 0.0
2.993 0.015519059263169765 0.26457035541534424 -0.07616139203310013 0.7099928855895996 0.0 0.0 0.0 0.0
2.994 0.01707576774060726 0.26562196016311646 -0.05236801505088806 0.7143069505691528 0.0 0.0 0.0 0.0
2.995 0.019771507009863853 0.2659395635128021 -0.032119132578372955 0.7163042426109314 0.0 0.0 0.0 0.0
2.996 0.021364260464906693 0.26489171385765076 -0.007848955690860748 0.7143961787223816 0.0 0.0 0.0 0.0
2.997 0.022092167288064957 0.265358030796051 0.014659175649285316 0.7147733569145203 0.0 0.0 0.0 0.0
2.998 0.025240646675229073 0.264326274394989 0.04091941565275192 0.7128313183784485 0.0 0.0 0.0 0.0
2.999 0.027250951156020164 0.26418712735176086 0.06222154572606087 0.7119314670562744 0.0 0.0 0.0 0.0
3.0 0.02793167158961296 0.2635582685470581 0.08459274470806122 0.7088901400566101 0.0 0.0 0.0 0.0
3.001 0.030295301228761673 0.2625029981136322 0.11078085750341415 0.7053871750831604 0.0 0.0 0.0 0.0
3.002 0.03281865268945694 0.26241448521614075 0.13434171676635742 0.7020975947380066 0.0 0.0 0.0 0.0
3.003 0.03310064971446991 0.26124826073646545 0.15766382217407227 0.6962759494781494 0.0 0.0 0.0 0.0
3.004 0.035404231399297714 0.26029375195503235 0.1847238838672638 0.6895352005958557 0.0 0.0 0.0 0.0
3.005 0.03724535554647446 0.25951895117759705 0.20616380870342255 0.6851451396942139 0.0 0.0 0.0 0.0
3.006 0.03814541548490524 0.2581523060798645 0.22877556085586548 0.6776232719421387 0.0 0.0 0.0 0.0
3.007 0.038266874849796295 0.25759953260421753 0.2504063844680786 0.6697876453399658 0.0 0.0 0.0 0.0
3.008 0.039087314158678055 0.2561107873916626 0.2710185647010803 0.6611071825027466 0.0 0.0 0.0 0.0
3.009 0.039648428559303284 0.2552620470523834 0.2918718457221985 0.6526395678520203 0.0 0.0 0.0 0.0
3.01 0.03876229003071785 0.25319764018058777 0.3101167380809784 0.6405066251754761 0.0 0.0 0.0 0.0
3.011 0.04007893055677414 0.2516476511955261 0.3351174592971802 0.6289178729057312 0.0 0.0 0.0 0.0
3.012 0.04257809743285179 0.25192204117774963 0.35942280292510986 0.6213110089302063 0.0 0.0 0.0 0.0
3.013 0.042564280331134796 0.24970237910747528 0.3794102370738983 0.6056413054466248 0.0 0.0 0.0 0.0
3.014 0.04170567914843559 0.24805092811584473 0.39811429381370544 0.5907862782478333 0.0 0.0 0.0 0.0
3.015 0.043637413531541824 0.24650035798549652 0.41929197311401367 0.5765555500984192 0.0 0.0 0.0 0.0
3.016 0.04288964346051216 0.24418291449546814 0.43771040439605713 0.5599201321601868 0.0 0.0 0.0 0.0
3.017 0.04161464050412178 0.24441403150558472 0.45530930161476135 0.5483524799346924 0.0 0.0 0.0 0.0
3.018 0.04109765961766243 0.24298927187919617 0.47277671098709106 0.5312482714653015 0.0 0.0 0.0 0.0
3.019 0.039518970996141434 0.2421647608280182 0.4885413646697998 0.515113890171051 0.0 0.0 0.0 0.0
3.02 0.040074847638607025 0.2414916753768921 0.5100482106208801 0.495322048664093 0.0 0.0 0.0 0.0
3.021 0.03913433477282524 0.2402239739894867 0.5252985954284668 0.4780607521533966 0.0 0.0 0.0 0.0
3.022 0.03815464302897453 0.23948702216148376 0.5376366376876831 0.46002596616744995 0.0 0.0 0.0 0.0
3.023 0.03846222162246704 0.23897060751914978 0.5554004311561584 0.4409291446208954 0.0 0.0 0.0 0.0
3.024 0.03627020865678787 0.23912642896175385 0.5667667388916016 0.42503395676612854 0.0 0.0 0.0 0.0
3.025 0.036033131182193756 0.2384164035320282 0.583490252494812 0.4032558500766754 0.0 0.0 0.0 0.0
3.026 0.035605840384960175 0.23751300573349 0.5946267247200012 0.3839220702648163 0.0 0.0 0.0 0.0
3.027 0.03482268378138542 0.23670175671577454 0.607802152633667 0.36046451330184937 0.0 0.0 0.0 0.0
3.028 0.03354992717504501 0.236413836479187 0.6185365319252014 0.3402503728866577 0.0 0.0 0.0 0.0
3.029 0.03142706677317619 0.23707304894924164 0.6288047432899475 0.3185979127883911 0.0 0.0 0.0 0.0
3.03 0.030941670760512352 0.23720356822013855 0.638961136341095 0.29676249623298645 0.0 0.0 0.0 0.0
3.031 0.03080904297530651 0.2381383776664734 0.647295355796814 0.2754540741443634 0.0 0.0 0.0 0.0
3.032 0.028420960530638695 0.23728902637958527 0.6552569270133972 0.2521205544471741 0.0 0.0 0.0 0.0
3.033 0.02824069745838642 0.23823182284832 0.6638913750648499 0.22650101780891418 0.0 0.0 0.0 0.0
3.034 0.027191799134016037 0.23820210993289948 0.669396162033081 0.20709069073200226 0.0 0.0 0.0 0.0
3.035 0.02632433921098709 0.23958083987236023 0.675334095954895 0.18285799026489258 0.0 0.0 0.0 0.0
3.036 0.025595569983124733 0.23852866888046265 0.6799408793449402 0.15604168176651 0.0 0.0 0.0 0.0
3.037 0.024415859952569008 0.24043093621730804 0.6841671466827393 0.13718858361244202 0.0 0.0 0.0 0.0
3.038 0.023620516061782837 0.24215653538703918 0.6871066093444824 0.11259939521551132 0.0 0.0 0.0 0.0
3.039 0.02351244166493416 0.24300117790699005 0.6896693110466003 0.08844437450170517 0.0 0.0 0.0 0.0
3.04 0.021146884188055992 0.24465592205524445 0.6903668642044067 0.06735602021217346 0.0 0.0 0.0 0.0
3.041 0.02124045044183731 0.24538692831993103 0.6911375522613525 0.0422198623418808 0.0 0.0 0.0 0.0
3.042 0.020624440163373947 0.24710406363010406 0.6909940242767334 0.019941579550504684 0.0 0.0 0.0 0.0
3.043 0.020039036870002747 0.24872756004333496 0.6898121237754822 -0.0026654982939362526 0.0 0.0 0.0 0.0
3.044 0.02060249075293541 0.2498146891593933 0.6882467865943909 -0.027755754068493843 0.0 0.0 0.0 0.0
3.045 0.01910918578505516 0.2513674199581146 0.6854507923126221 -0.04912707582116127 0.0 0.0 0.0 0.0
3.046 0.02039063349366188 0.25281786918640137 0.6818848848342896 -0.07404801994562149 0.0 0.0 0.0 0.0
3.047 0.021765951067209244 0.25453829765319824 0.6783502697944641 -0.09526019543409348 0.0 0.0 0.0 0.0
3.048 0.020219534635543823 0.25613152980804443 0.6733587384223938 -0.11647920310497284 0.0 0.0 0.0 0.0
3.049 0.02143503539264202 0.2569912075996399 0.6669315695762634 -0.14229583740234375 0.0 0.0 0.0 0.0
3.05 0.022007212042808533 0.2589475214481354 0.6607738137245178 -0.1624496728181839 0.0 0.0 0.0 0.0
3.051 0.021562600508332253 0.2612880766391754 0.654537558555603 -0.18137067556381226 0.0 0.0 0.0 0.0
3.052 0.023500237613916397 0.26216018199920654 0.6462423801422119 -0.20447851717472076 0.0 0.0 0.0 0.0
3.053 0.022682882845401764 0.26508432626724243 0.6386876702308655 -0.22494567930698395 0.0 0.0 0.0 0.0
3.054 0.026907918974757195 0.26560425758361816 0.6270030736923218 -0.24911466240882874 0.0 0.0 0.0 0.0
3.055 0.02606010250747204 0.26831740140914917 0.6196146607398987 -0.26531174778938293 0.0 0.0 0.0 0.0
3.056 0.027079053223133087 0.26942160725593567 0.6099171042442322 -0.2826821804046631 0.0 0.0 0.0 0.0
3.057 0.02898222953081131 0.271456778049469 0.597801685333252 -0.30675452947616577 0.0 0.0 0.0 0.0
3.058 0.03076624684035778 0.2714443504810333 0.587531328201294 -0.32228559255599976 0.0 0.0 0.0 0.0
3.059 0.0316622331738472 0.2742382884025574 0.5738138556480408 -0.343796968460083 0.0 0.0 0.0 0.0
3.06 0.03298726677894592 0.2741602957248688 0.5626641511917114 -0.35816460847854614 0.0 0.0 0.0 0.0
3.061 0.03524359315633774 0.2759762704372406 0.5478270649909973 -0.3798852264881134 0.0 0.0 0.0 0.0
3.062 0.037928175181150436 0.2771478593349457 0.5359079837799072 -0.39267420768737793 0.0 0.0 0.0 0.0
3.063 0.04013775289058685 0.27849090099334717 0.5203863382339478 -0.41095373034477234 0.0 0.0 0.0 0.0
3.064 0.04122648388147354 0.2792030870914459 0.5068943500518799 -0.42609259486198425 0.0 0.0 0.0 0.0
3.065 0.04433269053697586 0.2796940207481384 0.4914262294769287 -0.4409588575363159 0.0 0.0 0.0 0.0
3.066 0.04766317829489708 0.280914843082428 0.47589653730392456 -0.45661717653274536 0.0 0.0 0.0 0.0
3.067 0.0493527427315712 0.28156352043151855 0.4604378044605255 -0.4708341956138611 0.0 0.0 0.0 0.0
3.068 0.0509103499352932 0.281074583530426 0.445228636264801 -0.4830048978328705 0.0 0.0 0.0 0.0
3.069 0.05342527851462364 0.28172972798347473 0.42901623249053955 -0.4966457784175873 0.0 0.0 0.0 0.0
3.07 0.05551609396934509 0.2826542854309082 0.4131805896759033 -0.5117512941360474 0.0 0.0 0.0 0.0
3.071 0.05937173217535019 0.2817182242870331 0.39365631341934204 -0.5210060477256775 0.0 0.0 0.0 0.0
3.072 0.06132948026061058 0.282254159450531 0.3763740360736847 -0.5335279703140259 0.0 0.0 0.0 0.0
3.073 0.06395106762647629 0.2809934914112091 0.35778993368148804 -0.5440548658370972 0.0 0.0 0.0 0.0
3.074 0.06859467923641205 0.28009775280952454 0.33813124895095825 -0.5546614527702332 0.0 0.0 0.0 0.0
3.075 0.07112943381071091 0.2797812223434448 0.31803426146507263 -0.5657031536102295 0.0 0.0 0.0 0.0
3.076 0.07333080470561981 0.27979421615600586 0.2995167672634125 -0.5754808187484741 0.0 0.0 0.0 0.0
3.077 0.07438167184591293 0.2784399390220642 0.28399857878685 -0.5815907716751099 0.0 0.0 0.0 0.0
3.078 0.07804431766271591 0.277226984500885 0.2622129023075104 -0.591184675693512 0.0 0.0 0.0 0.0
3.079 0.08130016922950745 0.2763637602329254 0.24045278131961823 -0.5994741916656494 0.0 0.0 0.0 0.0
3.08 0.08231829851865768 0.27453935146331787 0.225460022687912 -0.6031699180603027 0.0 0.0 0.0 0.0
3.081 0.08513445407152176 0.27294060587882996 0.20482562482357025 -0.609836220741272 0.0 0.0 0.0 0.0
3.082 0.08840686082839966 0.27133214473724365 0.18333984911441803 -0.6160635948181152 0.0 0.0 0.0 0.0
3.083 0.09016385674476624 0.2700391113758087 0.1651080995798111 -0.620695948600769 0.0 0.0 0.0 0.0
3.084 0.09229641407728195 0.2682506740093231 0.14284154772758484 -0.6247537136077881 0.0 0.0 0.0 0.0
3.085 0.09302709251642227 0.26634520292282104 0.12620390951633453 -0.6277340650558472 0.0 0.0 0.0 0.0
3.086 0.09685660898685455 0.26280730962753296 0.10540186613798141 -0.6299896240234375 0.0 0.0 0.0 0.0
3.087 0.09746085852384567 0.261665940284729 0.08644521236419678 -0.6330331563949585 0.0 0.0 0.0 0.0
3.088 0.0981706827878952 0.25919049978256226 0.0658521056175232 -0.63400799036026 0.0 0.0 0.0 0.0
3.089 0.1007256880402565 0.256575345993042 0.04580431804060936 -0.6362163424491882 0.0 0.0 0.0 0.0
3.09 0.10357353836297989 0.25447264313697815 0.023111939430236816 -0.637984037399292 0.0 0.0 0.0 0.0
3.091 0.104377880692482 0.2523808479309082 0.002354128286242485 -0.6377630829811096 0.0 0.0 0.0 0.0
3.092 0.10447362065315247 0.24949030578136444 -0.015026372857391834 -0.6355364918708801 0.0 0.0 0.0 0.0
3.093 0.10717793554067612 0.24613340198993683 -0.03809501603245735 -0.6335455775260925 0.0 0.0 0.0 0.0
3.094 0.10806373506784439 0.24354010820388794 -0.05620346963405609 -0.6319156289100647 0.0 0.0 0.0 0.0
3.095 0.1080479621887207 0.24122416973114014 -0.07826506346464157 -0.6291536688804626 0.0 0.0 0.0 0.0
3.096 0.10795174539089203 0.23843568563461304 -0.09704863280057907 -0.625613808631897 0.0 0.0 0.0 0.0
3.097 0.11007177829742432 0.2349802851676941 -0.11741262674331665 -0.620911717414856 0.0 0.0 0.0 0.0
3.098 0.11003744602203369 0.23229607939720154 -0.1372474581003189 -0.6162614822387695 0.0 0.0 0.0 0.0
3.099 0.10929016768932343 0.23003077507019043 -0.15599824488162994 -0.6117112636566162 0.0 0.0 0.0 0.0
3.1 0.110166035592556 0.22678321599960327 -0.17672380805015564 -0.605659544467926 0.0 0.0 0.0 0.0
3.101 0.10950865596532822 0.22450491786003113 -0.19412510097026825 -0.6007540822029114 0.0 0.0 0.0 0.0
3.102 0.10893234610557556 0.2212505340576172 -0.21264490485191345 -0.5920359492301941 0.0 0.0 0.0 0.0
3.103 0.10890786349773407 0.21874171495437622 -0.23148852586746216 -0.5849522352218628 0.0 0.0 0.0 0.0
3.104 0.10808279365301132 0.21582163870334625 -0.2517421543598175 -0.5753446817398071 0.0 0.0 0.0 0.0
3.105 0.10827188193798065 0.2133786529302597 -0.26952633261680603 -0.5668027400970459 0.0 0.0 0.0 0.0
3.106 0.1080859899520874 0.2104473114013672 -0.2891930043697357 -0.556077241897583 0.0 0.0 0.0 0.0
3.107 0.10595254600048065 0.2086653858423233 -0.30526313185691833 -0.5468403697013855 0.0 0.0 0.0 0.0
3.108 0.10355740785598755 0.20756125450134277 -0.3162396550178528 -0.5406734943389893 0.0 0.0 0.0 0.0
3.109 0.1040785014629364 0.20463192462921143 -0.3389394283294678 -0.5263073444366455 0.0 0.0 0.0 0.0
3.11 0.1030534878373146 0.2022026926279068 -0.3554740250110626 -0.5143330097198486 0.0 0.0 0.0 0.0
3.111 0.10115620493888855 0.20019221305847168 -0.3698424994945526 -0.5019607543945312 0.0 0.0 0.0 0.0
3.112 0.10119675099849701 0.1979636400938034 -0.3881530165672302 -0.48730963468551636 0.0 0.0 0.0 0.0
3.113 0.09777405858039856 0.1969916671514511 -0.40039804577827454 -0.4765138328075409 0.0 0.0 0.0 0.0
3.114 0.09698295593261719 0.19532178342342377 -0.41513630747795105 -0.46360403299331665 0.0 0.0 0.0 0.0
3.115 0.09631796181201935 0.19340769946575165 -0.431988388299942 -0.44658562541007996 0.0 0.0 0.0 0.0
3.116 0.09388217329978943 0.1927628219127655 -0.443995863199234 -0.4343765079975128 0.0 0.0 0.0 0.0
3.117 0.09143257141113281 0.19145065546035767 -0.4551202356815338 -0.42125603556632996 0.0 0.0 0.0 0.0
3.118 0.09087395668029785 0.18986596167087555 -0.4695146381855011 -0.4039451479911804 0.0 0.0 0.0 0.0
3.119 0.08931504189968109 0.18959055840969086 -0.4826410114765167 -0.38815513253211975 0.0 0.0 0.0 0.0
3.12 0.0866522416472435 0.18872974812984467 -0.4930800497531891 -0.3710666298866272 0.0 0.0 0.0 0.0
3.121 0.08529365807771683 0.18775136768817902 -0.5042125582695007 -0.3548702299594879 0.0 0.0 0.0 0.0
3.122 0.08419006317853928 0.1875917762517929 -0.5168739557266235 -0.33632320165634155 0.0 0.0 0.0 0.0
3.123 0.08242498338222504 0.18727752566337585 -0.5253872275352478 -0.3217991888523102 0.0 0.0 0.0 0.0
3.124 0.08023544400930405 0.18662798404693604 -0.5339310169219971 -0.30537286400794983 0.0 0.0 0.0 0.0
3.125 0.07924295961856842 0.18669959902763367 -0.5429043173789978 -0.2874293923377991 0.0 0.0 0.0 0.0
3.126 0.07793925702571869 0.18637000024318695 -0.5516788363456726 -0.2695785462856293 0.0 0.0 0.0 0.0
3.127 0.07612652331590652 0.18666905164718628 -0.5583963394165039 -0.25152724981307983 0.0 0.0 0.0 0.0
3.128 0.07427182048559189 0.18728022277355194 -0.5663529634475708 -0.23312851786613464 0.0 0.0 0.0 0.0
3.129 0.07371801882982254 0.18757613003253937 -0.5718508362770081 -0.21642258763313293 0.0 0.0 0.0 0.0
3.13 0.07231420278549194 0.18780434131622314 -0.577968955039978 -0.19568544626235962 0.0 0.0 0.0 0.0
3.131 0.07129570841789246 0.18854278326034546 -0.5833991169929504 -0.1778441220521927 0.0 0.0 0.0 0.0
3.132 0.07145041972398758 0.1881791353225708 -0.5890722870826721 -0.15697725117206573 0.0 0.0 0.0 0.0
3.133 0.07026393711566925 0.18896330893039703 -0.5921271443367004 -0.13760152459144592 0.0 0.0 0.0 0.0
3.134 0.0687909796833992 0.190456360578537 -0.595171332359314 -0.12097368389368057 0.0 0.0 0.0 0.0
3.135 0.06832826137542725 0.19093525409698486 -0.5984020233154297 -0.10010293871164322 0.0 0.0 0.0 0.0
3.136 0.06856942921876907 0.1918758600950241 -0.6007943153381348 -0.08108839392662048 0.0 0.0 0.0 0.0
3.137 0.06739258766174316 0.19285158812999725 -0.6017886996269226 -0.06443829089403152 0.0 0.0 0.0 0.0
3.138 0.06673438102006912 0.19406868517398834 -0.6022318601608276 -0.04413444921374321 0.0 0.0 0.0 0.0
3.139 0.0669143795967102 0.1944075971841812 -0.6026999950408936 -0.023087238892912865 0.0 0.0 0.0 0.0
3.14 0.06775302439928055 0.1956801563501358 -0.6029347777366638 -0.0067591676488518715 0.0 0.0 0.0 0.0
3.141 0.06752234697341919 0.19689194858074188 -0.6017183065414429 0.013306290842592716 0.0 0.0 0.0 0.0
3.142 0.06770854443311691 0.19689594209194183 -0.600400984287262 0.03136557713150978 0.0 0.0 0.0 0.0
3.143 0.06842910498380661 0.1981116086244583 -0.5981733798980713 0.05100879445672035 0.0 0.0 0.0 0.0
3.144 0.06849322468042374 0.19927990436553955 -0.5963730812072754 0.06880469620227814 0.0 0.0 0.0 0.0
3.145 0.06975249201059341 0.19954702258110046 -0.5925233364105225 0.08791153877973557 0.0 0.0 0.0 0.0
3.146 0.0703297033905983 0.20025548338890076 -0.5888849496841431 0.10626310110092163 0.0 0.0 0.0 0.0
3.147 0.07205784320831299 0.20070235431194305 -0.5847387909889221 0.12510521709918976 0.0 0.0 0.0 0.0
3.148 0.0724228248000145 0.20117667317390442 -0.5802086591720581 0.14106035232543945 0.0 0.0 0.0 0.0
3.149 0.07420533150434494 0.20141181349754333 -0.574605405330658 0.15872099995613098 0.0 0.0 0.0 0.0
3.15 0.07603292912244797 0.20178082585334778 -0.567609429359436 0.1812627762556076 0.0 0.0 0.0 0.0
3.151 0.07683622092008591 0.20179738104343414 -0.5624784827232361 0.195196732878685 0.0 0.0 0.0 0.0
3.152 0.07764303684234619 0.20226038992404938 -0.5561894178390503 0.21034352481365204 0.0 0.0 0.0 0.0
3.153 0.07945232838392258 0.20186997950077057 -0.5470951795578003 0.2308645248413086 0.0 0.0 0.0 0.0
3.154 0.08097406476736069 0.20193277299404144 -0.5388846397399902 0.24753393232822418 0.0 0.0 0.0 0.0
3.155 0.08325368165969849 0.20160363614559174 -0.5318665504455566 0.26212257146835327 0.0 0.0 0.0 0.0
3.156 0.08542828261852264 0.20000246167182922 -0.5237032175064087 0.2736680209636688 0.0 0.0 0.0 0.0
3.157 0.08624514192342758 0.20011861622333527 -0.5132587552070618 0.2947617173194885 0.0 0.0 0.0 0.0
3.158 0.08931650966405869 0.19880922138690948 -0.5030342936515808 0.3107106387615204 0.0 0.0 0.0 0.0
3.159 0.09132123738527298 0.19763106107711792 -0.4929364323616028 0.3256021738052368 0.0 0.0 0.0 0.0
3.16 0.09202635288238525 0.19667211174964905 -0.48293280601501465 0.33925870060920715 0.0 0.0 0.0 0.0
3.161 0.09342572093009949 0.19596059620380402 -0.47311317920684814 0.3530315160751343 0.0 0.0 0.0 0.0
3.162 0.0960599035024643 0.19408129155635834 -0.46030014753341675 0.3690873384475708 0.0 0.0 0.0 0.0
3.163 0.09720560908317566 0.19261899590492249 -0.4484832286834717 0.3824934959411621 0.0 0.0 0.0 0.0
3.164 0.09881056845188141 0.19102171063423157 -0.43642404675483704 0.3955446779727936 0.0 0.0 0.0 0.0
3.165 0.10114869475364685 0.18839463591575623 -0.42370784282684326 0.4084729850292206 0.0 0.0 0.0 0.0
3.166 0.1029113158583641 0.18672631680965424 -0.4101528525352478 0.42163342237472534 0.0 0.0 0.0 0.0
3.167 0.1040964424610138 0.1841367483139038 -0.3964952230453491 0.4342409372329712 0.0 0.0 0.0 0.0
3.168 0.10527370125055313 0.18205273151397705 -0.38255974650382996 0.4458578824996948 0.0 0.0 0.0 0.0
3.169 0.10706257075071335 0.17930108308792114 -0.36890602111816406 0.4583072066307068 0.0 0.0 0.0 0.0
3.17 0.10754463821649551 0.1766349822282791 -0.35377684235572815 0.46923595666885376 0.0 0.0 0.0 0.0
3.171 0.10806284099817276 0.1738656610250473 -0.33872708678245544 0.4796963632106781 0.0 0.0 0.0 0.0
3.172 0.11006233841180801 0.17045339941978455 -0.32466235756874084 0.48902416229248047 0.0 0.0 0.0 0.0
3.173 0.10949390381574631 0.16796883940696716 -0.30973196029663086 0.4983326494693756 0.0 0.0 0.0 0.0
3.174 0.11060476303100586 0.16451334953308105 -0.2930237948894501 0.5084373354911804 0.0 0.0 0.0 0.0
3.175 0.11140667647123337 0.1608022302389145 -0.2771407663822174 0.5172889232635498 0.0 0.0 0.0 0.0
3.176 0.11065009981393814 0.15851324796676636 -0.26379072666168213 0.5238141417503357 0.0 0.0 0.0 0.0
3.177 0.11138866096735 0.15429265797138214 -0.24580328166484833 0.5334172248840332 0.0 0.0 0.0 0.0
3.178 0.11061184108257294 0.1507398635149002 -0.22706982493400574 0.5406907796859741 0.0 0.0 0.0 0.0
3.179 0.11059156805276871 0.1468203365802765 -0.21122956275939941 0.5476193428039551 0.0 0.0 0.0 0.0
3.18 0.11086204648017883 0.14436712861061096 -0.19312185049057007 0.5561622977256775 0.0 0.0 0.0 0.0
3.181 0.10951805114746094 0.13975396752357483 -0.17739716172218323 0.5599237084388733 0.0 0.0 0.0 0.0
3.182 0.10798972845077515 0.13633690774440765 -0.15960204601287842 0.5649579763412476 0.0 0.0 0.0 0.0
3.183 0.10666392743587494 0.1326690912246704 -0.14217621088027954 0.570636510848999 0.0 0.0 0.0 0.0
3.184 0.1049574613571167 0.12947677075862885 -0.12674106657505035 0.5742430090904236 0.0 0.0 0.0 0.0
3.185 0.1036698967218399 0.1254759430885315 -0.10697296261787415 0.5773453116416931 0.0 0.0 0.0 0.0
3.186 0.10093201696872711 0.12174675613641739 -0.0889798253774643 0.5801997780799866 0.0 0.0 0.0 0.0
3.187 0.09953701496124268 0.11809416860342026 -0.06972800940275192 0.5836784243583679 0.0 0.0 0.0 0.0
3.188 0.0971728041768074 0.1146652027964592 -0.05067957565188408 0.5850560665130615 0.0 0.0 0.0 0.0
3.189 0.09431914240121841 0.11194883286952972 -0.034943025559186935 0.587082028388977 0.0 0.0 0.0 0.0
3.19 0.09184205532073975 0.10790199786424637 -0.01384171936661005 0.587344229221344 0.0 0.0 0.0 0.0
3.191 0.08843088150024414 0.10507752746343613 0.004174410365521908 0.5876449346542358 0.0 0.0 0.0 0.0
3.192 0.08572405576705933 0.10140952467918396 0.021329957991838455 0.5865333080291748 0.0 0.0 0.0 0.0
3.193 0.08179259300231934 0.09928850084543228 0.03986786678433418 0.5866681337356567 0.0 0.0 0.0 0.0
3.194 0.07795752584934235 0.09690356999635696 0.057776059955358505 0.5849393010139465 0.0 0.0 0.0 0.0
3.195 0.07465612888336182 0.09375450015068054 0.07726626843214035 0.5830538868904114 0.0 0.0 0.0 0.0
3.196 0.0704733282327652 0.09218510240316391 0.09360411763191223 0.5811700224876404 0.0 0.0 0.0 0.0
3.197 0.0663486197590828 0.08979382365942001 0.1142590269446373 0.5769217610359192 0.0 0.0 0.0 0.0
3.198 0.06164878234267235 0.08785811811685562 0.13096056878566742 0.5733051300048828 0.0 0.0 0.0 0.0
3.199 0.057386741042137146 0.08619684725999832 0.14863771200180054 0.5690011382102966 0.0 0.0 0.0 0.0
3.2 0.05290362238883972 0.08526203781366348 0.1668187528848648 0.56382817029953 0.0 0.0 0.0 0.0
3.201 0.047895561903715134 0.08375635743141174 0.18451738357543945 0.5578001141548157 0.0 0.0 0.0 0.0
3.202 0.04288972541689873 0.08320460468530655 0.20215173065662384 0.5516183376312256 0.0 0.0 0.0 0.0
3.203 0.03811202570796013 0.0824887752532959 0.2180236130952835 0.546617865562439 0.0 0.0 0.0 0.0
3.204 0.033638615161180496 0.0829041451215744 0.23644587397575378 0.5434516668319702 0.0 0.0 0.0 0.0
3.205 0.027990097180008888 0.08219295740127563 0.2531964182853699 0.5304348468780518 0.0 0.0 0.0 0.0
3.206 0.022985918447375298 0.08255227655172348 0.268429696559906 0.5232816338539124 0.0 0.0 0.0 0.0
3.207 0.01857849583029747 0.08297088742256165 0.29007238149642944 0.5116237998008728 0.0 0.0 0.0 0.0
3.208 0.013385163620114326 0.08433086425065994 0.3035479784011841 0.5046307444572449 0.0 0.0 0.0 0.0
3.209 0.008241312578320503 0.08532441407442093 0.31914687156677246 0.49417996406555176 0.0 0.0 0.0 0.0
3.21 0.002839861437678337 0.08671411871910095 0.332816481590271 0.4846198856830597 0.0 0.0 0.0 0.0
3.211 -0.0015930766239762306 0.0886191874742508 0.34745287895202637 0.47398895025253296 0.0 0.0 0.0 0.0
3.212 -0.006500166840851307 0.0904461219906807 0.36376845836639404 0.4620184600353241 0.0 0.0 0.0 0.0
3.213 -0.012269558385014534 0.093156598508358 0.3723101019859314 0.45449626445770264 0.0 0.0 0.0 0.0
3.214 -0.015873637050390244 0.09563721716403961 0.39126482605934143 0.4386144280433655 0.0 0.0 0.0 0.0
3.215 -0.02044019289314747 0.09867337346076965 0.4056094288825989 0.42501240968704224 0.0 0.0 0.0 0.0
3.216 -0.024954790249466896 0.1017734706401825 0.41684478521347046 0.41323620080947876 0.0 0.0 0.0 0.0
3.217 -0.028628963977098465 0.10490431636571884 0.4298400282859802 0.39938992261886597 0.0 0.0 0.0 0.0
3.218 -0.033176906406879425 0.10837913304567337 0.44138750433921814 0.38686636090278625 0.0 0.0 0.0 0.0
3.219 -0.037287574261426926 0.11254832148551941 0.45366454124450684 0.37151867151260376 0.0 0.0 0.0 0.0
3.22 -0.03988949954509735 0.11633986234664917 0.46614667773246765 0.3556404411792755 0.0 0.0 0.0 0.0
3.221 -0.04375189542770386 0.12088730186223984 0.47535282373428345 0.3429108262062073 0.0 0.0 0.0 0.0
3.222 -0.046886835247278214 0.12526576220989227 0.48597127199172974 0.32716554403305054 0.0 0.0 0.0 0.0
3.223 -0.04889608919620514 0.13007333874702454 0.4961140751838684 0.3114461600780487 0.0 0.0 0.0 0.0
3.224 -0.051249075680971146 0.13518069684505463 0.5065409541130066 0.29409709572792053 0.0 0.0 0.0 0.0
3.225 -0.054342120885849 0.14019685983657837 0.5138247013092041 0.280402272939682 0.0 0.0 0.0 0.0
3.226 -0.05677879601716995 0.14488765597343445 0.521963894367218 0.2633911371231079 0.0 0.0 0.0 0.0
3.227 -0.05822499096393585 0.1504972130060196 0.5299661755561829 0.24684953689575195 0.0 0.0 0.0 0.0
3.228 -0.0596340112388134 0.15545688569545746 0.5376579761505127 0.22684335708618164 0.0 0.0 0.0 0.0
3.229 -0.060773007571697235 0.1612829864025116 0.5438606142997742 0.2132585048675537 0.0 0.0 0.0 0.0
3.23 -0.061725348234176636 0.16686934232711792 0.5493782162666321 0.19670890271663666 0.0 0.0 0.0 0.0
3.231 -0.06281616538763046 0.17212732136249542 0.5550711154937744 0.17979605495929718 0.0 0.0 0.0 0.0
3.232 -0.06268344819545746 0.17796827852725983 0.5602533221244812 0.16309787333011627 0.0 0.0 0.0 0.0
3.233 -0.06236347556114197 0.18408489227294922 0.5648414492607117 0.1466331034898758 0.0 0.0 0.0 0.0
3.234 -0.06224915757775307 0.18983450531959534 0.5689710378646851 0.12690451741218567 0.0 0.0 0.0 0.0
3.235 -0.06136598810553551 0.19486847519874573 0.5723584890365601 0.11042125523090363 0.0 0.0 0.0 0.0
3.236 -0.05942516401410103 0.20093601942062378 0.5754279494285583 0.0920177698135376 0.0 0.0 0.0 0.0
3.237 -0.05837603658437729 0.20647349953651428 0.5772631168365479 0.0757690817117691 0.0 0.0 0.0 0.0
3.238 -0.056445106863975525 0.21147412061691284 0.5793923139572144 0.05626606196165085 0.0 0.0 0.0 0.0
3.239 -0.05474931001663208 0.2169777750968933 0.5811207890510559 0.038737595081329346 0.0 0.0 0.0 0.0
3.24 -0.05168506130576134 0.22250081598758698 0.581844687461853 0.02075382135808468 0.0 0.0 0.0 0.0
3.241 -0.049756769090890884 0.2271454781293869 0.5819079875946045 0.004506628029048443 0.0 0.0 0.0 0.0
3.242 -0.047281865030527115 0.2323034405708313 0.5816102027893066 -0.01482709962874651 0.0 0.0 0.0 0.0
3.243 -0.04398259148001671 0.2368883341550827 0.5805966258049011 -0.032984111458063126 0.0 0.0 0.0 0.0
3.244 -0.040192387998104095 0.24191854894161224 0.5797103047370911 -0.05227825045585632 0.0 0.0 0.0 0.0
3.245 -0.036787983030080795 0.24637116491794586 0.5776783227920532 -0.06711845844984055 0.0 0.0 0.0 0.0
3.246 -0.03408791124820709 0.25012680888175964 0.575147271156311 -0.0858873650431633 0.0 0.0 0.0 0.0
3.247 -0.02945071831345558 0.25430765748023987 0.5726710557937622 -0.10234706848859787 0.0 0.0 0.0 0.0
3.248 -0.02463466115295887 0.2585447430610657 0.5697619915008545 -0.11917359381914139 0.0 0.0 0.0 0.0
3.249 -0.02147872932255268 0.26190704107284546 0.5657357573509216 -0.13642147183418274 0.0 0.0 0.0 0.0
3.25 -0.01768519915640354 0.26547640562057495 0.5616492033004761 -0.1524510532617569 0.0 0.0 0.0 0.0
3.251 -0.0107888113707304 0.268818736076355 0.5564838647842407 -0.1713443249464035 0.0 0.0 0.0 0.0
3.252 -0.006521319970488548 0.2725520133972168 0.5512057542800903 -0.18766768276691437 0.0 0.0 0.0 0.0
3.253 -0.00235197227448225 0.2744421064853668 0.5453341603279114 -0.2054099291563034 0.0 0.0 0.0 0.0
3.254 0.003714432008564472 0.27687516808509827 0.539417564868927 -0.22120335698127747 0.0 0.0 0.0 0.0
3.255 0.00784539058804512 0.278544545173645 0.5331888794898987 -0.2356819063425064 0.0 0.0 0.0 0.0
3.256 0.012936202809214592 0.28136372566223145 0.5248062014579773 -0.2529993951320648 0.0 0.0 0.0 0.0
3.257 0.019425591453909874 0.28229019045829773 0.5179852843284607 -0.2692464590072632 0.0 0.0 0.0 0.0
3.258 0.024504931643605232 0.284248411655426 0.5103527903556824 -0.2844514846801758 0.0 0.0 0.0 0.0
3.259 0.029665417969226837 0.2857695519924164 0.5023812651634216 -0.29922735691070557 0.0 0.0 0.0 0.0
3.26 0.0337795615196228 0.28585606813430786 0.49374911189079285 -0.31291356682777405 0.0 0.0 0.0 0.0
3.261 0.04150109365582466 0.2863916754722595 0.4829908609390259 -0.3303309679031372 0.0 0.0 0.0 0.0
3.262 0.0461902879178524 0.28773778676986694 0.47515714168548584 -0.3438568413257599 0.0 0.0 0.0 0.0
3.263 0.052061777561903 0.2871752381324768 0.4624810814857483 -0.3604498505592346 0.0 0.0 0.0 0.0
3.264 0.055634744465351105 0.2870563268661499 0.4543963074684143 -0.37308549880981445 0.0 0.0 0.0 0.0
3.265 0.06164426729083061 0.2868752181529999 0.4441295564174652 -0.3847152590751648 0.0 0.0 0.0 0.0
3.266 0.06822573393583298 0.2858991026878357 0.4317150413990021 -0.39979588985443115 0.0 0.0 0.0 0.0
3.267 0.07406970113515854 0.2849304974079132 0.4188021123409271 -0.41433918476104736 0.0 0.0 0.0 0.0
3.268 0.07737980782985687 0.2840755879878998 0.40804630517959595 -0.42508336901664734 0.0 0.0 0.0 0.0
3.269 0.08387383818626404 0.2824459373950958 0.39261212944984436 -0.440510630607605 0.0 0.0 0.0 0.0
3.27 0.08839551359415054 0.2817549705505371 0.3827272653579712 -0.45097920298576355 0.0 0.0 0.0 0.0
3.271 0.09405187517404556 0.27942782640457153 0.3669126033782959 -0.4639720618724823 0.0 0.0 0.0 0.0
3.272 0.09757576882839203 0.27729088068008423 0.3529343008995056 -0.4756050109863281 0.0 0.0 0.0 0.0
3.273 0.10184302181005478 0.27558082342147827 0.3427979350090027 -0.4848143756389618 0.0 0.0 0.0 0.0
3.274 0.10806829482316971 0.27265509963035583 0.32509559392929077 -0.4966948628425598 0.0 0.0 0.0 0.0
3.275 0.11227290332317352 0.27085134387016296 0.3089638948440552 -0.5091738104820251 0.0 0.0 0.0 0.0
3.276 0.11716913431882858 0.26696622371673584 0.2946118116378784 -0.5149296522140503 0.0 0.0 0.0 0.0
3.277 0.119967021048069 0.26561492681503296 0.2813013195991516 -0.5273540616035461 0.0 0.0 0.0 0.0
3.278 0.12333060801029205 0.2628224790096283 0.26799848675727844 -0.5348358750343323 0.0 0.0 0.0 0.0
3.279 0.126678466796875 0.25977879762649536 0.25162264704704285 -0.5442851781845093 0.0 0.0 0.0 0.0
3.28 0.13071341812610626 0.256789892911911 0.2333671599626541 -0.5538763403892517 0.0 0.0 0.0 0.0
3.281 0.13516558706760406 0.25279396772384644 0.21643564105033875 -0.5613766312599182 0.0 0.0 0.0 0.0
3.282 0.13799765706062317 0.250134140253067 0.20111055672168732 -0.5684466361999512 0.0 0.0 0.0 0.0
3.283 0.14172318577766418 0.24589663743972778 0.18434803187847137 -0.5750513672828674 0.0 0.0 0.0 0.0
3.284 0.14378122985363007 0.24266280233860016 0.1651403307914734 -0.5816558003425598 0.0 0.0 0.0 0.0
3.285 0.147206112742424 0.23860511183738708 0.14663992822170258 -0.5875176787376404 0.0 0.0 0.0 0.0
3.286 0.14926189184188843 0.23624414205551147 0.13119782507419586 -0.5934037566184998 0.0 0.0 0.0 0.0
3.287 0.15188650786876678 0.23276858031749725 0.11234791576862335 -0.5980314016342163 0.0 0.0 0.0 0.0
3.288 0.15326541662216187 0.22922374308109283 0.09073939174413681 -0.6020747423171997 0.0 0.0 0.0 0.0
3.289 0.15679776668548584 0.22520682215690613 0.07529126107692719 -0.6064227223396301 0.0 0.0 0.0 0.0
3.29 0.15810373425483704 0.22180543839931488 0.05898068845272064 -0.6092109680175781 0.0 0.0 0.0 0.0
3.291 0.1593872308731079 0.21803824603557587 0.038709163665771484 -0.6115726828575134 0.0 0.0 0.0 0.0
3.292 0.16097389161586761 0.2144516110420227 0.019709527492523193 -0.6130654215812683 0.0 0.0 0.0 0.0
3.293 0.16274124383926392 0.21042834222316742 0.0008107349276542664 -0.6149777173995972 0.0 0.0 0.0 0.0
3.294 0.1634928286075592 0.20783893764019012 -0.015165282413363457 -0.6168732047080994 0.0 0.0 0.0 0.0
3.295 0.16484268009662628 0.20434081554412842 -0.0359966866672039 -0.6173657774925232 0.0 0.0 0.0 0.0
3.296 0.1658475250005722 0.20072020590305328 -0.05607503652572632 -0.6168923377990723 0.0 0.0 0.0 0.0
3.297 0.16676120460033417 0.19773568212985992 -0.074674591422081 -0.6172204613685608 0.0 0.0 0.0 0.0
3.298 0.16786552965641022 0.19394297897815704 -0.09285296499729156 -0.6150709390640259 0.0 0.0 0.0 0.0
3.299 0.16848622262477875 0.1909089833498001 -0.11157698929309845 -0.6137895584106445 0.0 0.0 0.0 0.0
3.3 0.16773556172847748 0.18832845985889435 -0.13091017305850983 -0.6129426956176758 0.0 0.0 0.0 0.0
3.301 0.16913002729415894 0.18508528172969818 -0.15118364989757538 -0.6084521412849426 0.0 0.0 0.0 0.0
3.302 0.17030483484268188 0.18108008801937103 -0.17264698445796967 -0.6035512089729309 0.0 0.0 0.0 0.0
3.303 0.16975297033786774 0.17928074300289154 -0.18968899548053741 -0.6006286144256592 0.0 0.0 0.0 0.0
3.304 0.1693919599056244 0.17672252655029297 -0.20678478479385376 -0.5954967737197876 0.0 0.0 0.0 0.0
3.305 0.17070214450359344 0.17292183637619019 -0.2280745804309845 -0.5896881818771362 0.0 0.0 0.0 0.0
3.306 0.17009992897510529 0.17071287333965302 -0.24458985030651093 -0.5845121741294861 0.0 0.0 0.0 0.0
3.307 0.1704423725605011 0.16855722665786743 -0.26433610916137695 -0.5773606300354004 0.0 0.0 0.0 0.0
3.308 0.16948582231998444 0.16632254421710968 -0.28193339705467224 -0.5701207518577576 0.0 0.0 0.0 0.0
3.309 0.17046545445919037 0.16269110143184662 -0.3033199608325958 -0.5604164004325867 0.0 0.0 0.0 0.0
3.31 0.1715819388628006 0.16056233644485474 -0.31973686814308167 -0.5544369220733643 0.0 0.0 0.0 0.0
3.311 0.17045284807682037 0.1589190512895584 -0.33668550848960876 -0.5446033477783203 0.0 0.0 0.0 0.0
3.312 0.17005635797977448 0.15740670263767242 -0.3543696105480194 -0.5366576313972473 0.0 0.0 0.0 0.0
3.313 0.17052564024925232 0.15458782017230988 -0.3729288578033447 -0.5248457789421082 0.0 0.0 0.0 0.0
3.314 0.17077793180942535 0.15215961635112762 -0.3886614441871643 -0.5145529508590698 0.0 0.0 0.0 0.0
3.315 0.17139774560928345 0.14991143345832825 -0.40809616446495056 -0.5014908313751221 0.0 0.0 0.0 0.0
3.316 0.17066924273967743 0.1494293212890625 -0.4228912591934204 -0.49217644333839417 0.0 0.0 0.0 0.0
3.317 0.17027130722999573 0.14706724882125854 -0.4375869631767273 -0.47997981309890747 0.0 0.0 0.0 0.0
3.318 0.17072923481464386 0.1451236754655838 -0.454056978225708 -0.46673595905303955 0.0 0.0 0.0 0.0
3.319 0.17115212976932526 0.14344966411590576 -0.4709585905075073 -0.45239120721817017 0.0 0.0 0.0 0.0
3.32 0.17099571228027344 0.142217218875885 -0.4842717945575714 -0.4407702386379242 0.0 0.0 0.0 0.0
3.321 0.17131806910037994 0.14003856480121613 -0.5009968876838684 -0.4230193495750427 0.0 0.0 0.0 0.0
3.322 0.17149007320404053 0.13925960659980774 -0.5122436285018921 -0.4116087853908539 0.0 0.0 0.0 0.0
3.323 0.17327407002449036 0.13622413575649261 -0.5290327668190002 -0.3930565118789673 0.0 0.0 0.0 0.0
3.324 0.17351378500461578 0.13569381833076477 -0.5426225066184998 -0.3810030519962311 0.0 0.0 0.0 0.0
3.325 0.1741684377193451 0.13342797756195068 -0.5556351542472839 -0.3611066937446594 0.0 0.0 0.0 0.0
3.326 0.1738961637020111 0.13187859952449799 -0.5664706826210022 -0.345691442489624 0.0 0.0 0.0 0.0
3.327 0.17526142299175262 0.12959332764148712 -0.5800415873527527 -0.32686296105384827 0.0 0.0 0.0 0.0
3.328 0.17591695487499237 0.1272972673177719 -0.5915290117263794 -0.30732861161231995 0.0 0.0 0.0 0.0
3.329 0.17579372227191925 0.12782518565654755 -0.5999789237976074 -0.29613056778907776 0.0 0.0 0.0 0.0
3.33 0.17639510333538055 0.12551482021808624 -0.6112817525863647 -0.27370065450668335 0.0 0.0 0.0 0.0
3.331 0.17761872708797455 0.12259513884782791 -0.6228402256965637 -0.24988073110580444 0.0 0.0 0.0 0.0
3.332 0.17834141850471497 0.12164106965065002 -0.6294801235198975 -0.238324835896492 0.0 0.0 0.0 0.0
3.333 0.17977574467658997 0.11881392449140549 -0.6394328474998474 -0.21605151891708374 0.0 0.0 0.0 0.0
3.334 0.18108591437339783 0.11657586693763733 -0.6485424041748047 -0.19468417763710022 0.0 0.0 0.0 0.0
3.335 0.1816381812095642 0.11517754942178726 -0.6547774076461792 -0.1771402508020401 0.0 0.0 0.0 0.0
3.336 0.18270203471183777 0.11305423080921173 -0.66164630651474 -0.15738974511623383 0.0 0.0 0.0 0.0
3.337 0.18417273461818695 0.11103890091180801 -0.6678301692008972 -0.13905508816242218 0.0 0.0 0.0 0.0
3.338 0.1849646419286728 0.10745414346456528 -0.6734407544136047 -0.1131923645734787 0.0 0.0 0.0 0.0
3.339 0.1858808398246765 0.10528375953435898 -0.678620457649231 -0.0937516838312149 0.0 0.0 0.0 0.0
3.34 0.1871325671672821 0.10218887776136398 -0.6834562420845032 -0.06978346407413483 0.0 0.0 0.0 0.0
3.341 0.18814240396022797 0.09918375313282013 -0.6866078972816467 -0.05078022554516792 0.0 0.0 0.0 0.0
3.342 0.1897696852684021 0.09692591428756714 -0.6899865865707397 -0.02926715277135372 0.0 0.0 0.0 0.0
3.343 0.1892903596162796 0.09454270452260971 -0.6917211413383484 -0.006600482389330864 0.0 0.0 0.0 0.0
3.344 0.1903851479291916 0.09068852663040161 -0.6939206719398499 0.013915061950683594 0.0 0.0 0.0 0.0
3.345 0.19150882959365845 0.08771748095750809 -0.6953014731407166 0.03580707684159279 0.0 0.0 0.0 0.0
3.346 0.19229108095169067 0.08443621546030045 -0.6951111555099487 0.05803156644105911 0.0 0.0 0.0 0.0
3.347 0.19292989373207092 0.0821663960814476 -0.6950912475585938 0.08178126811981201 0.0 0.0 0.0 0.0
3.348 0.19355188310146332 0.07707224041223526 -0.6937153339385986 0.10444529354572296 0.0 0.0 0.0 0.0
3.349 0.1938043236732483 0.0742223784327507 -0.6930068135261536 0.12367531657218933 0.0 0.0 0.0 0.0
3.35 0.1940271407365799 0.07106603682041168 -0.6899219155311584 0.14742439985275269 0.0 0.0 0.0 0.0
3.351 0.19411450624465942 0.06790106743574142 -0.6870388388633728 0.16915060579776764 0.0 0.0 0.0 0.0
3.352 0.1942044496536255 0.06290791183710098 -0.6826122403144836 0.1924530416727066 0.0 0.0 0.0 0.0
3.353 0.1947445273399353 0.05969608575105667 -0.6802186965942383 0.2104545682668686 0.0 0.0 0.0 0.0
3.354 0.19475212693214417 0.05525478348135948 -0.6738709807395935 0.23541028797626495 0.0 0.0 0.0 0.0
3.355 0.1935289204120636 0.05196990817785263 -0.6682206392288208 0.25589609146118164 0.0 0.0 0.0 0.0
3.356 0.19401076436042786 0.04690851643681526 -0.6613242030143738 0.2795145511627197 0.0 0.0 0.0 0.0
3.357 0.19354121387004852 0.042586375027894974 -0.6537951827049255 0.3017687499523163 0.0 0.0 0.0 0.0
3.358 0.19237151741981506 0.038369327783584595 -0.6454181671142578 0.3231731355190277 0.0 0.0 0.0 0.0
3.359 0.1919160932302475 0.0339214913547039 -0.6359054446220398 0.34704533219337463 0.0 0.0 0.0 0.0
3.36 0.19107742607593536 0.02937162108719349 -0.6262710094451904 0.36764851212501526 0.0 0.0 0.0 0.0
3.361 0.18880243599414825 0.02570139616727829 -0.6168110966682434 0.38636213541030884 0.0 0.0 0.0 0.0
3.362 0.18793682754039764 0.022124258801341057 -0.6065390706062317 0.4074372947216034 0.0 0.0 0.0 0.0
3.363 0.1857568323612213 0.016544070094823837 -0.5919802784919739 0.4324067533016205 0.0 0.0 0.0 0.0
3.364 0.18439646065235138 0.012316511012613773 -0.5827246904373169 0.44973835349082947 0.0 0.0 0.0 0.0
3.365 0.18228410184383392 0.009879730641841888 -0.572180986404419 0.4655942916870117 0.0 0.0 0.0 0.0
3.366 0.18041668832302094 0.003493371419608593 -0.5530391335487366 0.4921233057975769 0.0 0.0 0.0 0.0
3.367 0.17717969417572021 0.0005041221156716347 -0.542026162147522 0.5060734152793884 0.0 0.0 0.0 0.0
3.368 0.17487479746341705 -0.0038636019453406334 -0.5279065370559692 0.5247343182563782 0.0 0.0 0.0 0.0
3.369 0.17193813621997833 -0.009029685519635677 -0.509161114692688 0.5459455251693726 0.0 0.0 0.0 0.0
3.37 0.16884934902191162 -0.011181293986737728 -0.4947493374347687 0.5619413256645203 0.0 0.0 0.0 0.0
3.371 0.1659182757139206 -0.016406260430812836 -0.475908100605011 0.5817764401435852 0.0 0.0 0.0 0.0
3.372 0.16236995160579681 -0.019737940281629562 -0.4560896158218384 0.598605215549469 0.0 0.0 0.0 0.0
3.373 0.1592828929424286 -0.022035742178559303 -0.4431620240211487 0.613167405128479 0.0 0.0 0.0 0.0
3.374 0.15545161068439484 -0.02648060955107212 -0.4200134575366974 0.6316792368888855 0.0 0.0 0.0 0.0
3.375 0.15125608444213867 -0.030361171811819077 -0.40319472551345825 0.6461401581764221 0.0 0.0 0.0 0.0
3.376 0.1475563645362854 -0.032492585480213165 -0.3851223587989807 0.6597622632980347 0.0 0.0 0.0 0.0
3.377 0.14306096732616425 -0.03565656393766403 -0.36242935061454773 0.6751372814178467 0.0 0.0 0.0 0.0
3.378 0.13820692896842957 -0.038934800773859024 -0.33918946981430054 0.6895674467086792 0.0 0.0 0.0 0.0
3.379 0.13394300639629364 -0.04174066707491875 -0.31996527314186096 0.7013657689094543 0.0 0.0 0.0 0.0
3.38 0.12950530648231506 -0.043039653450250626 -0.2999700903892517 0.7129750847816467 0.0 0.0 0.0 0.0
3.381 0.12470735609531403 -0.04608229547739029 -0.27294373512268066 0.7266976833343506 0.0 0.0 0.0 0.0
3.382 0.1196005716919899 -0.047789979726076126 -0.25126487016677856 0.7364185452461243 0.0 0.0 0.0 0.0
3.383 0.11445169150829315 -0.04952502250671387 -0.22782601416110992 0.7464538812637329 0.0 0.0 0.0 0.0
3.384 0.10937287658452988 -0.050565604120492935 -0.20691943168640137 0.7541979551315308 0.0 0.0 0.0 0.0
3.385 0.10445325821638107 -0.052234284579753876 -0.18268266320228577 0.7640783190727234 0.0 0.0 0.0 0.0
3.386 0.09860412031412125 -0.053159669041633606 -0.15518052875995636 0.772415816783905 0.0 0.0 0.0 0.0
3.387 0.09411443024873734 -0.05366506427526474 -0.13216014206409454 0.7791135907173157 0.0 0.0 0.0 0.0
3.388 0.08904547989368439 -0.05412178859114647 -0.10694370418787003 0.7860133051872253 0.0 0.0 0.0 0.0
3.389 0.08316956460475922 -0.05434400588274002 -0.07774396240711212 0.7917436361312866 0.0 0.0 0.0 0.0
3.39 0.0777888372540474 -0.05470185726881027 -0.05162258818745613 0.7957605123519897 0.0 0.0 0.0 0.0
3.391 0.07256361842155457 -0.05385491997003555 -0.030877143144607544 0.7995660901069641 0.0 0.0 0.0 0.0
3.392 0.06742306053638458 -0.05401230603456497 0.0011555375531315804 0.8032853603363037 0.0 0.0 0.0 0.0
3.393 0.06187749281525612 -0.053162261843681335 0.02629023790359497 0.8052175045013428 0.0 0.0 0.0 0.0
3.394 0.05668270215392113 -0.05195264890789986 0.05553904175758362 0.8063156604766846 0.0 0.0 0.0 0.0
3.395 0.05171646177768707 -0.05079621449112892 0.07764600217342377 0.8066627383232117 0.0 0.0 0.0 0.0
3.396 0.04603767767548561 -0.04893681779503822 0.10957939177751541 0.8071882724761963 0.0 0.0 0.0 0.0
3.397 0.041931476444005966 -0.047233060002326965 0.13539204001426697 0.8038795590400696 0.0 0.0 0.0 0.0
3.398 0.036465197801589966 -0.0453660674393177 0.16366110742092133 0.8011327385902405 0.0 0.0 0.0 0.0
3.399 0.03195294365286827 -0.04251495376229286 0.18995176255702972 0.796447217464447 0.0 0.0 0.0 0.0
3.4 0.02785048447549343 -0.039992865175008774 0.2187201976776123 0.792441189289093 0.0 0.0 0.0 0.0
3.401 0.02260023169219494 -0.037412356585264206 0.24262861907482147 0.7880259156227112 0.0 0.0 0.0 0.0
3.402 0.01859327219426632 -0.03402058035135269 0.27317461371421814 0.7801844477653503 0.0 0.0 0.0 0.0
3.403 0.014895686879754066 -0.031488776206970215 0.3014066517353058 0.7733733057975769 0.0 0.0 0.0 0.0
3.404 0.010760311968624592 -0.027653055265545845 0.3258145749568939 0.7661502957344055 0.0 0.0 0.0 0.0
3.405 0.007409212179481983 -0.024143755435943604 0.34857627749443054 0.7582091689109802 0.0 0.0 0.0 0.0
3.406 0.0036789197474718094 -0.02078547701239586 0.3808194100856781 0.7453174591064453 0.0 0.0 0.0 0.0
3.407 0.0007659224793314934 -0.016469653695821762 0.40711626410484314 0.7337507009506226 0.0 0.0 0.0 0.0
3.408 -0.0025981320068240166 -0.012753120623528957 0.43326881527900696 0.7230115532875061 0.0 0.0 0.0 0.0
3.409 -0.005160272121429443 -0.008064349181950092 0.4535232186317444 0.7118373513221741 0.0 0.0 0.0 0.0
3.41 -0.006949711591005325 -0.004162916913628578 0.47999095916748047 0.6963227391242981 0.0 0.0 0.0 0.0
3.411 -0.009341174736618996 4.43803146481514e-05 0.5041347742080688 0.6817176342010498 0.0 0.0 0.0 0.0
3.412 -0.011361275799572468 0.005120210349559784 0.5273765921592712 0.666317880153656 0.0 0.0 0.0 0.0
3.413 -0.012844020500779152 0.009248447604477406 0.5527225136756897 0.6499934196472168 0.0 0.0 0.0 0.0
3.414 -0.014834994450211525 0.014181346632540226 0.5760241746902466 0.6315025091171265 0.0 0.0 0.0 0.0
3.415 -0.015483193099498749 0.019079307094216347 0.6010496616363525 0.6117537021636963 0.0 0.0 0.0 0.0
3.416 -0.017148341983556747 0.02305414155125618 0.6188466548919678 0.5957154035568237 0.0 0.0 0.0 0.0
3.417 -0.017747096717357635 0.02807326428592205 0.6422110199928284 0.5742985010147095 0.0 0.0 0.0 0.0
3.418 -0.01806763932108879 0.03233102336525917 0.6650969386100769 0.5521209836006165 0.0 0.0 0.0 0.0
3.419 -0.018463734537363052 0.037744730710983276 0.6839973330497742 0.531535267829895 0.0 0.0 0.0 0.0
3.42 -0.01883753202855587 0.04258674383163452 0.7012647390365601 0.5153006315231323 0.0 0.0 0.0 0.0
3.421 -0.01792728714644909 0.046581488102674484 0.7203781604766846 0.4886513352394104 0.0 0.0 0.0 0.0
3.422 -0.017937975004315376 0.05138218402862549 0.7401862740516663 0.46214404702186584 0.0 0.0 0.0 0.0
3.423 -0.016779089346528053 0.05557333678007126 0.757631778717041 0.4374590516090393 0.0 0.0 0.0 0.0
3.424 -0.016027845442295074 0.05934518948197365 0.7722289562225342 0.4140002429485321 0.0 0.0 0.0 0.0
3.425 -0.015205619856715202 0.06460344791412354 0.7884474992752075 0.38808348774909973 0.0 0.0 0.0 0.0
3.426 -0.01361309178173542 0.06894086301326752 0.8034990429878235 0.3610248565673828 0.0 0.0 0.0 0.0
3.427 -0.012416337616741657 0.0727948546409607 0.817675769329071 0.3340373635292053 0.0 0.0 0.0 0.0
3.428 -0.010851962491869926 0.07640200108289719 0.8295385837554932 0.3080693781375885 0.0 0.0 0.0 0.0
3.429 -0.008228467777371407 0.08039678633213043 0.8410015106201172 0.2812347710132599 0.0 0.0 0.0 0.0
3.43 -0.0066097332164645195 0.08434737473726273 0.8519991040229797 0.25256240367889404 0.0 0.0 0.0 0.0
3.431 -0.004727874882519245 0.0877949446439743 0.8616234660148621 0.22483044862747192 0.0 0.0 0.0 0.0
3.432 -0.0021895188838243484 0.09084591269493103 0.8705957531929016 0.19377122819423676 0.0 0.0 0.0 0.0
3.433 0.0004101591184735298 0.09446636587381363 0.879361629486084 0.16487760841846466 0.0 0.0 0.0 0.0
3.434 0.0029387129470705986 0.09800709784030914 0.8858655095100403 0.14006522297859192 0.0 0.0 0.0 0.0
3.435 0.005697970278561115 0.1004951074719429 0.892021894454956 0.10124269127845764 0.0 0.0 0.0 0.0
3.436 0.008367335423827171 0.10400667041540146 0.8975119590759277 0.07142889499664307 0.0 0.0 0.0 0.0
3.437 0.011581813916563988 0.10696212947368622 0.9015398025512695 0.041473034769296646 0.0 0.0 0.0 0.0
3.438 0.015046229586005211 0.10839966684579849 0.9038194417953491 0.011308587156236172 0.0 0.0 0.0 0.0
3.439 0.016880905255675316 0.11118444055318832 0.9054945707321167 -0.013963312841951847 0.0 0.0 0.0 0.0
3.44 0.02060691826045513 0.11345246434211731 0.9061312079429626 -0.049848973751068115 0.0 0.0 0.0 0.0
3.441 0.023841138929128647 0.11555641144514084 0.9063652753829956 -0.08054091036319733 0.0 0.0 0.0 0.0
3.442 0.027456266805529594 0.1173185333609581 0.9057551026344299 -0.10980503261089325 0.0 0.0 0.0 0.0
3.443 0.030581174418330193 0.11898843944072723 0.9025006890296936 -0.13656432926654816 0.0 0.0 0.0 0.0
3.444 0.033692359924316406 0.11951643228530884 0.8991976380348206 -0.1750374734401703 0.0 0.0 0.0 0.0
3.445 0.03740951418876648 0.12218497693538666 0.8940600752830505 -0.20392481982707977 0.0 0.0 0.0 0.0
3.446 0.041194066405296326 0.12291869521141052 0.8877584934234619 -0.2353377789258957 0.0 0.0 0.0 0.0
3.447 0.043866463005542755 0.12399087846279144 0.8810939788818359 -0.2654154896736145 0.0 0.0 0.0 0.0
3.448 0.04694632440805435 0.1259137988090515 0.8744755387306213 -0.29228365421295166 0.0 0.0 0.0 0.0
3.449 0.05033731833100319 0.1261310577392578 0.8627926707267761 -0.3293791711330414 0.0 0.0 0.0 0.0
3.45 0.05413326993584633 0.12689921259880066 0.8540903329849243 -0.3571012318134308 0.0 0.0 0.0 0.0
3.451 0.057145845144987106 0.12809741497039795 0.8450327515602112 -0.38361915946006775 0.0 0.0 0.0 0.0
3.452 0.060012996196746826 0.12807880342006683 0.8330338597297668 -0.4124482572078705 0.0 0.0 0.0 0.0
3.453 0.06263389438390732 0.12876513600349426 0.8194281458854675 -0.4422611892223358 0.0 0.0 0.0 0.0
3.454 0.06719035655260086 0.12877118587493896 0.804458498954773 -0.47291070222854614 0.0 0.0 0.0 0.0
3.455 0.06947475671768188 0.12943069636821747 0.7902035713195801 -0.49955302476882935 0.0 0.0 0.0 0.0
3.456 0.07295692712068558 0.12999972701072693 0.7711042165756226 -0.5333690047264099 0.0 0.0 0.0 0.0
3.457 0.07591334730386734 0.12862887978553772 0.7551338076591492 -0.5563361048698425 0.0 0.0 0.0 0.0
3.458 0.07914175093173981 0.1296459287405014 0.7393317818641663 -0.5816248655319214 0.0 0.0 0.0 0.0
3.459 0.08237649500370026 0.12943603098392487 0.7194066047668457 -0.6063171029090881 0.0 0.0 0.0 0.0
3.46 0.08482049405574799 0.12913233041763306 0.699367880821228 -0.6338221430778503 0.0 0.0 0.0 0.0
3.461 0.0881112664937973 0.12906138598918915 0.678083598613739 -0.6583535075187683 0.0 0.0 0.0 0.0
3.462 0.09037984907627106 0.12851008772850037 0.6554992198944092 -0.6817607879638672 0.0 0.0 0.0 0.0
3.463 0.0924709290266037 0.12913896143436432 0.6347899436950684 -0.7038345336914062 0.0 0.0 0.0 0.0
3.464 0.09573988616466522 0.1285027414560318 0.6128455400466919 -0.7261526584625244 0.0 0.0 0.0 0.0
3.465 0.09899484366178513 0.12792137265205383 0.5822589993476868 -0.7526187896728516 0.0 0.0 0.0 0.0
3.466 0.10070657730102539 0.12844538688659668 0.5635005831718445 -0.7699975371360779 0.0 0.0 0.0 0.0
3.467 0.10345391929149628 0.1278010755777359 0.5367083549499512 -0.7882978916168213 0.0 0.0 0.0 0.0
3.468 0.106357641518116 0.12802757322788239 0.5091434717178345 -0.81430983543396 0.0 0.0 0.0 0.0
3.469 0.10970401018857956 0.12665988504886627 0.4817875325679779 -0.8274832367897034 0.0 0.0 0.0 0.0
3.47 0.1115843802690506 0.126362606883049 0.46609821915626526 -0.8280096054077148 0.0 0.0 0.0 0.0
3.471 0.11394401639699936 0.12622952461242676 0.44141724705696106 -0.8427287936210632 0.0 0.0 0.0 0.0
3.472 0.11639437824487686 0.126470685005188 0.4130857288837433 -0.859293520450592 0.0 0.0 0.0 0.0
3.473 0.11944194883108139 0.12487397342920303 0.38091692328453064 -0.8735719919204712 0.0 0.0 0.0 0.0
3.474 0.12209314852952957 0.12462858110666275 0.3515539765357971 -0.8878419399261475 0.0 0.0 0.0 0.0
3.475 0.1246369406580925 0.1244690865278244 0.32464009523391724 -0.8989056348800659 0.0 0.0 0.0 0.0
3.476 0.12713433802127838 0.12415358424186707 0.2956371009349823 -0.9119320511817932 0.0 0.0 0.0 0.0
3.477 0.129914328455925 0.12420643866062164 0.25962916016578674 -0.9227659702301025 0.0 0.0 0.0 0.0
3.478 0.1322585791349411 0.12381143122911453 0.22952884435653687 -0.9312613606452942 0.0 0.0 0.0 0.0
3.479 0.13604412972927094 0.12369512766599655 0.19622336328029633 -0.9429135322570801 0.0 0.0 0.0 0.0
3.48 0.13812994956970215 0.1239059641957283 0.1719585508108139 -0.950187087059021 0.0 0.0 0.0 0.0
3.481 0.14128747582435608 0.12335311621427536 0.1318170428276062 -0.9567369222640991 0.0 0.0 0.0 0.0
3.482 0.14382097125053406 0.12250600010156631 0.10188768059015274 -0.9603579044342041 0.0 0.0 0.0 0.0
3.483 0.14753228425979614 0.12212313711643219 0.06957174092531204 -0.9655239582061768 0.0 0.0 0.0 0.0
3.484 0.15032975375652313 0.12274222820997238 0.03914925456047058 -0.9693490266799927 0.0 0.0 0.0 0.0
3.485 0.1530277132987976 0.12223540991544724 0.002803899347782135 -0.9688620567321777 0.0 0.0 0.0 0.0
3.486 0.15681026875972748 0.1210678443312645 -0.03290222957730293 -0.9710540771484375 0.0 0.0 0.0 0.0
3.487 0.15992401540279388 0.12035517394542694 -0.06057383492588997 -0.9700446128845215 0.0 0.0 0.0 0.0
3.488 0.1631614714860916 0.12040644884109497 -0.096406489610672 -0.9689608216285706 0.0 0.0 0.0 0.0
3.489 0.16671252250671387 0.1186082661151886 -0.13033263385295868 -0.964207112789154 0.0 0.0 0.0 0.0
3.49 0.17105914652347565 0.11775415390729904 -0.1672498881816864 -0.9622654318809509 0.0 0.0 0.0 0.0
3.491 0.1753794550895691 0.11638772487640381 -0.1962001919746399 -0.9569450616836548 0.0 0.0 0.0 0.0
3.492 0.17846453189849854 0.11491914838552475 -0.22587141394615173 -0.9511444568634033 0.0 0.0 0.0 0.0
3.493 0.18122288584709167 0.11516109853982925 -0.25908100605010986 -0.9443117380142212 0.0 0.0 0.0 0.0
3.494 0.1856549084186554 0.11344125866889954 -0.29197150468826294 -0.9351054430007935 0.0 0.0 0.0 0.0
3.495 0.1898992955684662 0.111557237803936 -0.3220689296722412 -0.9252908825874329 0.0 0.0 0.0 0.0
3.496 0.19345687329769135 0.1110817939043045 -0.35705628991127014 -0.9164265990257263 0.0 0.0 0.0 0.0
3.497 0.19859836995601654 0.10827559232711792 -0.38922539353370667 -0.9025030732154846 0.0 0.0 0.0 0.0
3.498 0.20207081735134125 0.10640037804841995 -0.42026960849761963 -0.8890054821968079 0.0 0.0 0.0 0.0
3.499 0.20702104270458221 0.10445933043956757 -0.451821893453598 -0.8761716485023499 0.0 0.0 0.0 0.0
3.5 0.2104106843471527 0.10233601927757263 -0.4793931543827057 -0.8616160154342651 0.0 0.0 0.0 0.0
3.501 0.21413005888462067 0.10131215304136276 -0.5056984424591064 -0.8473019003868103 0.0 0.0 0.0 0.0
3.502 0.21962139010429382 0.09837235510349274 -0.5388926863670349 -0.8288210034370422 0.0 0.0 0.0 0.0
3.503 0.22396783530712128 0.0938008651137352 -0.5673102140426636 -0.8105377554893494 0.0 0.0 0.0 0.0
3.504 0.22709344327449799 0.09344831109046936 -0.5910396575927734 -0.7933319807052612 0.0 0.0 0.0 0.0
3.505 0.2323806881904602 0.08952358365058899 -0.6202170252799988 -0.7728601694107056 0.0 0.0 0.0 0.0
3.506 0.23539777100086212 0.08705972880125046 -0.6505233645439148 -0.7489972710609436 0.0 0.0 0.0 0.0
3.507 0.24108102917671204 0.08305154740810394 -0.6737651228904724 -0.7320719361305237 0.0 0.0 0.0 0.0
3.508 0.24430932104587555 0.0786883682012558 -0.7016480565071106 -0.7029818296432495 0.0 0.0 0.0 0.0
3.509 0.2492499202489853 0.0752490684390068 -0.7249072790145874 -0.6819738745689392 0.0 0.0 0.0 0.0
3.51 0.2515332102775574 0.072122722864151 -0.7441543936729431 -0.6618005037307739 0.0 0.0 0.0 0.0
3.511 0.25590166449546814 0.066931813955307 -0.7695406675338745 -0.6341539025306702 0.0 0.0 0.0 0.0
3.512 0.25971248745918274 0.06362563371658325 -0.7898430228233337 -0.6117326021194458 0.0 0.0 0.0 0.0
3.513 0.26348838210105896 0.05909622088074684 -0.8117616176605225 -0.5827927589416504 0.0 0.0 0.0 0.0
3.514 0.2680554687976837 0.052820079028606415 -0.8327624797821045 -0.5572015047073364 0.0 0.0 0.0 0.0
3.515 0.27137237787246704 0.047483135014772415 -0.8496662974357605 -0.5296071767807007 0.0 0.0 0.0 0.0
3.516 0.27463674545288086 0.04205777496099472 -0.8686457872390747 -0.49938613176345825 0.0 0.0 0.0 0.0
3.517 0.27758166193962097 0.03626387193799019 -0.8853324055671692 -0.470593124628067 0.0 0.0 0.0 0.0
3.518 0.28017860651016235 0.0305103100836277 -0.9010617136955261 -0.44202280044555664 0.0 0.0 0.0 0.0
3.519 0.28396373987197876 0.025998013094067574 -0.9166598916053772 -0.4132574796676636 0.0 0.0 0.0 0.0
3.52 0.2859978675842285 0.020249487832188606 -0.9302096962928772 -0.3803808093070984 0.0 0.0 0.0 0.0
3.521 0.28909745812416077 0.013270901516079903 -0.943065345287323 -0.3540703356266022 0.0 0.0 0.0 0.0
3.522 0.29210764169692993 0.006375799886882305 -0.9569251537322998 -0.3201567530632019 0.0 0.0 0.0 0.0
3.523 0.2935001850128174 0.00010800175368785858 -0.9670975208282471 -0.28831052780151367 0.0 0.0 0.0 0.0
3.524 0.29537099599838257 -0.007626553066074848 -0.9784820675849915 -0.24972465634346008 0.0 0.0 0.0 0.0
3.525 0.2980542480945587 -0.013735616579651833 -0.9879733920097351 -0.22432789206504822 0.0 0.0 0.0 0.0
3.526 0.29829272627830505 -0.02110859379172325 -0.9934518933296204 -0.1906002312898636 0.0 0.0 0.0 0.0
3.527 0.3001481592655182 -0.027976667508482933 -1.0007429122924805 -0.1616908311843872 0.0 0.0 0.0 0.0
3.528 0.3005051016807556 -0.03506657853722572 -1.0060902833938599 -0.12575455009937286 0.0 0.0 0.0 0.0
3.529 0.30158504843711853 -0.04335332661867142 -1.0126209259033203 -0.09072791039943695 0.0 0.0 0.0 0.0
3.53 0.30247098207473755 -0.04909595474600792 -1.0164557695388794 -0.06379780173301697 0.0 0.0 0.0 0.0
3.531 0.3018563389778137 -0.05687336623668671 -1.018438458442688 -0.02481168508529663 0.0 0.0 0.0 0.0
3.532 0.30214911699295044 -0.06500009447336197 -1.020727276802063 0.009870256297290325 0.0 0.0 0.0 0.0
3.533 0.3016655445098877 -0.07231797277927399 -1.0222997665405273 0.042210664600133896 0.0 0.0 0.0 0.0
3.534 0.301400750875473 -0.07990461587905884 -1.020743727684021 0.07667596638202667 0.0 0.0 0.0 0.0
3.535 0.2992945909500122 -0.0880572497844696 -1.0186243057250977 0.11054585129022598 0.0 0.0 0.0 0.0
3.536 0.298318088054657 -0.09490413218736649 -1.0170273780822754 0.1419449895620346 0.0 0.0 0.0 0.0
3.537 0.29724204540252686 -0.1015886515378952 -1.013413906097412 0.17569288611412048 0.0 0.0 0.0 0.0
3.538 0.29544270038604736 -0.1088121086359024 -1.009106159210205 0.21003122627735138 0.0 0.0 0.0 0.0
3.539 0.29328498244285583 -0.11732025444507599 -1.003745675086975 0.24368290603160858 0.0 0.0 0.0 0.0
3.54 0.28871583938598633 -0.1260315328836441 -0.992851972579956 0.28450191020965576 0.0 0.0 0.0 0.0
3.541 0.2872036397457123 -0.13144426047801971 -0.9864798188209534 0.3115086257457733 0.0 0.0 0.0 0.0
3.542 0.284946084022522 -0.1386437565088272 -0.9781246781349182 0.34634172916412354 0.0 0.0 0.0 0.0
3.543 0.28072407841682434 -0.1469373255968094 -0.9681529998779297 0.37866365909576416 0.0 0.0 0.0 0.0
3.544 0.2770025134086609 -0.15450842678546906 -0.955942690372467 0.4128815531730652 0.0 0.0 0.0 0.0
3.545 0.2745305597782135 -0.15734218060970306 -0.9478594660758972 0.4352792501449585 0.0 0.0 0.0 0.0
3.546 0.2692131996154785 -0.16559691727161407 -0.9324696660041809 0.4714066982269287 0.0 0.0 0.0 0.0
3.547 0.263979434967041 -0.17406289279460907 -0.9166576266288757 0.506515383720398 0.0 0.0 0.0 0.0
3.548 0.25942322611808777 -0.17910748720169067 -0.9015979170799255 0.5349982380867004 0.0 0.0 0.0 0.0
3.549 0.25507912039756775 -0.18516789376735687 -0.8855298757553101 0.5655734539031982 0.0 0.0 0.0 0.0
3.55 0.24888798594474792 -0.19245709478855133 -0.8649620413780212 0.6018012166023254 0.0 0.0 0.0 0.0
3.551 0.24333621561527252 -0.1968661993741989 -0.8527302742004395 0.6217634081840515 0.0 0.0 0.0 0.0
3.552 0.23819933831691742 -0.2021731436252594 -0.8319292068481445 0.654743492603302 0.0 0.0 0.0 0.0
3.553 0.23026099801063538 -0.2094174176454544 -0.8046857714653015 0.6883960962295532 0.0 0.0 0.0 0.0
3.554 0.22451220452785492 -0.21388882398605347 -0.7890885472297668 0.7112409472465515 0.0 0.0 0.0 0.0
3.555 0.21889479458332062 -0.21888189017772675 -0.7642788887023926 0.7421753406524658 0.0 0.0 0.0 0.0
3.556 0.21329402923583984 -0.2214869111776352 -0.7418918013572693 0.764284074306488 0.0 0.0 0.0 0.0
3.557 0.20674125850200653 -0.2261469066143036 -0.7178255915641785 0.7936195731163025 0.0 0.0 0.0 0.0
3.558 0.19868163764476776 -0.23102842271327972 -0.6939391493797302 0.8174715638160706 0.0 0.0 0.0 0.0
3.559 0.19240766763687134 -0.23329487442970276 -0.6683792471885681 0.8418736457824707 0.0 0.0 0.0 0.0
3.56 0.18525075912475586 -0.23622477054595947 -0.6440069675445557 0.8638998866081238 0.0 0.0 0.0 0.0
3.561 0.17594732344150543 -0.24050703644752502 -0.6069679260253906 0.8916694521903992 0.0 0.0 0.0 0.0
3.562 0.17059382796287537 -0.2428155243396759 -0.5823694467544556 0.9148445725440979 0.0 0.0 0.0 0.0
3.563 0.16341912746429443 -0.24343018233776093 -0.5570251941680908 0.9324086904525757 0.0 0.0 0.0 0.0
3.564 0.15177100896835327 -0.24754446744918823 -0.5157859921455383 0.9593433141708374 0.0 0.0 0.0 0.0
3.565 0.14703018963336945 -0.24862684309482574 -0.4923577308654785 0.9735944271087646 0.0 0.0 0.0 0.0
3.566 0.14051175117492676 -0.24906101822853088 -0.4639415442943573 0.9909053444862366 0.0 0.0 0.0 0.0
3.567 0.1325463056564331 -0.25085872411727905 -0.42666319012641907 1.0104920864105225 0.0 0.0 0.0 0.0
3.568 0.12320353835821152 -0.2511361837387085 -0.3931272327899933 1.0270121097564697 0.0 0.0 0.0 0.0
3.569 0.11537715047597885 -0.2518600523471832 -0.3611847162246704 1.0408519506454468 0.0 0.0 0.0 0.0
3.57 0.10917145758867264 -0.250944584608078 -0.3271198570728302 1.0550044775009155 0.0 0.0 0.0 0.0
3.571 0.10095413029193878 -0.2510099411010742 -0.28689125180244446 1.0710777044296265 0.0 0.0 0.0 0.0
3.572 0.0932496190071106 -0.2502395212650299 -0.25637462735176086 1.0819578170776367 0.0 0.0 0.0 0.0
3.573 0.08593160659074783 -0.24891966581344604 -0.22073780000209808 1.0945407152175903 0.0 0.0 0.0 0.0
3.574 0.0787094309926033 -0.24755525588989258 -0.17997021973133087 1.1036875247955322 0.0 0.0 0.0 0.0
3.575 0.07104247063398361 -0.2455328404903412 -0.13922809064388275 1.11214280128479 0.0 0.0 0.0 0.0
3.576 0.0642622783780098 -0.24382531642913818 -0.10408961772918701 1.1223539113998413 0.0 0.0 0.0 0.0
3.577 0.057998910546302795 -0.2408832460641861 -0.06843078136444092 1.1256968975067139 0.0 0.0 0.0 0.0
3.578 0.04962189495563507 -0.23837263882160187 -0.025785382837057114 1.1292122602462769 0.0 0.0 0.0 0.0
3.579 0.04444970563054085 -0.2354072630405426 0.011127039790153503 1.1354355812072754 0.0 0.0 0.0 0.0
3.58 0.0388953760266304 -0.23155464231967926 0.048378728330135345 1.1354373693466187 0.0 0.0 0.0 0.0
3.581 0.032807882875204086 -0.22829991579055786 0.09126931428909302 1.1348563432693481 0.0 0.0 0.0 0.0
3.582 0.025952154770493507 -0.2243969887495041 0.13370870053768158 1.1351268291473389 0.0 0.0 0.0 0.0
3.583 0.020221859216690063 -0.22032175958156586 0.17795898020267487 1.1311359405517578 0.0 0.0 0.0 0.0
3.584 0.016075441613793373 -0.21607717871665955 0.20969685912132263 1.12828528881073 0.0 0.0 0.0 0.0
3.585 0.011625748127698898 -0.21101517975330353 0.2520406246185303 1.1216890811920166 0.0 0.0 0.0 0.0
3.586 0.006288699805736542 -0.20649193227291107 0.29420363903045654 1.116193175315857 0.0 0.0 0.0 0.0
3.587 0.0019015604630112648 -0.2024890035390854 0.32408323884010315 1.111677885055542 0.0 0.0 0.0 0.0
3.588 -0.0024887900799512863 -0.19793398678302765 0.3703452944755554 1.1068764925003052 0.0 0.0 0.0 0.0
3.589 -0.004113997332751751 -0.19209472835063934 0.40226149559020996 1.0927791595458984 0.0 0.0 0.0 0.0
3.59 -0.010427161119878292 -0.186265766620636 0.45238086581230164 1.07487952709198 0.0 0.0 0.0 0.0
3.591 -0.012760366313159466 -0.1813744306564331 0.48636162281036377 1.0629339218139648 0.0 0.0 0.0 0.0
3.592 -0.014732041396200657 -0.17556512355804443 0.5260286927223206 1.0453770160675049 0.0 0.0 0.0 0.0
3.593 -0.01664874702692032 -0.1698044240474701 0.5612053871154785 1.0316671133041382 0.0 0.0 0.0 0.0
3.594 -0.02049393020570278 -0.16451480984687805 0.6016768217086792 1.011875867843628 0.0 0.0 0.0 0.0
3.595 -0.0216341782361269 -0.15985044836997986 0.639025092124939 0.993816614151001 0.0 0.0 0.0 0.0
3.596 -0.022560082376003265 -0.15400907397270203 0.6733096241950989 0.9738540053367615 0.0 0.0 0.0 0.0
3.597 -0.02343258634209633 -0.14827324450016022 0.7092228531837463 0.9488710165023804 0.0 0.0 0.0 0.0
3.598 -0.024814365431666374 -0.14300128817558289 0.741743266582489 0.9280425906181335 0.0 0.0 0.0 0.0
3.599 -0.026618873700499535 -0.1379106640815735 0.784693717956543 0.8956601023674011 0.0 0.0 0.0 0.0
3.6 -0.0263835396617651 -0.13340021669864655 0.8221669793128967 0.8775609731674194 0.0 0.0 0.0 0.0
3.601 -0.026759305968880653 -0.12755590677261353 0.8538062572479248 0.8454545736312866 0.0 0.0 0.0 0.0
3.602 -0.027266990393400192 -0.12294591218233109 0.8857182860374451 0.8163555264472961 0.0 0.0 0.0 0.0
3.603 -0.026252998039126396 -0.11786115169525146 0.9142334461212158 0.7897478938102722 0.0 0.0 0.0 0.0
3.604 -0.025488298386335373 -0.11321404576301575 0.9466961026191711 0.7504827380180359 0.0 0.0 0.0 0.0
3.605 -0.024202264845371246 -0.10874941945075989 0.9671599268913269 0.7284879088401794 0.0 0.0 0.0 0.0
3.606 -0.024047303944826126 -0.10376634448766708 1.004981517791748 0.6805298328399658 0.0 0.0 0.0 0.0
3.607 -0.02248496375977993 -0.10029269754886627 1.0258249044418335 0.6529566645622253 0.0 0.0 0.0 0.0
3.608 -0.020496893674135208 -0.0966709554195404 1.0479862689971924 0.6208580136299133 0.0 0.0 0.0 0.0
3.609 -0.018056044355034828 -0.09228669106960297 1.0748361349105835 0.578018844127655 0.0 0.0 0.0 0.0
3.61 -0.016545221209526062 -0.08901975303888321 1.0966864824295044 0.5393596291542053 0.0 0.0 0.0 0.0
3.611 -0.015048312954604626 -0.08625703305006027 1.1156529188156128 0.5059573650360107 0.0 0.0 0.0 0.0
3.612 -0.01276407577097416 -0.0828673467040062 1.1365982294082642 0.46722930669784546 0.0 0.0 0.0 0.0
3.613 -0.010284903459250927 -0.08002710342407227 1.1537073850631714 0.4235820174217224 0.0 0.0 0.0 0.0
3.614 -0.008471050299704075 -0.07791560143232346 1.169165015220642 0.3848433196544647 0.0 0.0 0.0 0.0
3.615 -0.006339311599731445 -0.07463281601667404 1.1849298477172852 0.3410855233669281 0.0 0.0 0.0 0.0
3.616 -0.003658791072666645 -0.07296745479106903 1.1972380876541138 0.2950526773929596 0.0 0.0 0.0 0.0
3.617 -0.0013999463990330696 -0.07040636986494064 1.2085998058319092 0.26416388154029846 0.0 0.0 0.0 0.0
3.618 0.00011946726590394974 -0.06942058354616165 1.2195675373077393 0.2107112854719162 0.0 0.0 0.0 0.0
3.619 0.003233162686228752 -0.0666569173336029 1.2274426221847534 0.17743095755577087 0.0 0.0 0.0 0.0
3.62 0.005651882849633694 -0.06526053696870804 1.2345374822616577 0.13069690763950348 0.0 0.0 0.0 0.0
3.621 0.007306972518563271 -0.06384292989969254 1.2410398721694946 0.08499153703451157 0.0 0.0 0.0 0.0
3.622 0.008534085005521774 -0.06286019086837769 1.2435177564620972 0.04042681306600571 0.0 0.0 0.0 0.0
3.623 0.011012154631316662 -0.06216270849108696 1.2456518411636353 -0.003189641050994396 0.0 0.0 0.0 0.0
3.624 0.013765334151685238 -0.06173937767744064 1.2461333274841309 -0.0510404147207737 0.0 0.0 0.0 0.0
3.625 0.015792807564139366 -0.060850899666547775 1.2459442615509033 -0.09665900468826294 0.0 0.0 0.0 0.0
3.626 0.017389273270964622 -0.060054536908864975 1.2436774969100952 -0.1395270675420761 0.0 0.0 0.0 0.0
3.627 0.019112739711999893 -0.05941205099225044 1.239335536956787 -0.17769068479537964 0.0 0.0 0.0 0.0
3.628 0.020918237045407295 -0.059609126299619675 1.2337783575057983 -0.22819828987121582 0.0 0.0 0.0 0.0
3.629 0.022811921313405037 -0.058820419013500214 1.226301908493042 -0.2704952359199524 0.0 0.0 0.0 0.0
3.63 0.02323291450738907 -0.059194646775722504 1.2181882858276367 -0.3094760775566101 0.0 0.0 0.0 0.0
3.631 0.02501189149916172 -0.05831534415483475 1.2076832056045532 -0.3527887463569641 0.0 0.0 0.0 0.0
3.632 0.026057010516524315 -0.05863441526889801 1.1960902214050293 -0.39637941122055054 0.0 0.0 0.0 0.0
3.633 0.026627089828252792 -0.05800831317901611 1.183625340461731 -0.43790724873542786 0.0 0.0 0.0 0.0
3.634 0.02782648801803589 -0.058612242341041565 1.1670355796813965 -0.48101675510406494 0.0 0.0 0.0 0.0
3.635 0.029089398682117462 -0.05798723176121712 1.1491928100585938 -0.5258133411407471 0.0 0.0 0.0 0.0
3.636 0.029185708612203598 -0.058406006544828415 1.12530517578125 -0.5745106935501099 0.0 0.0 0.0 0.0
3.637 0.02970968745648861 -0.05767562612891197 1.1135632991790771 -0.6034113168716431 0.0 0.0 0.0 0.0
3.638 0.030830800533294678 -0.05709776654839516 1.0973498821258545 -0.6389560699462891 0.0 0.0 0.0 0.0
3.639 0.030981188639998436 -0.05659613013267517 1.0677568912506104 -0.6867258548736572 0.0 0.0 0.0 0.0
3.64 0.03050811029970646 -0.057253289967775345 1.0409828424453735 -0.7306641340255737 0.0 0.0 0.0 0.0
3.641 0.03174775093793869 -0.056159503757953644 1.0217111110687256 -0.7597275376319885 0.0 0.0 0.0 0.0
3.642 0.031583111733198166 -0.05513622984290123 0.9945845603942871 -0.797494113445282 0.0 0.0 0.0 0.0
3.643 0.03190501406788826 -0.054820142686367035 0.9628202319145203 -0.8365285992622375 0.0 0.0 0.0 0.0
3.644 0.03175003454089165 -0.05393452197313309 0.9351881742477417 -0.8693047165870667 0.0 0.0 0.0 0.0
3.645 0.031330812722444534 -0.053939178586006165 0.905783474445343 -0.9015877842903137 0.0 0.0 0.0 0.0
3.646 0.0325336791574955 -0.05232282727956772 0.8757365345954895 -0.9331187605857849 0.0 0.0 0.0 0.0
3.647 0.03130172938108444 -0.05205601081252098 0.8395600318908691 -0.9659897089004517 0.0 0.0 0.0 0.0
3.648 0.030953116714954376 -0.04981587454676628 0.807181179523468 -0.9960879683494568 0.0 0.0 0.0 0.0
3.649 0.031641874462366104 -0.048652805387973785 0.7756919860839844 -1.0231064558029175 0.0 0.0 0.0 0.0
3.65 0.03162802755832672 -0.046942152082920074 0.7376796007156372 -1.052524209022522 0.0 0.0 0.0 0.0
3.651 0.03183061629533768 -0.04550602659583092 0.7039632201194763 -1.076835036277771 0.0 0.0 0.0 0.0
3.652 0.031912002712488174 -0.044087160378694534 0.6558862924575806 -1.109124779701233 0.0 0.0 0.0 0.0
3.653 0.032589755952358246 -0.04195679351687431 0.6279720067977905 -1.124072551727295 0.0 0.0 0.0 0.0
3.654 0.03202096372842789 -0.03981482610106468 0.5830664038658142 -1.1507542133331299 0.0 0.0 0.0 0.0
3.655 0.032597415149211884 -0.037264592945575714 0.5378758311271667 -1.1748809814453125 0.0 0.0 0.0 0.0
3.656 0.033150073140859604 -0.03562864288687706 0.49744316935539246 -1.1924575567245483 0.0 0.0 0.0 0.0
3.657 0.03411763533949852 -0.03236060217022896 0.4578220248222351 -1.2124460935592651 0.0 0.0 0.0 0.0
3.658 0.03511272370815277 -0.03040360100567341 0.4095591604709625 -1.2293199300765991 0.0 0.0 0.0 0.0
3.659 0.03628820180892944 -0.027483971789479256 0.3642454147338867 -1.24383544921875 0.0 0.0 0.0 0.0
3.66 0.037245288491249084 -0.02449624426662922 0.3257507085800171 -1.262468934059143 0.0 0.0 0.0 0.0
3.661 0.03822173923254013 -0.02177320420742035 0.2821575105190277 -1.2668203115463257 0.0 0.0 0.0 0.0
3.662 0.0406743548810482 -0.01856296882033348 0.23245514929294586 -1.2788366079330444 0.0 0.0 0.0 0.0
3.663 0.042032353579998016 -0.015801582485437393 0.18608315289020538 -1.2857451438903809 0.0 0.0 0.0 0.0
3.664 0.04394473880529404 -0.013048139400780201 0.1413096934556961 -1.2928191423416138 0.0 0.0 0.0 0.0
3.665 0.04634849727153778 -0.009329165332019329 0.09381818771362305 -1.3002468347549438 0.0 0.0 0.0 0.0
3.666 0.04849079251289368 -0.0061584822833538055 0.0483248345553875 -1.3001484870910645 0.0 0.0 0.0 0.0
3.667 0.051269154995679855 -0.0038467571139335632 -0.0014237677678465843 -1.3027366399765015 0.0 0.0 0.0 0.0
3.668 0.055061616003513336 -0.0008176835253834724 -0.05343259125947952 -1.3045499324798584 0.0 0.0 0.0 0.0
3.669 0.057389192283153534 0.0029766028746962547 -0.09087559580802917 -1.3025482892990112 0.0 0.0 0.0 0.0
3.67 0.06169092282652855 0.005029958672821522 -0.1380486637353897 -1.2974132299423218 0.0 0.0 0.0 0.0
3.671 0.06445065140724182 0.008290096186101437 -0.18310025334358215 -1.2932595014572144 0.0 0.0 0.0 0.0
3.672 0.06910663098096848 0.010171402245759964 -0.23893383145332336 -1.2822540998458862 0.0 0.0 0.0 0.0
3.673 0.07404646277427673 0.012866906821727753 -0.2796531319618225 -1.278232455253601 0.0 0.0 0.0 0.0
3.674 0.07795136421918869 0.015440627932548523 -0.3317817151546478 -1.2625521421432495 0.0 0.0 0.0 0.0
3.675 0.08237255364656448 0.017309917137026787 -0.3754948377609253 -1.2505457401275635 0.0 0.0 0.0 0.0
3.676 0.08783316612243652 0.019617002457380295 -0.41160038113594055 -1.2423973083496094 0.0 0.0 0.0 0.0
3.677 0.09263060986995697 0.021199116483330727 -0.4619646370410919 -1.2221050262451172 0.0 0.0 0.0 0.0
3.678 0.09769280254840851 0.023853067308664322 -0.5032920241355896 -1.2048815488815308 0.0 0.0 0.0 0.0
3.679 0.10447421669960022 0.024749524891376495 -0.5527538657188416 -1.1839561462402344 0.0 0.0 0.0 0.0
3.68 0.10920078307390213 0.025845147669315338 -0.5875439643859863 -1.165658950805664 0.0 0.0 0.0 0.0
3.681 0.1153176873922348 0.026238661259412766 -0.6356848478317261 -1.1427619457244873 0.0 0.0 0.0 0.0
3.682 0.121360644698143 0.027580352500081062 -0.6743351221084595 -1.1189273595809937 0.0 0.0 0.0 0.0
3.683 0.12781399488449097 0.026976581662893295 -0.7085188627243042 -1.0948270559310913 0.0 0.0 0.0 0.0
3.684 0.1339874267578125 0.025864699855446815 -0.7547584176063538 -1.0589849948883057 0.0 0.0 0.0 0.0
3.685 0.13993114233016968 0.02675076201558113 -0.7895241975784302 -1.0353437662124634 0.0 0.0 0.0 0.0
3.686 0.14639005064964294 0.025809206068515778 -0.8234474062919617 -1.0069992542266846 0.0 0.0 0.0 0.0
3.687 0.1535416692495346 0.025262001901865005 -0.861470639705658 -0.9753391146659851 0.0 0.0 0.0 0.0
3.688 0.15920592844486237 0.02314913459122181 -0.8901751041412354 -0.9452134966850281 0.0 0.0 0.0 0.0
3.689 0.16623543202877045 0.022214509546756744 -0.9226486682891846 -0.9163994789123535 0.0 0.0 0.0 0.0
3.69 0.17275533080101013 0.020046064630150795 -0.9590861797332764 -0.8750126361846924 0.0 0.0 0.0 0.0
3.691 0.17940016090869904 0.01744408905506134 -0.9850274920463562 -0.8465614318847656 0.0 0.0 0.0 0.0
3.692 0.1859273612499237 0.014669571071863174 -1.0127078294754028 -0.8118011951446533 0.0 0.0 0.0 0.0
3.693 0.19169464707374573 0.011778907850384712 -1.0404739379882812 -0.772226095199585 0.0 0.0 0.0 0.0
3.694 0.19712522625923157 0.007672484032809734 -1.0692578554153442 -0.7280622124671936 0.0 0.0 0.0 0.0
3.695 0.20404711365699768 0.005146698094904423 -1.087348222732544 -0.6986147165298462 0.0 0.0 0.0 0.0
3.696 0.2099485695362091 -0.0010830545797944069 -1.1138790845870972 -0.6488715410232544 0.0 0.0 0.0 0.0
3.697 0.21547125279903412 -0.0029160287231206894 -1.1309328079223633 -0.6154686808586121 0.0 0.0 0.0 0.0
3.698 0.22188998758792877 -0.009146168828010559 -1.155991554260254 -0.5712363123893738 0.0 0.0 0.0 0.0
3.699 0.22665713727474213 -0.014366533607244492 -1.1727352142333984 -0.5291446447372437 0.0 0.0 0.0 0.0
3.7 0.23111926019191742 -0.018225092440843582 -1.1870793104171753 -0.48696547746658325 0.0 0.0 0.0 0.0
3.701 0.23700116574764252 -0.02399543859064579 -1.2060706615447998 -0.43894413113594055 0.0 0.0 0.0 0.0
3.702 0.24101975560188293 -0.031068604439496994 -1.2182023525238037 -0.3994147479534149 0.0 0.0 0.0 0.0
3.703 0.24621886014938354 -0.035488009452819824 -1.2265101671218872 -0.3665618896484375 0.0 0.0 0.0 0.0
3.704 0.25028982758522034 -0.04263436421751976 -1.2384766340255737 -0.31611359119415283 0.0 0.0 0.0 0.0
3.705 0.2536485195159912 -0.050312530249357224 -1.2493423223495483 -0.26995140314102173 0.0 0.0 0.0 0.0
3.706 0.2568911612033844 -0.05698090419173241 -1.2546263933181763 -0.22590619325637817 0.0 0.0 0.0 0.0
3.707 0.2608536183834076 -0.06085238233208656 -1.258959174156189 -0.1919657588005066 0.0 0.0 0.0 0.0
3.708 0.26434266567230225 -0.07045646756887436 -1.2630747556686401 -0.14070671796798706 0.0 0.0 0.0 0.0
3.709 0.26496443152427673 -0.07698661834001541 -1.267228364944458 -0.09836766123771667 0.0 0.0 0.0 0.0
3.71 0.2682338356971741 -0.08378621190786362 -1.2673524618148804 -0.05651785060763359 0.0 0.0 0.0 0.0
3.711 0.2707628309726715 -0.09105049818754196 -1.2672275304794312 -0.013848143629729748 0.0 0.0 0.0 0.0
3.712 0.2704567611217499 -0.0995483249425888 -1.2649896144866943 0.03290552645921707 0.0 0.0 0.0 0.0
3.713 0.2729024291038513 -0.10769359022378922 -1.2620518207550049 0.07923153787851334 0.0 0.0 0.0 0.0
3.714 0.27501270174980164 -0.11262769997119904 -1.257827877998352 0.11475417762994766 0.0 0.0 0.0 0.0
3.715 0.27505436539649963 -0.12139973044395447 -1.2512871026992798 0.15869468450546265 0.0 0.0 0.0 0.0
3.716 0.27464014291763306 -0.12991516292095184 -1.2457799911499023 0.20429231226444244 0.0 0.0 0.0 0.0
3.717 0.27585601806640625 -0.13579808175563812 -1.2367807626724243 0.24426209926605225 0.0 0.0 0.0 0.0
3.718 0.2739684283733368 -0.14342021942138672 -1.2240639925003052 0.28862157464027405 0.0 0.0 0.0 0.0
3.719 0.2744099199771881 -0.15280576050281525 -1.2164978981018066 0.3279931843280792 0.0 0.0 0.0 0.0
3.72 0.2712811529636383 -0.15943865478038788 -1.2023087739944458 0.3690126836299896 0.0 0.0 0.0 0.0
3.721 0.2699339985847473 -0.16630341112613678 -1.1877498626708984 0.4032663106918335 0.0 0.0 0.0 0.0
3.722 0.2697691321372986 -0.17212970554828644 -1.1739273071289062 0.4445669651031494 0.0 0.0 0.0 0.0
3.723 0.2661378085613251 -0.18072709441184998 -1.1587419509887695 0.48316535353660583 0.0 0.0 0.0 0.0
3.724 0.2625661790370941 -0.18948447704315186 -1.1375664472579956 0.5252773761749268 0.0 0.0 0.0 0.0
3.725 0.2621050775051117 -0.19480155408382416 -1.1202411651611328 0.5619263052940369 0.0 0.0 0.0 0.0
3.726 0.26001429557800293 -0.2003784477710724 -1.1018394231796265 0.5986928343772888 0.0 0.0 0.0 0.0
3.727 0.25544098019599915 -0.20743048191070557 -1.0843243598937988 0.631938099861145 0.0 0.0 0.0 0.0
3.728 0.24929897487163544 -0.21588134765625 -1.0597630739212036 0.6683704853057861 0.0 0.0 0.0 0.0
3.729 0.24712322652339935 -0.21929456293582916 -1.0317277908325195 0.7081735134124756 0.0 0.0 0.0 0.0
3.73 0.24313247203826904 -0.22681929171085358 -1.0096867084503174 0.7421170473098755 0.0 0.0 0.0 0.0
3.731 0.2399861067533493 -0.2319066971540451 -0.9896174669265747 0.7687108516693115 0.0 0.0 0.0 0.0
3.732 0.23160190880298615 -0.23911152780056 -0.9565438628196716 0.8062050342559814 0.0 0.0 0.0 0.0
3.733 0.2289339303970337 -0.2429819107055664 -0.9317554235458374 0.8250292539596558 0.0 0.0 0.0 0.0
3.734 0.22564391791820526 -0.2444678395986557 -0.9182284474372864 0.8415071964263916 0.0 0.0 0.0 0.0
3.735 0.2161954939365387 -0.25231799483299255 -0.8717090487480164 0.8912713527679443 0.0 0.0 0.0 0.0
3.736 0.21186742186546326 -0.25673285126686096 -0.8471888899803162 0.9138199090957642 0.0 0.0 0.0 0.0
3.737 0.20682381093502045 -0.26039984822273254 -0.8217881917953491 0.9383453726768494 0.0 0.0 0.0 0.0
3.738 0.2019844800233841 -0.2623918950557709 -0.7904468774795532 0.9665117859840393 0.0 0.0 0.0 0.0
3.739 0.1981612741947174 -0.2656683027744293 -0.7557525038719177 0.9943974018096924 0.0 0.0 0.0 0.0
3.74 0.1903904676437378 -0.26912057399749756 -0.7205150127410889 1.0232582092285156 0.0 0.0 0.0 0.0
3.741 0.18661773204803467 -0.27139076590538025 -0.696967601776123 1.0411138534545898 0.0 0.0 0.0 0.0
3.742 0.17885848879814148 -0.2748357355594635 -0.6577187776565552 1.066480278968811 0.0 0.0 0.0 0.0
3.743 0.1722145527601242 -0.27575045824050903 -0.6166648268699646 1.0918258428573608 0.0 0.0 0.0 0.0
3.744 0.1643221080303192 -0.27969086170196533 -0.5766167044639587 1.1164493560791016 0.0 0.0 0.0 0.0
3.745 0.1611710488796234 -0.27959057688713074 -0.5567592978477478 1.1275041103363037 0.0 0.0 0.0 0.0
3.746 0.15584290027618408 -0.27991870045661926 -0.5098757743835449 1.1516293287277222 0.0 0.0 0.0 0.0
3.747 0.14863164722919464 -0.2811034619808197 -0.4653957188129425 1.1712726354599 0.0 0.0 0.0 0.0
3.748 0.14348219335079193 -0.28236228227615356 -0.43405017256736755 1.1834267377853394 0.0 0.0 0.0 0.0
3.749 0.136016383767128 -0.28222325444221497 -0.38455966114997864 1.204180359840393 0.0 0.0 0.0 0.0
3.75 0.13261768221855164 -0.28123483061790466 -0.3481423258781433 1.214585304260254 0.0 0.0 0.0 0.0
3.751 0.12503424286842346 -0.28085699677467346 -0.30840688943862915 1.2284595966339111 0.0 0.0 0.0 0.0
3.752 0.11993644386529922 -0.2801683843135834 -0.26648014783859253 1.241215705871582 0.0 0.0 0.0 0.0
3.753 0.11615058034658432 -0.2788925766944885 -0.23147371411323547 1.2497940063476562 0.0 0.0 0.0 0.0
3.754 0.11016841232776642 -0.2788776755332947 -0.1833091378211975 1.2606745958328247 0.0 0.0 0.0 0.0
3.755 0.10622147470712662 -0.2753009498119354 -0.14353446662425995 1.26756751537323 0.0 0.0 0.0 0.0
3.756 0.09980505704879761 -0.2731720507144928 -0.09491652250289917 1.2673759460449219 0.0 0.0 0.0 0.0
3.757 0.09531456232070923 -0.2729625999927521 -0.05520857498049736 1.2780641317367554 0.0 0.0 0.0 0.0
3.758 0.09184640645980835 -0.2688966691493988 -0.011619879864156246 1.2804330587387085 0.0 0.0 0.0 0.0
3.759 0.08750439435243607 -0.26730161905288696 0.03686635568737984 1.2801880836486816 0.0 0.0 0.0 0.0
3.76 0.08291418850421906 -0.26610225439071655 0.07773744314908981 1.284103274345398 0.0 0.0 0.0 0.0
3.761 0.07960675656795502 -0.26209619641304016 0.12326595187187195 1.2809271812438965 0.0 0.0 0.0 0.0
3.762 0.07772670686244965 -0.2584235668182373 0.17139145731925964 1.278171420097351 0.0 0.0 0.0 0.0
3.763 0.07177164405584335 -0.2568408250808716 0.21471646428108215 1.2745064496994019 0.0 0.0 0.0 0.0
3.764 0.07150012999773026 -0.2542981207370758 0.25817206501960754 1.2680498361587524 0.0 0.0 0.0 0.0
3.765 0.06874631345272064 -0.24906162917613983 0.2971774935722351 1.2609577178955078 0.0 0.0 0.0 0.0
3.766 0.06510550528764725 -0.24719546735286713 0.34760332107543945 1.2498986721038818 0.0 0.0 0.0 0.0
3.767 0.06364686042070389 -0.24401511251926422 0.3912096619606018 1.2379666566848755 0.0 0.0 0.0 0.0
3.768 0.06111016124486923 -0.23883967101573944 0.4284179210662842 1.2237739562988281 0.0 0.0 0.0 0.0
3.769 0.06097923964262009 -0.23645763099193573 0.4798145890235901 1.210893988609314 0.0 0.0 0.0 0.0
3.77 0.06125957891345024 -0.23220375180244446 0.5191975831985474 1.199398159980774 0.0 0.0 0.0 0.0
3.771 0.058494556695222855 -0.23044446110725403 0.5696770548820496 1.1749211549758911 0.0 0.0 0.0 0.0
3.772 0.060510214418172836 -0.22660714387893677 0.5965614318847656 1.1623773574829102 0.0 0.0 0.0 0.0
3.773 0.0581175722181797 -0.2230370193719864 0.6544799208641052 1.1373629570007324 0.0 0.0 0.0 0.0
3.774 0.06015516072511673 -0.22091633081436157 0.6916519999504089 1.1154303550720215 0.0 0.0 0.0 0.0
3.775 0.0585109181702137 -0.21971093118190765 0.7251330614089966 1.0949207544326782 0.0 0.0 0.0 0.0
3.776 0.061402689665555954 -0.21712590754032135 0.7778378129005432 1.0627589225769043 0.0 0.0 0.0 0.0
3.777 0.060486145317554474 -0.21425190567970276 0.8042070269584656 1.0384790897369385 0.0 0.0 0.0 0.0
3.778 0.06110134720802307 -0.2099609225988388 0.8415226340293884 1.0153617858886719 0.0 0.0 0.0 0.0
3.779 0.06309400498867035 -0.2072652131319046 0.8752810955047607 0.9859787821769714 0.0 0.0 0.0 0.0
3.78 0.06261331588029861 -0.20514753460884094 0.9206592440605164 0.9491071105003357 0.0 0.0 0.0 0.0
3.781 0.06663526594638824 -0.20578832924365997 0.9503465294837952 0.92088383436203 0.0 0.0 0.0 0.0
3.782 0.06688722223043442 -0.2031775861978531 0.974452018737793 0.8920158743858337 0.0 0.0 0.0 0.0
3.783 0.0675654336810112 -0.20279985666275024 1.0134934186935425 0.8511651754379272 0.0 0.0 0.0 0.0
3.784 0.06957472860813141 -0.20015093684196472 1.0412027835845947 0.8188806772232056 0.0 0.0 0.0 0.0
3.785 0.071879543364048 -0.19996416568756104 1.0760021209716797 0.7741206288337708 0.0 0.0 0.0 0.0
3.786 0.07562633603811264 -0.19975075125694275 1.1006072759628296 0.7400354743003845 0.0 0.0 0.0 0.0
3.787 0.0757150650024414 -0.2000778466463089 1.1263915300369263 0.6985307335853577 0.0 0.0 0.0 0.0
3.788 0.07768096774816513 -0.19817493855953217 1.1553956270217896 0.6537829637527466 0.0 0.0 0.0 0.0
3.789 0.0802646204829216 -0.19947658479213715 1.1716669797897339 0.6248867511749268 0.0 0.0 0.0 0.0
3.79 0.08207488805055618 -0.2013637125492096 1.2010265588760376 0.5697511434555054 0.0 0.0 0.0 0.0
3.791 0.08529146760702133 -0.1994248926639557 1.2156615257263184 0.5368390083312988 0.0 0.0 0.0 0.0
3.792 0.08032023161649704 -0.2021077275276184 1.2415227890014648 0.4743463695049286 0.0 0.0 0.0 0.0
3.793 0.0874197855591774 -0.20063835382461548 1.2489991188049316 0.45256975293159485 0.0 0.0 0.0 0.0
3.794 0.0880715399980545 -0.20507951080799103 1.269957184791565 0.3958544135093689 0.0 0.0 0.0 0.0
3.795 0.08697587251663208 -0.20585863292217255 1.2820391654968262 0.35174059867858887 0.0 0.0 0.0 0.0
3.796 0.09139399230480194 -0.20720157027244568 1.2965686321258545 0.3089764416217804 0.0 0.0 0.0 0.0
3.797 0.09350211918354034 -0.20994694530963898 1.3048319816589355 0.2601047456264496 0.0 0.0 0.0 0.0
3.798 0.09119011461734772 -0.21062010526657104 1.3124496936798096 0.2140931487083435 0.0 0.0 0.0 0.0
3.799 0.09402874857187271 -0.21219690144062042 1.320454478263855 0.1708134412765503 0.0 0.0 0.0 0.0
3.8 0.09366941452026367 -0.21658430993556976 1.3245095014572144 0.11806199699640274 0.0 0.0 0.0 0.0
3.801 0.09258481860160828 -0.21871832013130188 1.3261873722076416 0.07172960042953491 0.0 0.0 0.0 0.0
3.802 0.09352783113718033 -0.2192421555519104 1.3307106494903564 0.02410837821662426 0.0 0.0 0.0 0.0
3.803 0.08994456380605698 -0.22145219147205353 1.3295468091964722 -0.021043401211500168 0.0 0.0 0.0 0.0
3.804 0.09156762808561325 -0.22632047533988953 1.3251858949661255 -0.0708264634013176 0.0 0.0 0.0 0.0
3.805 0.09293852001428604 -0.22840319573879242 1.3230009078979492 -0.11307182908058167 0.0 0.0 0.0 0.0
3.806 0.08946885168552399 -0.23137663304805756 1.3152244091033936 -0.16600367426872253 0.0 0.0 0.0 0.0
3.807 0.09101121872663498 -0.23229564726352692 1.3148990869522095 -0.20819254219532013 0.0 0.0 0.0 0.0
3.808 0.0875362753868103 -0.23433837294578552 1.3026950359344482 -0.25653743743896484 0.0 0.0 0.0 0.0
3.809 0.08564221113920212 -0.2379874885082245 1.2943332195281982 -0.2983090281486511 0.0 0.0 0.0 0.0
3.81 0.08249951899051666 -0.24131163954734802 1.2810044288635254 -0.3453659415245056 0.0 0.0 0.0 0.0
3.811 0.08171878755092621 -0.24288755655288696 1.2714608907699585 -0.38899263739585876 0.0 0.0 0.0 0.0
3.812 0.07832157611846924 -0.24386350810527802 1.252706527709961 -0.4335797131061554 0.0 0.0 0.0 0.0
3.813 0.0774172767996788 -0.24820435047149658 1.2359033823013306 -0.4812479019165039 0.0 0.0 0.0 0.0
3.814 0.07615910470485687 -0.24800696969032288 1.2227672338485718 -0.5170619487762451 0.0 0.0 0.0 0.0
3.815 0.07162892073392868 -0.2521486282348633 1.1997253894805908 -0.5650044083595276 0.0 0.0 0.0 0.0
3.816 0.06770967692136765 -0.25197139382362366 1.1809557676315308 -0.6017476916313171 0.0 0.0 0.0 0.0
3.817 0.06469935923814774 -0.25304973125457764 1.1599934101104736 -0.6511033773422241 0.0 0.0 0.0 0.0
3.818 0.060949597507715225 -0.25658831000328064 1.1342766284942627 -0.690793514251709 0.0 0.0 0.0 0.0
3.819 0.05599130317568779 -0.25587812066078186 1.1118272542953491 -0.7278255820274353 0.0 0.0 0.0 0.0
3.82 0.053716812282800674 -0.2581735849380493 1.0789538621902466 -0.7710707783699036 0.0 0.0 0.0 0.0
3.821 0.05039576068520546 -0.25824278593063354 1.0583510398864746 -0.80378258228302 0.0 0.0 0.0 0.0
3.822 0.04579411819577217 -0.25741589069366455 1.0275238752365112 -0.8435066938400269 0.0 0.0 0.0 0.0
3.823 0.04284288361668587 -0.25872090458869934 0.99969083070755 -0.8761366009712219 0.0 0.0 0.0 0.0
3.824 0.03639626130461693 -0.2578875422477722 0.9663839936256409 -0.9086752533912659 0.0 0.0 0.0 0.0
3.825 0.03160376101732254 -0.25461843609809875 0.9359325766563416 -0.9452706575393677 0.0 0.0 0.0 0.0
3.826 0.028845900669693947 -0.2551388442516327 0.9058383703231812 -0.9759901762008667 0.0 0.0 0.0 0.0
3.827 0.025486355647444725 -0.25432664155960083 0.8670002818107605 -1.0106182098388672 0.0 0.0 0.0 0.0
3.828 0.017263228073716164 -0.25080549716949463 0.8251518607139587 -1.034880518913269 0.0 0.0 0.0 0.0
3.829 0.013402283191680908 -0.2526789903640747 0.7927945256233215 -1.06816565990448 0.0 0.0 0.0 0.0
3.83 0.009629875421524048 -0.2490989863872528 0.7552168369293213 -1.095086693763733 0.0 0.0 0.0 0.0
3.831 0.00784579198807478 -0.24835284054279327 0.7259591817855835 -1.117449402809143 0.0 0.0 0.0 0.0
3.832 -0.0007482217624783516 -0.24453073740005493 0.6715351343154907 -1.1494736671447754 0.0 0.0 0.0 0.0
3.833 -0.00025599636137485504 -0.24037151038646698 0.6433225870132446 -1.1695905923843384 0.0 0.0 0.0 0.0
3.834 -0.0053226882591843605 -0.23870569467544556 0.5983866453170776 -1.1909948587417603 0.0 0.0 0.0 0.0
3.835 -0.011873469687998295 -0.23335380852222443 0.5428174138069153 -1.2161723375320435 0.0 0.0 0.0 0.0
3.836 -0.01248183287680149 -0.22908994555473328 0.5059008598327637 -1.2343847751617432 0.0 0.0 0.0 0.0
3.837 -0.016230488196015358 -0.22514685988426208 0.4723236858844757 -1.2455427646636963 0.0 0.0 0.0 0.0
3.838 -0.020742792636156082 -0.2181439995765686 0.4163464307785034 -1.2703948020935059 0.0 0.0 0.0 0.0
3.839 -0.01993364840745926 -0.21471688151359558 0.38342592120170593 -1.2800419330596924 0.0 0.0 0.0 0.0
3.84 -0.026743793860077858 -0.21092526614665985 0.3259495794773102 -1.2944062948226929 0.0 0.0 0.0 0.0
3.841 -0.027155175805091858 -0.20417925715446472 0.2894156873226166 -1.3105199337005615 0.0 0.0 0.0 0.0
3.842 -0.030226407572627068 -0.1994582563638687 0.2423260509967804 -1.313410997390747 0.0 0.0 0.0 0.0
3.843 -0.029355080798268318 -0.19518063962459564 0.19915315508842468 -1.3231040239334106 0.0 0.0 0.0 0.0
3.844 -0.03213118389248848 -0.18765191733837128 0.1463683545589447 -1.3309437036514282 0.0 0.0 0.0 0.0
3.845 -0.030791256576776505 -0.1827046126127243 0.09668946266174316 -1.3377745151519775 0.0 0.0 0.0 0.0
3.846 -0.02990628220140934 -0.17717382311820984 0.05257182568311691 -1.3409377336502075 0.0 0.0 0.0 0.0
3.847 -0.03338339552283287 -0.16848969459533691 0.0006017424166202545 -1.3416197299957275 0.0 0.0 0.0 0.0
3.848 -0.03273629769682884 -0.1656619906425476 -0.05177707225084305 -1.3388093709945679 0.0 0.0 0.0 0.0
3.849 -0.030721241608262062 -0.15877510607242584 -0.09430880099534988 -1.33970046043396 0.0 0.0 0.0 0.0
3.85 -0.0317247249186039 -0.1490689516067505 -0.13843661546707153 -1.335141897201538 0.0 0.0 0.0 0.0
3.851 -0.027676917612552643 -0.14380508661270142 -0.19190053641796112 -1.32966148853302 0.0 0.0 0.0 0.0
3.852 -0.026122942566871643 -0.13953076303005219 -0.2501974105834961 -1.3204072713851929 0.0 0.0 0.0 0.0
3.853 -0.02636231668293476 -0.1321347951889038 -0.28804948925971985 -1.309493064880371 0.0 0.0 0.0 0.0
3.854 -0.02242235466837883 -0.12930096685886383 -0.33168157935142517 -1.2985910177230835 0.0 0.0 0.0 0.0
3.855 -0.020655661821365356 -0.12239713221788406 -0.38284584879875183 -1.2830946445465088 0.0 0.0 0.0 0.0
3.856 -0.01654500886797905 -0.11298388242721558 -0.433950275182724 -1.2680752277374268 0.0 0.0 0.0 0.0
3.857 -0.01218048669397831 -0.10948673635721207 -0.46729132533073425 -1.2588708400726318 0.0 0.0 0.0 0.0
3.858 -0.009817798621952534 -0.10529947280883789 -0.519379198551178 -1.2327438592910767 0.0 0.0 0.0 0.0
3.859 -0.0031412458047270775 -0.09941898286342621 -0.5641903877258301 -1.2170817852020264 0.0 0.0 0.0 0.0
3.86 0.0007235035300254822 -0.09735505282878876 -0.6127777099609375 -1.1877896785736084 0.0 0.0 0.0 0.0
3.861 0.007501330226659775 -0.08977572619915009 -0.6475930213928223 -1.1739705801010132 0.0 0.0 0.0 0.0
3.862 0.009067868813872337 -0.08910545706748962 -0.6909869313240051 -1.1417598724365234 0.0 0.0 0.0 0.0
3.863 0.01763298735022545 -0.08105627447366714 -0.7330136299133301 -1.116779088973999 0.0 0.0 0.0 0.0
3.864 0.022370455786585808 -0.07937681674957275 -0.7723797559738159 -1.080845594406128 0.0 0.0 0.0 0.0
3.865 0.029177716001868248 -0.07628597319126129 -0.8080311417579651 -1.0584945678710938 0.0 0.0 0.0 0.0
3.866 0.03600407764315605 -0.07480230927467346 -0.8436969518661499 -1.0244030952453613 0.0 0.0 0.0 0.0
3.867 0.04502447694540024 -0.06919318437576294 -0.8855873942375183 -0.9887127876281738 0.0 0.0 0.0 0.0
3.868 0.05159507691860199 -0.06828426569700241 -0.9178383350372314 -0.9608004689216614 0.0 0.0 0.0 0.0
3.869 0.0571812242269516 -0.0655880868434906 -0.9470483660697937 -0.9291048645973206 0.0 0.0 0.0 0.0
3.87 0.06445179134607315 -0.06444137543439865 -0.9787408113479614 -0.8920170664787292 0.0 0.0 0.0 0.0
3.871 0.07139226049184799 -0.06443604826927185 -1.0141327381134033 -0.8488868474960327 0.0 0.0 0.0 0.0
3.872 0.07632973790168762 -0.06321784853935242 -1.040083408355713 -0.8077813386917114 0.0 0.0 0.0 0.0
3.873 0.0840827003121376 -0.06403981894254684 -1.062637448310852 -0.7747267484664917 0.0 0.0 0.0 0.0
3.874 0.09131565690040588 -0.0660993829369545 -1.089735984802246 -0.7270013689994812 0.0 0.0 0.0 0.0
3.875 0.09749775379896164 -0.06639030575752258 -1.1136761903762817 -0.6876287460327148 0.0 0.0 0.0 0.0
3.876 0.10324712842702866 -0.06793932616710663 -1.1388572454452515 -0.6395681500434875 0.0 0.0 0.0 0.0
3.877 0.11205752193927765 -0.06993219256401062 -1.1523388624191284 -0.6065371036529541 0.0 0.0 0.0 0.0
3.878 0.11757156252861023 -0.07210251688957214 -1.1793653964996338 -0.5495377779006958 0.0 0.0 0.0 0.0
3.879 0.125336691737175 -0.07128404080867767 -1.189896583557129 -0.5179882645606995 0.0 0.0 0.0 0.0
3.88 0.13381348550319672 -0.07597575336694717 -1.206284523010254 -0.48051688075065613 0.0 0.0 0.0 0.0
3.881 0.13711729645729065 -0.0801277831196785 -1.2183175086975098 -0.4267021715641022 0.0 0.0 0.0 0.0
3.882 0.14398136734962463 -0.08068804442882538 -1.2289619445800781 -0.39093974232673645 0.0 0.0 0.0 0.0
3.883 0.15006256103515625 -0.0868375226855278 -1.2407097816467285 -0.3357067406177521 0.0 0.0 0.0 0.0
3.884 0.1549491286277771 -0.0883135125041008 -1.2465131282806396 -0.3009905219078064 0.0 0.0 0.0 0.0
3.885 0.1592661589384079 -0.09610779583454132 -1.2540185451507568 -0.24141785502433777 0.0 0.0 0.0 0.0
3.886 0.16664257645606995 -0.09725761413574219 -1.2611750364303589 -0.20557868480682373 0.0 0.0 0.0 0.0
3.887 0.16827093064785004 -0.10325132310390472 -1.260053277015686 -0.16048668324947357 0.0 0.0 0.0 0.0
3.888 0.17396217584609985 -0.10646487772464752 -1.2645816802978516 -0.12218276411294937 0.0 0.0 0.0 0.0
3.889 0.1798599362373352 -0.11315058916807175 -1.2669117450714111 -0.06514362245798111 0.0 0.0 0.0 0.0
3.89 0.1824958175420761 -0.11623203754425049 -1.262449026107788 -0.026760214939713478 0.0 0.0 0.0 0.0
3.891 0.18498460948467255 -0.12330950796604156 -1.258901596069336 0.022495534271001816 0.0 0.0 0.0 0.0
3.892 0.18935514986515045 -0.12984776496887207 -1.253074288368225 0.060474250465631485 0.0 0.0 0.0 0.0
3.893 0.1929859071969986 -0.13307566940784454 -1.2495412826538086 0.10270607471466064 0.0 0.0 0.0 0.0
3.894 0.19674092531204224 -0.13990071415901184 -1.2432128190994263 0.1510465294122696 0.0 0.0 0.0 0.0
3.895 0.19626635313034058 -0.1443777084350586 -1.232594609260559 0.18695160746574402 0.0 0.0 0.0 0.0
3.896 0.20035088062286377 -0.150790274143219 -1.2252769470214844 0.2280340939760208 0.0 0.0 0.0 0.0
3.897 0.20057019591331482 -0.15896821022033691 -1.2101794481277466 0.27356812357902527 0.0 0.0 0.0 0.0
3.898 0.20107093453407288 -0.16340334713459015 -1.1990388631820679 0.3131793141365051 0.0 0.0 0.0 0.0
3.899 0.2021123170852661 -0.170383483171463 -1.1826627254486084 0.3534511625766754 0.0 0.0 0.0 0.0
3.9 0.20306524634361267 -0.1730165183544159 -1.1732898950576782 0.38453415036201477 0.0 0.0 0.0 0.0
3.901 0.2052559107542038 -0.18212111294269562 -1.156548023223877 0.4283527433872223 0.0 0.0 0.0 0.0
3.902 0.2024015337228775 -0.18517079949378967 -1.134851336479187 0.4652382731437683 0.0 0.0 0.0 0.0
3.903 0.20263881981372833 -0.19258590042591095 -1.1134084463119507 0.5060123205184937 0.0 0.0 0.0 0.0
3.904 0.20411936938762665 -0.1966393142938614 -1.0983253717422485 0.5413989424705505 0.0 0.0 0.0 0.0
3.905 0.20249421894550323 -0.20596662163734436 -1.0767067670822144 0.5771802663803101 0.0 0.0 0.0 0.0
3.906 0.20185403525829315 -0.20528705418109894 -1.0562797784805298 0.608337938785553 0.0 0.0 0.0 0.0
3.907 0.2014813870191574 -0.21336482465267181 -1.0314476490020752 0.645753800868988 0.0 0.0 0.0 0.0
3.908 0.1968982070684433 -0.2159014195203781 -1.006775140762329 0.6765672564506531 0.0 0.0 0.0 0.0
3.909 0.19475805759429932 -0.22131197154521942 -0.9811858534812927 0.7113794684410095 0.0 0.0 0.0 0.0
3.91 0.1944514364004135 -0.22623051702976227 -0.9561135768890381 0.7451412677764893 0.0 0.0 0.0 0.0
3.911 0.19428952038288116 -0.22977514564990997 -0.9291359186172485 0.7733194231987 0.0 0.0 0.0 0.0
3.912 0.19258850812911987 -0.2354913204908371 -0.9063280820846558 0.8009291291236877 0.0 0.0 0.0 0.0
3.913 0.18849137425422668 -0.23786099255084991 -0.8752591013908386 0.8339388370513916 0.0 0.0 0.0 0.0
3.914 0.18574513494968414 -0.24333468079566956 -0.8428190350532532 0.8639933466911316 0.0 0.0 0.0 0.0
3.915 0.18397514522075653 -0.24491700530052185 -0.8158815503120422 0.8872107863426208 0.0 0.0 0.0 0.0
3.916 0.18180857598781586 -0.25122231245040894 -0.787937581539154 0.9132968783378601 0.0 0.0 0.0 0.0
3.917 0.1765504777431488 -0.2527729272842407 -0.7527723908424377 0.9365572929382324 0.0 0.0 0.0 0.0
3.918 0.1755112260580063 -0.25666043162345886 -0.716805100440979 0.9657589197158813 0.0 0.0 0.0 0.0
3.919 0.17165197432041168 -0.2570429742336273 -0.6874602437019348 0.9823501110076904 0.0 0.0 0.0 0.0
3.92 0.16846096515655518 -0.2625413239002228 -0.6506360173225403 1.0080718994140625 0.0 0.0 0.0 0.0
3.921 0.16517400741577148 -0.2605379521846771 -0.6178468465805054 1.0250779390335083 0.0 0.0 0.0 0.0
3.922 0.16176293790340424 -0.2637806832790375 -0.5858020782470703 1.0442789793014526 0.0 0.0 0.0 0.0
3.923 0.16300898790359497 -0.2652680277824402 -0.5532425045967102 1.0652530193328857 0.0 0.0 0.0 0.0
3.924 0.15594017505645752 -0.2669069170951843 -0.507267415523529 1.0820332765579224 0.0 0.0 0.0 0.0
3.925 0.15348629653453827 -0.2671774923801422 -0.4735727906227112 1.1020877361297607 0.0 0.0 0.0 0.0
3.926 0.15298709273338318 -0.2696569859981537 -0.43535518646240234 1.1167017221450806 0.0 0.0 0.0 0.0
3.927 0.14806123077869415 -0.27063143253326416 -0.3920411467552185 1.1292427778244019 0.0 0.0 0.0 0.0
3.928 0.14591267704963684 -0.2697097063064575 -0.35938435792922974 1.1400636434555054 0.0 0.0 0.0 0.0
3.929 0.14332391321659088 -0.2738722860813141 -0.31762319803237915 1.157206416130066 0.0 0.0 0.0 0.0
3.93 0.14024068415164948 -0.2719440460205078 -0.2816166579723358 1.1637797355651855 0.0 0.0 0.0 0.0
3.931 0.14014354348182678 -0.2715506851673126 -0.24502801895141602 1.1743266582489014 0.0 0.0 0.0 0.0
3.932 0.13905386626720428 -0.27458491921424866 -0.20313864946365356 1.1836870908737183 0.0 0.0 0.0 0.0
3.933 0.13264405727386475 -0.27497008442878723 -0.15243346989154816 1.1904609203338623 0.0 0.0 0.0 0.0
3.934 0.13424652814865112 -0.2717628479003906 -0.12172555178403854 1.1959456205368042 0.0 0.0 0.0 0.0
3.935 0.13290584087371826 -0.2733427882194519 -0.07995884120464325 1.197347640991211 0.0 0.0 0.0 0.0
3.936 0.13128985464572906 -0.2734641134738922 -0.03220057114958763 1.1963173151016235 0.0 0.0 0.0 0.0
3.937 0.12789775431156158 -0.2729093134403229 0.006438608281314373 1.1994454860687256 0.0 0.0 0.0 0.0
3.938 0.12604527175426483 -0.2733146846294403 0.05299287661910057 1.2000364065170288 0.0 0.0 0.0 0.0
3.939 0.12751401960849762 -0.27313271164894104 0.0868564173579216 1.1972795724868774 0.0 0.0 0.0 0.0
3.94 0.12633125483989716 -0.27002814412117004 0.13155782222747803 1.1941665410995483 0.0 0.0 0.0 0.0
3.941 0.1260274052619934 -0.27208447456359863 0.17943024635314941 1.1893095970153809 0.0 0.0 0.0 0.0
3.942 0.12555035948753357 -0.2719355821609497 0.218034565448761 1.1837939023971558 0.0 0.0 0.0 0.0
3.943 0.123854860663414 -0.27063533663749695 0.25853249430656433 1.1729671955108643 0.0 0.0 0.0 0.0
3.944 0.12630879878997803 -0.2701740562915802 0.2974499464035034 1.1677006483078003 0.0 0.0 0.0 0.0
3.945 0.12419910728931427 -0.27048978209495544 0.333933562040329 1.1559054851531982 0.0 0.0 0.0 0.0
3.946 0.12282001227140427 -0.2714380919933319 0.3869663178920746 1.1409369707107544 0.0 0.0 0.0 0.0
3.947 0.12610802054405212 -0.2712235748767853 0.41581884026527405 1.1288777589797974 0.0 0.0 0.0 0.0
3.948 0.12499623000621796 -0.2696801424026489 0.46076855063438416 1.1094355583190918 0.0 0.0 0.0 0.0
3.949 0.1276809424161911 -0.27256762981414795 0.5006632208824158 1.0951316356658936 0.0 0.0 0.0 0.0
3.95 0.12707215547561646 -0.2715786397457123 0.5386250615119934 1.0770058631896973 0.0 0.0 0.0 0.0
3.951 0.12937110662460327 -0.2710946202278137 0.573752224445343 1.0554780960083008 0.0 0.0 0.0 0.0
3.952 0.12845586240291595 -0.27444660663604736 0.6184564232826233 1.0286736488342285 0.0 0.0 0.0 0.0
3.953 0.12918542325496674 -0.273910790681839 0.655089259147644 1.006661057472229 0.0 0.0 0.0 0.0
3.954 0.13138678669929504 -0.275494784116745 0.6863603591918945 0.9870070219039917 0.0 0.0 0.0 0.0
3.955 0.13193389773368835 -0.27900347113609314 0.7197931408882141 0.9590175747871399 0.0 0.0 0.0 0.0
3.956 0.13291184604167938 -0.27943652868270874 0.7583522796630859 0.929890513420105 0.0 0.0 0.0 0.0
3.957 0.1306537687778473 -0.28105732798576355 0.7861587405204773 0.90292888879776 0.0 0.0 0.0 0.0
3.958 0.13404864072799683 -0.2842278480529785 0.815226674079895 0.8756692409515381 0.0 0.0 0.0 0.0
3.959 0.1371779441833496 -0.2860032618045807 0.843238353729248 0.8458114266395569 0.0 0.0 0.0 0.0
3.96 0.13789132237434387 -0.288443386554718 0.8769254684448242 0.8107284903526306 0.0 0.0 0.0 0.0
3.961 0.13752640783786774 -0.29007411003112793 0.9044356942176819 0.7791408896446228 0.0 0.0 0.0 0.0
3.962 0.13746093213558197 -0.29302069544792175 0.9312952756881714 0.7433562874794006 0.0 0.0 0.0 0.0
3.963 0.1406410038471222 -0.29575076699256897 0.9539316296577454 0.7107208967208862 0.0 0.0 0.0 0.0
3.964 0.13496218621730804 -0.30190131068229675 0.980485737323761 0.666858971118927 0.0 0.0 0.0 0.0
3.965 0.1393110305070877 -0.3037179708480835 1.000352382659912 0.6390712261199951 0.0 0.0 0.0 0.0
3.966 0.1380486935377121 -0.30869874358177185 1.0216763019561768 0.599918007850647 0.0 0.0 0.0 0.0
3.967 0.13647963106632233 -0.31107744574546814 1.037148118019104 0.5621302127838135 0.0 0.0 0.0 0.0
3.968 0.1384917050600052 -0.3137969672679901 1.05722177028656 0.5237017869949341 0.0 0.0 0.0 0.0
3.969 0.13659682869911194 -0.3193153142929077 1.0752962827682495 0.47736990451812744 0.0 0.0 0.0 0.0
3.97 0.13535502552986145 -0.3214704990386963 1.0866169929504395 0.4421601891517639 0.0 0.0 0.0 0.0
3.971 0.1354273110628128 -0.3273578882217407 1.100296974182129 0.40258145332336426 0.0 0.0 0.0 0.0
3.972 0.1304914951324463 -0.33261412382125854 1.1099257469177246 0.36106398701667786 0.0 0.0 0.0 0.0
3.973 0.13058242201805115 -0.3333880603313446 1.1194616556167603 0.32680439949035645 0.0 0.0 0.0 0.0
3.974 0.1293698251247406 -0.3405316472053528 1.128165364265442 0.28084245324134827 0.0 0.0 0.0 0.0
3.975 0.12869636714458466 -0.3429311215877533 1.132653832435608 0.2512691915035248 0.0 0.0 0.0 0.0
3.976 0.12420956045389175 -0.34859785437583923 1.1416826248168945 0.1999771147966385 0.0 0.0 0.0 0.0
3.977 0.12066484242677689 -0.3525416851043701 1.141933798789978 0.1613132506608963 0.0 0.0 0.0 0.0
3.978 0.1173701137304306 -0.3554539382457733 1.1424994468688965 0.12470732629299164 0.0 0.0 0.0 0.0
3.979 0.11536336690187454 -0.3594914376735687 1.1462193727493286 0.08084797859191895 0.0 0.0 0.0 0.0
3.98 0.10827884823083878 -0.3644402027130127 1.1443140506744385 0.041382111608982086 0.0 0.0 0.0 0.0
3.981 0.10619562119245529 -0.367403119802475 1.1419252157211304 0.008168966509401798 0.0 0.0 0.0 0.0
3.982 0.10518486052751541 -0.37232986092567444 1.1389524936676025 -0.035473067313432693 0.0 0.0 0.0 0.0
3.983 0.09947103261947632 -0.37582141160964966 1.133743166923523 -0.06863568723201752 0.0 0.0 0.0 0.0
3.984 0.09221432358026505 -0.3769654333591461 1.1280452013015747 -0.11336685717105865 0.0 0.0 0.0 0.0
3.985 0.09068138152360916 -0.3838391900062561 1.1210927963256836 -0.1531311273574829 0.0 0.0 0.0 0.0
3.986 0.08452069014310837 -0.38383591175079346 1.1120439767837524 -0.18617495894432068 0.0 0.0 0.0 0.0
3.987 0.08065202087163925 -0.38753873109817505 1.105655312538147 -0.21985740959644318 0.0 0.0 0.0 0.0
3.988 0.07145780324935913 -0.3938012421131134 1.0919933319091797 -0.25756365060806274 0.0 0.0 0.0 0.0
3.989 0.06860542297363281 -0.3926573395729065 1.0818006992340088 -0.2940526604652405 0.0 0.0 0.0 0.0
3.99 0.06265757232904434 -0.3953438997268677 1.068034052848816 -0.3302050232887268 0.0 0.0 0.0 0.0
3.991 0.055079136043787 -0.39883363246917725 1.0522311925888062 -0.3648172914981842 0.0 0.0 0.0 0.0
3.992 0.05011774227023125 -0.39974603056907654 1.0375865697860718 -0.40007534623146057 0.0 0.0 0.0 0.0
3.993 0.04241454601287842 -0.40100958943367004 1.0221556425094604 -0.43672075867652893 0.0 0.0 0.0 0.0
3.994 0.03604431077837944 -0.4024712145328522 1.0041592121124268 -0.4646322429180145 0.0 0.0 0.0 0.0
3.995 0.030710631981492043 -0.4038112759590149 0.9873581528663635 -0.4978407621383667 0.0 0.0 0.0 0.0
3.996 0.023289695382118225 -0.40513354539871216 0.9704025983810425 -0.52776700258255 0.0 0.0 0.0 0.0
3.997 0.015107487328350544 -0.4038717448711395 0.948436975479126 -0.5586000680923462 0.0 0.0 0.0 0.0
3.998 0.011697763577103615 -0.40398865938186646 0.9326123595237732 -0.5867626667022705 0.0 0.0 0.0 0.0
3.999 -0.0022785943001508713 -0.40406665205955505 0.9036718010902405 -0.625774621963501 0.0 0.0 0.0 0.0
4.0 -0.0010524196550250053 -0.4042356312274933 0.89110267162323 -0.6421864032745361 0.0 0.0 0.0 0.0
