!Created with skrf (http://scikit-rf.org).
# GHz S RI R 50.0 
!freq ReS11 ImS11 ReS21 ImS21 ReS12 ImS12 ReS22 ImS22
0.001 -0.14442455768585205 -0.05000681057572365 1.299395203590393 -0.07968683540821075 0.0 0.0 0.0 0.0
0.002 -0.09919838607311249 0.007851989008486271 1.099470615386963 -0.15344256162643433 0.0 0.0 0.0 0.0
0.003 -0.07973881810903549 0.02600606344640255 1.046836495399475 -0.18862323462963104 0.0 0.0 0.0 0.0
0.004 -0.06817763298749924 0.03221982717514038 1.007169485092163 -0.21577832102775574 0.0 0.0 0.0 0.0
0.005 -0.05656833574175835 0.03474536910653114 0.9774298667907715 -0.23254859447479248 0.0 0.0 0.0 0.0
0.006 -0.05035989731550217 0.035845059901475906 0.9615062475204468 -0.2550508379936218 0.0 0.0 0.0 0.0
0.007 -0.04335663095116615 0.036275867372751236 0.9394500851631165 -0.27145713567733765 0.0 0.0 0.0 0.0
0.008 -0.0392620749771595 0.0357409231364727 0.929244339466095 -0.29856860637664795 0.0 0.0 0.0 0.0
0.009 -0.03425132483243942 0.035045474767684937 0.9184944033622742 -0.31540948152542114 0.0 0.0 0.0 0.0
0.01 -0.030563639476895332 0.03574309125542641 0.9025354385375977 -0.3414611220359802 0.0 0.0 0.0 0.0
0.011 -0.027594512328505516 0.0361010916531086 0.8922602534294128 -0.3643237054347992 0.0 0.0 0.0 0.0
0.012 -0.023300230503082275 0.03404812887310982 0.8796671628952026 -0.38746917247772217 0.0 0.0 0.0 0.0
0.013 -0.020062366500496864 0.03382788971066475 0.8712841868400574 -0.41271087527275085 0.0 0.0 0.0 0.0
0.014 -0.017582884058356285 0.0329275019466877 0.8585309386253357 -0.44022923707962036 0.0 0.0 0.0 0.0
0.015 -0.013595975004136562 0.032690878957509995 0.8382487893104553 -0.46472421288490295 0.0 0.0 0.0 0.0
0.016 -0.010987034067511559 0.03063574619591236 0.8280982375144958 -0.49291324615478516 0.0 0.0 0.0 0.0
0.017 -0.007576386444270611 0.03058100864291191 0.8098241686820984 -0.5144442319869995 0.0 0.0 0.0 0.0
0.018 -0.005224498920142651 0.028072243556380272 0.798137903213501 -0.5413010716438293 0.0 0.0 0.0 0.0
0.019 -0.0031462600454688072 0.027984291315078735 0.7814459204673767 -0.5657246708869934 0.0 0.0 0.0 0.0
0.02 0.0004421453922986984 0.025664716958999634 0.7581064701080322 -0.5911053419113159 0.0 0.0 0.0 0.0
0.021 0.0025604115799069405 0.024586623534560204 0.7397804260253906 -0.6132954359054565 0.0 0.0 0.0 0.0
0.022 0.005740845575928688 0.022101998329162598 0.7179425358772278 -0.6338273882865906 0.0 0.0 0.0 0.0
0.023 0.008588519878685474 0.019679512828588486 0.6999587416648865 -0.6577262282371521 0.0 0.0 0.0 0.0
0.024 0.009377551265060902 0.01725461706519127 0.6788036823272705 -0.6823795437812805 0.0 0.0 0.0 0.0
0.025 0.012498943135142326 0.01432355958968401 0.6542618274688721 -0.7011024355888367 0.0 0.0 0.0 0.0
0.026 0.015352343209087849 0.01184990257024765 0.6384763717651367 -0.7238135933876038 0.0 0.0 0.0 0.0
0.027 0.016213946044445038 0.007985623553395271 0.6122364401817322 -0.7443618774414062 0.0 0.0 0.0 0.0
0.028 0.01695912517607212 0.006061196327209473 0.585338830947876 -0.7662633061408997 0.0 0.0 0.0 0.0
0.029 0.019499002024531364 0.0032661166042089462 0.558699905872345 -0.7815555930137634 0.0 0.0 0.0 0.0
0.03 0.02022385783493519 -0.000864718109369278 0.5370380282402039 -0.7977330684661865 0.0 0.0 0.0 0.0
0.031 0.021875282749533653 -0.0036275815218687057 0.5131224393844604 -0.8181463479995728 0.0 0.0 0.0 0.0
0.032 0.021307310089468956 -0.007206815294921398 0.47986263036727905 -0.8350454568862915 0.0 0.0 0.0 0.0
0.033 0.022210314869880676 -0.011776276864111423 0.4582837224006653 -0.8528613448143005 0.0 0.0 0.0 0.0
0.034 0.02263062447309494 -0.01495647244155407 0.43114370107650757 -0.8669705986976624 0.0 0.0 0.0 0.0
0.035 0.02244105376303196 -0.018474500626325607 0.40004244446754456 -0.8798933625221252 0.0 0.0 0.0 0.0
0.036 0.021896440535783768 -0.020811745896935463 0.36977970600128174 -0.8907168507575989 0.0 0.0 0.0 0.0
0.037 0.022331973537802696 -0.024872614070773125 0.3402860462665558 -0.9003813862800598 0.0 0.0 0.0 0.0
0.038 0.021509718149900436 -0.028578799217939377 0.31371545791625977 -0.9152022004127502 0.0 0.0 0.0 0.0
0.039 0.020992770791053772 -0.033004146069288254 0.28416261076927185 -0.9236177802085876 0.0 0.0 0.0 0.0
0.04 0.019388768821954727 -0.035720095038414 0.24847225844860077 -0.9343289136886597 0.0 0.0 0.0 0.0
0.041 0.018083656206727028 -0.04000239446759224 0.21953512728214264 -0.944807231426239 0.0 0.0 0.0 0.0
0.042 0.016204318031668663 -0.042108532041311264 0.18622291088104248 -0.9467431902885437 0.0 0.0 0.0 0.0
0.043 0.014900638721883297 -0.044918596744537354 0.15685619413852692 -0.9529286623001099 0.0 0.0 0.0 0.0
0.044 0.013473120518028736 -0.04880306124687195 0.12577128410339355 -0.9546207785606384 0.0 0.0 0.0 0.0
0.045 0.010765084996819496 -0.05198531970381737 0.09678709506988525 -0.9637860655784607 0.0 0.0 0.0 0.0
0.046 0.008409833535552025 -0.05555955320596695 0.06217512860894203 -0.969706118106842 0.0 0.0 0.0 0.0
0.047 0.005281125195324421 -0.0573747418820858 0.030361220240592957 -0.9653854966163635 0.0 0.0 0.0 0.0
0.048 0.002856181003153324 -0.059093959629535675 -0.004464741796255112 -0.9643800854682922 0.0 0.0 0.0 0.0
0.049 0.0004332195967435837 -0.06285227835178375 -0.031033555045723915 -0.9636896848678589 0.0 0.0 0.0 0.0
0.05 -0.002631431445479393 -0.06455236673355103 -0.061346348375082016 -0.9657055139541626 0.0 0.0 0.0 0.0
0.051 -0.007485843263566494 -0.06656335294246674 -0.10024705529212952 -0.9619407653808594 0.0 0.0 0.0 0.0
0.052 -0.009668782353401184 -0.06743545830249786 -0.12891274690628052 -0.9548775553703308 0.0 0.0 0.0 0.0
0.053 -0.01188621949404478 -0.0699935331940651 -0.1571609526872635 -0.9544594287872314 0.0 0.0 0.0 0.0
0.054 -0.016081159934401512 -0.07167825102806091 -0.1870555877685547 -0.9476558566093445 0.0 0.0 0.0 0.0
0.055 -0.0206315740942955 -0.07239674776792526 -0.22035406529903412 -0.943256676197052 0.0 0.0 0.0 0.0
0.056 -0.024417243897914886 -0.07350781559944153 -0.25514405965805054 -0.9356353282928467 0.0 0.0 0.0 0.0
0.057 -0.02762417495250702 -0.07292360812425613 -0.2838806211948395 -0.921750545501709 0.0 0.0 0.0 0.0
0.058 -0.030393922701478004 -0.07396894693374634 -0.311318039894104 -0.91623854637146 0.0 0.0 0.0 0.0
0.059 -0.03544647619128227 -0.07456597685813904 -0.34277549386024475 -0.9060606956481934 0.0 0.0 0.0 0.0
0.06 -0.03902382403612137 -0.07370185106992722 -0.37489834427833557 -0.8913704752922058 0.0 0.0 0.0 0.0
0.061 -0.043068598955869675 -0.07287812978029251 -0.40324917435646057 -0.8793236613273621 0.0 0.0 0.0 0.0
0.062 -0.046617429703474045 -0.07234872877597809 -0.4325997531414032 -0.8653576374053955 0.0 0.0 0.0 0.0
0.063 -0.049392975866794586 -0.07142854481935501 -0.46059074997901917 -0.8494274020195007 0.0 0.0 0.0 0.0
0.064 -0.05403221398591995 -0.07082659006118774 -0.48898783326148987 -0.8360908627510071 0.0 0.0 0.0 0.0
0.065 -0.05670664459466934 -0.06904095411300659 -0.5144949555397034 -0.8148528337478638 0.0 0.0 0.0 0.0
0.066 -0.059891361743211746 -0.06757161766290665 -0.5408943295478821 -0.8024541139602661 0.0 0.0 0.0 0.0
0.067 -0.06257903575897217 -0.06624239683151245 -0.5650585889816284 -0.7822070121765137 0.0 0.0 0.0 0.0
0.068 -0.06672239303588867 -0.06492568552494049 -0.5919959545135498 -0.7664060592651367 0.0 0.0 0.0 0.0
0.069 -0.06953781098127365 -0.06317529082298279 -0.6183518767356873 -0.7481306195259094 0.0 0.0 0.0 0.0
0.07 -0.07247328013181686 -0.05973681062459946 -0.64323490858078 -0.7222051620483398 0.0 0.0 0.0 0.0
0.071 -0.0752716138958931 -0.05664292350411415 -0.6667792797088623 -0.7010997533798218 0.0 0.0 0.0 0.0
0.072 -0.07614140212535858 -0.05391371250152588 -0.6865585446357727 -0.6770556569099426 0.0 0.0 0.0 0.0
0.073 -0.07868431508541107 -0.051708776503801346 -0.7107707858085632 -0.6543545722961426 0.0 0.0 0.0 0.0
0.074 -0.08165723830461502 -0.047647781670093536 -0.7325092554092407 -0.6303086876869202 0.0 0.0 0.0 0.0
0.075 -0.08248826116323471 -0.045540519058704376 -0.74735027551651 -0.6092938184738159 0.0 0.0 0.0 0.0
0.076 -0.0844610258936882 -0.043794065713882446 -0.7729437947273254 -0.584562361240387 0.0 0.0 0.0 0.0
0.077 -0.08646701276302338 -0.03965797275304794 -0.789092481136322 -0.5596762299537659 0.0 0.0 0.0 0.0
0.078 -0.0874214693903923 -0.03496469929814339 -0.8107927441596985 -0.532276451587677 0.0 0.0 0.0 0.0
0.079 -0.08882586658000946 -0.03315215930342674 -0.8282144069671631 -0.5062984824180603 0.0 0.0 0.0 0.0
0.08 -0.08896340429782867 -0.028708897531032562 -0.8429129123687744 -0.47480085492134094 0.0 0.0 0.0 0.0
0.081 -0.088997021317482 -0.024377398192882538 -0.8561221361160278 -0.448727548122406 0.0 0.0 0.0 0.0
0.082 -0.08854660391807556 -0.02140888199210167 -0.8696259260177612 -0.4181064963340759 0.0 0.0 0.0 0.0
0.083 -0.08834980428218842 -0.01863788440823555 -0.883671760559082 -0.39111873507499695 0.0 0.0 0.0 0.0
0.084 -0.08866049349308014 -0.016014158725738525 -0.8958815932273865 -0.36499863862991333 0.0 0.0 0.0 0.0
0.085 -0.08862496167421341 -0.01142855454236269 -0.9118791818618774 -0.3318135440349579 0.0 0.0 0.0 0.0
0.086 -0.0877528190612793 -0.007995888590812683 -0.9204627871513367 -0.30157017707824707 0.0 0.0 0.0 0.0
0.087 -0.0864795446395874 -0.004607608541846275 -0.9278528690338135 -0.26989057660102844 0.0 0.0 0.0 0.0
0.088 -0.08432149887084961 -0.0012100888416171074 -0.9376409649848938 -0.24219869077205658 0.0 0.0 0.0 0.0
0.089 -0.08396207541227341 0.001479707658290863 -0.9462065696716309 -0.2090570032596588 0.0 0.0 0.0 0.0
0.09 -0.08125177770853043 0.004193468019366264 -0.950671911239624 -0.1756240576505661 0.0 0.0 0.0 0.0
0.091 -0.08070515841245651 0.007192396558821201 -0.9574756622314453 -0.14449287950992584 0.0 0.0 0.0 0.0
0.092 -0.07730825245380402 0.009707678109407425 -0.9575211405754089 -0.11358323693275452 0.0 0.0 0.0 0.0
0.093 -0.07443638145923615 0.011262919753789902 -0.9649852514266968 -0.08381369709968567 0.0 0.0 0.0 0.0
0.094 -0.07265254110097885 0.013378478586673737 -0.9645761847496033 -0.05400235578417778 0.0 0.0 0.0 0.0
0.095 -0.0708194226026535 0.015682900324463844 -0.9684251546859741 -0.023125335574150085 0.0 0.0 0.0 0.0
0.096 -0.06684811413288116 0.017094086855649948 -0.9671103358268738 0.009742709808051586 0.0 0.0 0.0 0.0
0.097 -0.06541211903095245 0.018673526123166084 -0.9651443362236023 0.043227799236774445 0.0 0.0 0.0 0.0
0.098 -0.0628274604678154 0.021462250500917435 -0.9656367897987366 0.07620252668857574 0.0 0.0 0.0 0.0
0.099 -0.05904621630907059 0.022818999364972115 -0.9608103036880493 0.110852912068367 0.0 0.0 0.0 0.0
0.1 -0.05535179004073143 0.02453199028968811 -0.9590756893157959 0.16196542978286743 0.0 0.0 0.0 0.0
0.101 -0.05026470124721527 0.023714197799563408 -0.9231685400009155 0.17979641258716583 0.0 0.0 0.0 0.0
0.102 -0.04731575399637222 0.024441570043563843 -0.9154148697853088 0.2100759893655777 0.0 0.0 0.0 0.0
0.103 -0.04498007893562317 0.024967841804027557 -0.9097191691398621 0.24294313788414001 0.0 0.0 0.0 0.0
0.104 -0.04129469767212868 0.024364572018384933 -0.9002998471260071 0.2698718309402466 0.0 0.0 0.0 0.0
0.105 -0.039025500416755676 0.02460036613047123 -0.8932895660400391 0.30101969838142395 0.0 0.0 0.0 0.0
0.106 -0.035123180598020554 0.023957131430506706 -0.8817633390426636 0.3274965286254883 0.0 0.0 0.0 0.0
0.107 -0.03280925005674362 0.023341991007328033 -0.8711426258087158 0.35961610078811646 0.0 0.0 0.0 0.0
0.108 -0.029411833733320236 0.021695083007216454 -0.8590090274810791 0.38584667444229126 0.0 0.0 0.0 0.0
0.109 -0.027123207226395607 0.021426431834697723 -0.8458646535873413 0.416667640209198 0.0 0.0 0.0 0.0
0.11 -0.024622943252325058 0.02002914622426033 -0.8324214816093445 0.4412710666656494 0.0 0.0 0.0 0.0
0.111 -0.021330416202545166 0.017542680725455284 -0.8179658651351929 0.4709499180316925 0.0 0.0 0.0 0.0
0.112 -0.018100354820489883 0.016655350103974342 -0.8004333972930908 0.4958343207836151 0.0 0.0 0.0 0.0
0.113 -0.017127670347690582 0.014869543723762035 -0.7850139737129211 0.5233980417251587 0.0 0.0 0.0 0.0
0.114 -0.014876303263008595 0.012451949529349804 -0.7659493684768677 0.5479799509048462 0.0 0.0 0.0 0.0
0.115 -0.011678251437842846 0.010638249106705189 -0.7501672506332397 0.5742537379264832 0.0 0.0 0.0 0.0
0.116 -0.010482536628842354 0.008338943123817444 -0.7280774712562561 0.5978161692619324 0.0 0.0 0.0 0.0
0.117 -0.008214691653847694 0.005361119285225868 -0.7098953723907471 0.6228776574134827 0.0 0.0 0.0 0.0
0.118 -0.007292428985238075 0.003596492111682892 -0.6878381967544556 0.6454421877861023 0.0 0.0 0.0 0.0
0.119 -0.005939450114965439 0.0006552468985319138 -0.6674268245697021 0.6688002943992615 0.0 0.0 0.0 0.0
0.12 -0.005277514457702637 -0.0020352788269519806 -0.643330454826355 0.6892778873443604 0.0 0.0 0.0 0.0
0.121 -0.00451438594609499 -0.005189625546336174 -0.6229371428489685 0.7102529406547546 0.0 0.0 0.0 0.0
0.122 -0.003186410292983055 -0.0087110735476017 -0.5979236960411072 0.7295374274253845 0.0 0.0 0.0 0.0
0.123 -0.0033073099330067635 -0.01172420009970665 -0.5743821263313293 0.7500520944595337 0.0 0.0 0.0 0.0
0.124 -0.0036092717200517654 -0.014292568899691105 -0.5485821962356567 0.7685151100158691 0.0 0.0 0.0 0.0
0.125 -0.0027508651837706566 -0.01704791747033596 -0.523033082485199 0.7839391231536865 0.0 0.0 0.0 0.0
0.126 -0.0036610960960388184 -0.020583564415574074 -0.4960138499736786 0.8035619258880615 0.0 0.0 0.0 0.0
0.127 -0.00384681299328804 -0.02271709032356739 -0.4701937735080719 0.8172325491905212 0.0 0.0 0.0 0.0
0.128 -0.0037676235660910606 -0.025461405515670776 -0.44267648458480835 0.8348652124404907 0.0 0.0 0.0 0.0
0.129 -0.005737051367759705 -0.028149420395493507 -0.41530048847198486 0.8464483618736267 0.0 0.0 0.0 0.0
0.13 -0.006828668527305126 -0.0322810560464859 -0.3865140378475189 0.8623203039169312 0.0 0.0 0.0 0.0
0.131 -0.007213960401713848 -0.033416423946619034 -0.3588235676288605 0.8717622756958008 0.0 0.0 0.0 0.0
0.132 -0.010023893788456917 -0.036867763847112656 -0.3283669054508209 0.8855797052383423 0.0 0.0 0.0 0.0
0.133 -0.010701577179133892 -0.03834813833236694 -0.3001922070980072 0.8931880593299866 0.0 0.0 0.0 0.0
0.134 -0.011969617567956448 -0.040970440953969955 -0.27118054032325745 0.906402587890625 0.0 0.0 0.0 0.0
0.135 -0.014145731925964355 -0.042925771325826645 -0.24166792631149292 0.9109587073326111 0.0 0.0 0.0 0.0
0.136 -0.017224714159965515 -0.04603453353047371 -0.2095879465341568 0.9217237830162048 0.0 0.0 0.0 0.0
0.137 -0.019245829433202744 -0.0465872548520565 -0.18038664758205414 0.924150824546814 0.0 0.0 0.0 0.0
0.138 -0.020518923178315163 -0.049136146903038025 -0.1500677764415741 0.9345007538795471 0.0 0.0 0.0 0.0
0.139 -0.024309508502483368 -0.05025339126586914 -0.11819429695606232 0.93550705909729 0.0 0.0 0.0 0.0
0.14 -0.026320340111851692 -0.05215992033481598 -0.0876978412270546 0.9413982629776001 0.0 0.0 0.0 0.0
0.141 -0.028994180262088776 -0.05215595290064812 -0.05798658728599548 0.9397574067115784 0.0 0.0 0.0 0.0
0.142 -0.03148363530635834 -0.05358202010393143 -0.02556552179157734 0.9465263485908508 0.0 0.0 0.0 0.0
0.143 -0.03505142778158188 -0.05437754467129707 0.00483342632651329 0.9432430863380432 0.0 0.0 0.0 0.0
0.144 -0.038184285163879395 -0.05436078459024429 0.03691274672746658 0.9439505338668823 0.0 0.0 0.0 0.0
0.145 -0.041067931801080704 -0.05457446724176407 0.06800360977649689 0.9402037858963013 0.0 0.0 0.0 0.0
0.146 -0.044205766171216965 -0.054569754749536514 0.09809362143278122 0.9395222067832947 0.0 0.0 0.0 0.0
0.147 -0.04560348019003868 -0.05448734387755394 0.12783367931842804 0.9348137378692627 0.0 0.0 0.0 0.0
0.148 -0.04954763874411583 -0.05391132831573486 0.15942153334617615 0.9307324886322021 0.0 0.0 0.0 0.0
0.149 -0.05216675624251366 -0.05265015363693237 0.19040125608444214 0.923869252204895 0.0 0.0 0.0 0.0
0.15 -0.05414189398288727 -0.0521375872194767 0.2195822298526764 0.9200633764266968 0.0 0.0 0.0 0.0
0.151 -0.05740353465080261 -0.05170999467372894 0.2497100681066513 0.9105138182640076 0.0 0.0 0.0 0.0
0.152 -0.0601709708571434 -0.049762167036533356 0.28000015020370483 0.9024384617805481 0.0 0.0 0.0 0.0
0.153 -0.06268704682588577 -0.048693664371967316 0.30937230587005615 0.8923121094703674 0.0 0.0 0.0 0.0
0.154 -0.06480717658996582 -0.046730805188417435 0.3382067084312439 0.8829666376113892 0.0 0.0 0.0 0.0
0.155 -0.0664583370089531 -0.04492100328207016 0.3662402033805847 0.8696841597557068 0.0 0.0 0.0 0.0
0.156 -0.06930894404649734 -0.04252507537603378 0.3933781385421753 0.8588664531707764 0.0 0.0 0.0 0.0
0.157 -0.07156284153461456 -0.0410170741379261 0.4249153137207031 0.8447039723396301 0.0 0.0 0.0 0.0
0.158 -0.0723053514957428 -0.03782094269990921 0.4497338831424713 0.8294877409934998 0.0 0.0 0.0 0.0
0.159 -0.07485540956258774 -0.03647644817829132 0.47984859347343445 0.8151671886444092 0.0 0.0 0.0 0.0
0.16 -0.07512346655130386 -0.0329970084130764 0.5021792054176331 0.7995679378509521 0.0 0.0 0.0 0.0
0.161 -0.07685507088899612 -0.02974412404000759 0.5309496521949768 0.782184362411499 0.0 0.0 0.0 0.0
0.162 -0.0771876722574234 -0.027238113805651665 0.5537433624267578 0.764411985874176 0.0 0.0 0.0 0.0
0.163 -0.07934462279081345 -0.024449452757835388 0.580541729927063 0.7457739114761353 0.0 0.0 0.0 0.0
0.164 -0.07891005277633667 -0.02217208780348301 0.6038630604743958 0.7270580530166626 0.0 0.0 0.0 0.0
0.165 -0.08025147765874863 -0.019114531576633453 0.6298366189002991 0.7061576843261719 0.0 0.0 0.0 0.0
0.166 -0.07969630509614944 -0.015582862310111523 0.6505593657493591 0.6839506030082703 0.0 0.0 0.0 0.0
0.167 -0.08018150925636292 -0.013154800981283188 0.6759716272354126 0.6640837788581848 0.0 0.0 0.0 0.0
0.168 -0.07915502041578293 -0.009290944784879684 0.6928852200508118 0.6406762599945068 0.0 0.0 0.0 0.0
0.169 -0.07816208899021149 -0.007389703765511513 0.7187533974647522 0.6199617981910706 0.0 0.0 0.0 0.0
0.17 -0.07712999731302261 -0.003953281790018082 0.734486997127533 0.5955547094345093 0.0 0.0 0.0 0.0
0.171 -0.0773623138666153 -0.0015017101541161537 0.7568636536598206 0.571127712726593 0.0 0.0 0.0 0.0
0.172 -0.07473532110452652 0.0015231911092996597 0.7724170684814453 0.5459800362586975 0.0 0.0 0.0 0.0
0.173 -0.0743846595287323 0.003934625536203384 0.7941542863845825 0.5211070775985718 0.0 0.0 0.0 0.0
0.174 -0.07285777479410172 0.007398407906293869 0.8093511462211609 0.4927084743976593 0.0 0.0 0.0 0.0
0.175 -0.07130444049835205 0.010004277341067791 0.8268480896949768 0.4664928913116455 0.0 0.0 0.0 0.0
0.176 -0.06878533214330673 0.012626624666154385 0.8381115794181824 0.4378167390823364 0.0 0.0 0.0 0.0
0.177 -0.06699050962924957 0.014252704568207264 0.8558932542800903 0.41352200508117676 0.0 0.0 0.0 0.0
0.178 -0.06368382275104523 0.01631849631667137 0.8678889870643616 0.38373130559921265 0.0 0.0 0.0 0.0
0.179 -0.06176494434475899 0.019165728241205215 0.8798359632492065 0.3551713228225708 0.0 0.0 0.0 0.0
0.18 -0.05908891186118126 0.02013951726257801 0.8922122120857239 0.3247109055519104 0.0 0.0 0.0 0.0
0.181 -0.055858463048934937 0.022170620039105415 0.9018999934196472 0.29712268710136414 0.0 0.0 0.0 0.0
0.182 -0.053037822246551514 0.02372986078262329 0.9101141691207886 0.2637079060077667 0.0 0.0 0.0 0.0
0.183 -0.04992382973432541 0.023911766707897186 0.9214737415313721 0.23748072981834412 0.0 0.0 0.0 0.0
0.184 -0.04610557109117508 0.024765316396951675 0.9276154041290283 0.2054882049560547 0.0 0.0 0.0 0.0
0.185 -0.04387225955724716 0.026262706145644188 0.9345294833183289 0.17602944374084473 0.0 0.0 0.0 0.0
0.186 -0.04020935297012329 0.027126850560307503 0.9380341172218323 0.14293555915355682 0.0 0.0 0.0 0.0
0.187 -0.03615409508347511 0.027008095756173134 0.9428510665893555 0.11383414268493652 0.0 0.0 0.0 0.0
0.188 -0.03351885825395584 0.026615818962454796 0.9485306143760681 0.0805320292711258 0.0 0.0 0.0 0.0
0.189 -0.029490407556295395 0.027035167440772057 0.9491397738456726 0.05221828073263168 0.0 0.0 0.0 0.0
0.19 -0.025936100631952286 0.026349591091275215 0.9506165981292725 0.020379889756441116 0.0 0.0 0.0 0.0
0.191 -0.02338889054954052 0.025398019701242447 0.9519451856613159 -0.012987816706299782 0.0 0.0 0.0 0.0
0.192 -0.02001647651195526 0.023943094536662102 0.9523558020591736 -0.044858936220407486 0.0 0.0 0.0 0.0
0.193 -0.015997255221009254 0.02333408035337925 0.9483860731124878 -0.0741976648569107 0.0 0.0 0.0 0.0
0.194 -0.013700250536203384 0.021687474101781845 0.9457608461380005 -0.11015162616968155 0.0 0.0 0.0 0.0
0.195 -0.010385742411017418 0.020091582089662552 0.9429939389228821 -0.1375417858362198 0.0 0.0 0.0 0.0
0.196 -0.0075377970933914185 0.017461825162172318 0.9389767050743103 -0.17027314007282257 0.0 0.0 0.0 0.0
0.197 -0.004785111173987389 0.015972312539815903 0.9316917061805725 -0.19909028708934784 0.0 0.0 0.0 0.0
0.198 -0.0010505365207791328 0.013840196654200554 0.9263709783554077 -0.23056374490261078 0.0 0.0 0.0 0.0
0.199 0.0010346462950110435 0.011841597966849804 0.9149385094642639 -0.2592846751213074 0.0 0.0 0.0 0.0
0.2 0.003717837855219841 0.009031509980559349 0.909227192401886 -0.29021137952804565 0.0 0.0 0.0 0.0
0.201 0.005033405497670174 0.005950768478214741 0.8959739208221436 -0.32071229815483093 0.0 0.0 0.0 0.0
0.202 0.007462267763912678 0.003492402844130993 0.8874264359474182 -0.3496722877025604 0.0 0.0 0.0 0.0
0.203 0.008897322230041027 0.00040121376514434814 0.8724509477615356 -0.3787049949169159 0.0 0.0 0.0 0.0
0.204 0.010082073509693146 -0.0026146555319428444 0.8608741164207458 -0.4108666777610779 0.0 0.0 0.0 0.0
0.205 0.012139326892793179 -0.007339560426771641 0.8480185270309448 -0.4340457618236542 0.0 0.0 0.0 0.0
0.206 0.013879535719752312 -0.009909660555422306 0.8333973288536072 -0.46354439854621887 0.0 0.0 0.0 0.0
0.207 0.0135598573833704 -0.012944106012582779 0.8155770897865295 -0.49232223629951477 0.0 0.0 0.0 0.0
0.208 0.015419266186654568 -0.01733000949025154 0.8022387027740479 -0.5182744264602661 0.0 0.0 0.0 0.0
0.209 0.015273367054760456 -0.02110564149916172 0.7832587957382202 -0.5436909794807434 0.0 0.0 0.0 0.0
0.21 0.014958847314119339 -0.023722490295767784 0.764628529548645 -0.5718474984169006 0.0 0.0 0.0 0.0
0.211 0.015178166329860687 -0.02688070759177208 0.7433027625083923 -0.5944759249687195 0.0 0.0 0.0 0.0
0.212 0.015625040978193283 -0.03092251718044281 0.724324643611908 -0.6196630597114563 0.0 0.0 0.0 0.0
0.213 0.01503422949463129 -0.03441781550645828 0.7016206979751587 -0.6431324481964111 0.0 0.0 0.0 0.0
0.214 0.013644658029079437 -0.038426198065280914 0.68461012840271 -0.6673257946968079 0.0 0.0 0.0 0.0
0.215 0.013164252042770386 -0.04117221385240555 0.6581535339355469 -0.6879695653915405 0.0 0.0 0.0 0.0
0.216 0.011522825807332993 -0.045182131230831146 0.6378429532051086 -0.7114022970199585 0.0 0.0 0.0 0.0
0.217 0.010864448733627796 -0.04837987944483757 0.6131436824798584 -0.7282692193984985 0.0 0.0 0.0 0.0
0.218 0.00872886274009943 -0.052157118916511536 0.5910306572914124 -0.7502493858337402 0.0 0.0 0.0 0.0
0.219 0.007357986643910408 -0.055113110691308975 0.5645315051078796 -0.768904447555542 0.0 0.0 0.0 0.0
0.22 0.004819191992282867 -0.057535428553819656 0.5378795266151428 -0.7864997386932373 0.0 0.0 0.0 0.0
0.221 0.002301689237356186 -0.06125389039516449 0.5135245323181152 -0.8064790964126587 0.0 0.0 0.0 0.0
0.222 -0.0005030352622270584 -0.06305978447198868 0.48487603664398193 -0.8210290670394897 0.0 0.0 0.0 0.0
0.223 -0.0027805184945464134 -0.06633999198675156 0.4587981402873993 -0.8380140662193298 0.0 0.0 0.0 0.0
0.224 -0.005146985873579979 -0.06806886196136475 0.4330516755580902 -0.8508127331733704 0.0 0.0 0.0 0.0
0.225 -0.009020647965371609 -0.0702001303434372 0.4004345238208771 -0.8678175210952759 0.0 0.0 0.0 0.0
0.226 -0.011387879028916359 -0.07171331346035004 0.3736622631549835 -0.878028392791748 0.0 0.0 0.0 0.0
0.227 -0.014178936369717121 -0.07393734157085419 0.34617939591407776 -0.8916124105453491 0.0 0.0 0.0 0.0
0.228 -0.017838334664702415 -0.07385661453008652 0.31529751420021057 -0.8974758386611938 0.0 0.0 0.0 0.0
0.229 -0.020604852586984634 -0.07499555498361588 0.2860979437828064 -0.9101389050483704 0.0 0.0 0.0 0.0
0.23 -0.02406972646713257 -0.076316237449646 0.25733044743537903 -0.9187189936637878 0.0 0.0 0.0 0.0
0.231 -0.02790825068950653 -0.07631402462720871 0.22490699589252472 -0.928135097026825 0.0 0.0 0.0 0.0
0.232 -0.03201918303966522 -0.07758858054876328 0.19417457282543182 -0.9342294335365295 0.0 0.0 0.0 0.0
0.233 -0.0340915322303772 -0.07802913337945938 0.16548240184783936 -0.9421207308769226 0.0 0.0 0.0 0.0
0.234 -0.03811123967170715 -0.07771056890487671 0.13389578461647034 -0.9457255601882935 0.0 0.0 0.0 0.0
0.235 -0.0415913425385952 -0.07788842171430588 0.10142399370670319 -0.9527009129524231 0.0 0.0 0.0 0.0
0.236 -0.04444160684943199 -0.07609555125236511 0.07025109231472015 -0.949931800365448 0.0 0.0 0.0 0.0
0.237 -0.04914280027151108 -0.07512903213500977 0.03809550032019615 -0.9561444520950317 0.0 0.0 0.0 0.0
0.238 -0.050940632820129395 -0.07471304386854172 0.008525676093995571 -0.9527537226676941 0.0 0.0 0.0 0.0
0.239 -0.05540916323661804 -0.07408645749092102 -0.025673754513263702 -0.9580468535423279 0.0 0.0 0.0 0.0
0.24 -0.05791350081562996 -0.07272830605506897 -0.049770537763834 -0.9558284282684326 0.0 0.0 0.0 0.0
0.241 -0.0611208975315094 -0.0711073949933052 -0.08700815588235855 -0.9549049735069275 0.0 0.0 0.0 0.0
0.242 -0.06275025010108948 -0.06842423975467682 -0.11710261553525925 -0.9474104046821594 0.0 0.0 0.0 0.0
0.243 -0.06683924794197083 -0.06567919999361038 -0.15118277072906494 -0.9454455375671387 0.0 0.0 0.0 0.0
0.244 -0.06901747733354568 -0.0645858496427536 -0.17826145887374878 -0.9398691654205322 0.0 0.0 0.0 0.0
0.245 -0.07035739719867706 -0.06160406395792961 -0.21158799529075623 -0.9331059455871582 0.0 0.0 0.0 0.0
0.246 -0.07356036454439163 -0.05882523953914642 -0.24177780747413635 -0.925684928894043 0.0 0.0 0.0 0.0
0.247 -0.07442159950733185 -0.056052494794130325 -0.273097962141037 -0.918645977973938 0.0 0.0 0.0 0.0
0.248 -0.0769255980849266 -0.05368781462311745 -0.3008607029914856 -0.9092100262641907 0.0 0.0 0.0 0.0
0.249 -0.07824584096670151 -0.050974879413843155 -0.32995370030403137 -0.9004580974578857 0.0 0.0 0.0 0.0
0.25 -0.07894984632730484 -0.046982452273368835 -0.36279869079589844 -0.8849554061889648 0.0 0.0 0.0 0.0
0.251 -0.07977990806102753 -0.044161275029182434 -0.3891032040119171 -0.87442547082901 0.0 0.0 0.0 0.0
0.252 -0.08192688226699829 -0.04093514382839203 -0.4213450253009796 -0.8629369735717773 0.0 0.0 0.0 0.0
0.253 -0.0813300684094429 -0.03765351325273514 -0.44633403420448303 -0.850441038608551 0.0 0.0 0.0 0.0
0.254 -0.08228997886180878 -0.03391987085342407 -0.4781532287597656 -0.8316908478736877 0.0 0.0 0.0 0.0
0.255 -0.0814138799905777 -0.031278353184461594 -0.5013013482093811 -0.8174984455108643 0.0 0.0 0.0 0.0
0.256 -0.08156521618366241 -0.027165507897734642 -0.5304407477378845 -0.7991675734519958 0.0 0.0 0.0 0.0
0.257 -0.08094695955514908 -0.024518027901649475 -0.5538908243179321 -0.7828958630561829 0.0 0.0 0.0 0.0
0.258 -0.07994282990694046 -0.022185686975717545 -0.5818847417831421 -0.7651523947715759 0.0 0.0 0.0 0.0
0.259 -0.07902275025844574 -0.01899236999452114 -0.605659544467926 -0.7458715438842773 0.0 0.0 0.0 0.0
0.26 -0.07792976498603821 -0.015804462134838104 -0.6322561502456665 -0.7258647680282593 0.0 0.0 0.0 0.0
0.261 -0.07599267363548279 -0.011935126967728138 -0.6521337628364563 -0.7033266425132751 0.0 0.0 0.0 0.0
0.262 -0.07606592029333115 -0.008911574259400368 -0.6807326674461365 -0.6815263628959656 0.0 0.0 0.0 0.0
0.263 -0.07269667088985443 -0.006030803546309471 -0.6988964080810547 -0.6592345237731934 0.0 0.0 0.0 0.0
0.264 -0.0709046870470047 -0.004562126472592354 -0.7240791916847229 -0.6363781690597534 0.0 0.0 0.0 0.0
0.265 -0.06951761245727539 -0.0018589356914162636 -0.7421587109565735 -0.6125286221504211 0.0 0.0 0.0 0.0
0.266 -0.06697697192430496 0.0003680400550365448 -0.7659711837768555 -0.588126540184021 0.0 0.0 0.0 0.0
0.267 -0.06327735632658005 0.002709479071199894 -0.7804787755012512 -0.5613600611686707 0.0 0.0 0.0 0.0
0.268 -0.06072342395782471 0.005039866082370281 -0.8041858077049255 -0.5347114205360413 0.0 0.0 0.0 0.0
0.269 -0.058507271111011505 0.0065140314400196075 -0.8192470669746399 -0.5077847838401794 0.0 0.0 0.0 0.0
0.27 -0.05533931031823158 0.006781112402677536 -0.8361291885375977 -0.48337289690971375 0.0 0.0 0.0 0.0
0.271 -0.051932789385318756 0.009540829807519913 -0.8502750992774963 -0.4524175822734833 0.0 0.0 0.0 0.0
0.272 -0.04899318888783455 0.010578441433608532 -0.8679632544517517 -0.42458322644233704 0.0 0.0 0.0 0.0
0.273 -0.045429643243551254 0.0103571442887187 -0.877933919429779 -0.3956426978111267 0.0 0.0 0.0 0.0
0.274 -0.041779279708862305 0.010408071801066399 -0.8918951749801636 -0.3668653964996338 0.0 0.0 0.0 0.0
0.275 -0.03839642554521561 0.011061341501772404 -0.9038947820663452 -0.3361145257949829 0.0 0.0 0.0 0.0
0.276 -0.034487899392843246 0.011294713243842125 -0.9152718186378479 -0.30623194575309753 0.0 0.0 0.0 0.0
0.277 -0.031981367617845535 0.011834333650767803 -0.925600528717041 -0.2747898995876312 0.0 0.0 0.0 0.0
0.278 -0.027885477989912033 0.010072959586977959 -0.9342904090881348 -0.2446451634168625 0.0 0.0 0.0 0.0
0.279 -0.024131519719958305 0.009541727602481842 -0.9400915503501892 -0.21241772174835205 0.0 0.0 0.0 0.0
0.28 -0.021059274673461914 0.008888118900358677 -0.9484087228775024 -0.18116021156311035 0.0 0.0 0.0 0.0
0.281 -0.017462223768234253 0.007575744763016701 -0.9530462622642517 -0.15027539432048798 0.0 0.0 0.0 0.0
0.282 -0.015520972199738026 0.0057055288925766945 -0.9594832062721252 -0.12213078886270523 0.0 0.0 0.0 0.0
0.283 -0.01260973047465086 0.0038032634183764458 -0.9642173051834106 -0.08746851980686188 0.0 0.0 0.0 0.0
0.284 -0.009294332936406136 0.002059394493699074 -0.9666092395782471 -0.05720492824912071 0.0 0.0 0.0 0.0
0.285 -0.006153863854706287 -0.0005631251260638237 -0.9649877548217773 -0.02340335212647915 0.0 0.0 0.0 0.0
0.286 -0.003191586583852768 -0.0020349519327282906 -0.9658457040786743 0.009437848813831806 0.0 0.0 0.0 0.0
0.287 -0.0014645000919699669 -0.005556956864893436 -0.9672690033912659 0.040329460054636 0.0 0.0 0.0 0.0
0.288 0.0011769970878958702 -0.007419927977025509 -0.9631419777870178 0.07304172962903976 0.0 0.0 0.0 0.0
0.289 0.003769064322113991 -0.010503026656806469 -0.9601739048957825 0.10610585659742355 0.0 0.0 0.0 0.0
0.29 0.005065919831395149 -0.013398807495832443 -0.9559139013290405 0.13577063381671906 0.0 0.0 0.0 0.0
0.291 0.006660914979875088 -0.016423996537923813 -0.9518308043479919 0.16934834420681 0.0 0.0 0.0 0.0
0.292 0.007990628480911255 -0.020958391949534416 -0.9464260935783386 0.19752193987369537 0.0 0.0 0.0 0.0
0.293 0.00945037417113781 -0.023571832105517387 -0.938028872013092 0.2331763654947281 0.0 0.0 0.0 0.0
0.294 0.01041548140347004 -0.026775171980261803 -0.9314352869987488 0.25822222232818604 0.0 0.0 0.0 0.0
0.295 0.011476618237793446 -0.03138785809278488 -0.9217053651809692 0.29653048515319824 0.0 0.0 0.0 0.0
0.296 0.010910123586654663 -0.033936481922864914 -0.9101228713989258 0.32098275423049927 0.0 0.0 0.0 0.0
0.297 0.010681599378585815 -0.03836684674024582 -0.9003728628158569 0.3544895648956299 0.0 0.0 0.0 0.0
0.298 0.01091449148952961 -0.041324615478515625 -0.8874041438102722 0.3801109492778778 0.0 0.0 0.0 0.0
0.299 0.010578981600701809 -0.046096328645944595 -0.8748918771743774 0.4122297465801239 0.0 0.0 0.0 0.0
0.3 0.010556183755397797 -0.04882451519370079 -0.8597273230552673 0.43901604413986206 0.0 0.0 0.0 0.0
0.301 0.010153002105653286 -0.05354737490415573 -0.845592200756073 0.47081702947616577 0.0 0.0 0.0 0.0
0.302 0.008822775445878506 -0.05686994269490242 -0.8289093375205994 0.4947795569896698 0.0 0.0 0.0 0.0
0.303 0.007192570716142654 -0.06040794029831886 -0.8135022521018982 0.5232996344566345 0.0 0.0 0.0 0.0
0.304 0.0065375883132219315 -0.06350364536046982 -0.7939988374710083 0.549261748790741 0.0 0.0 0.0 0.0
0.305 0.004737743176519871 -0.06628323346376419 -0.7781788110733032 0.5765275955200195 0.0 0.0 0.0 0.0
0.306 0.0017856946215033531 -0.06957870721817017 -0.7567829489707947 0.6006298661231995 0.0 0.0 0.0 0.0
0.307 -1.1183321475982666e-05 -0.07325318455696106 -0.7370684742927551 0.6249241828918457 0.0 0.0 0.0 0.0
0.308 -0.0029585249722003937 -0.07498404383659363 -0.7147813439369202 0.6500253081321716 0.0 0.0 0.0 0.0
0.309 -0.005140297114849091 -0.07789608836174011 -0.6942123770713806 0.6744595766067505 0.0 0.0 0.0 0.0
0.31 -0.008980396203696728 -0.08069057762622833 -0.6715843677520752 0.6952738165855408 0.0 0.0 0.0 0.0
0.311 -0.010854447260499 -0.08280089497566223 -0.6495462656021118 0.7175038456916809 0.0 0.0 0.0 0.0
0.312 -0.013956783339381218 -0.08546465635299683 -0.6230637431144714 0.7369234561920166 0.0 0.0 0.0 0.0
0.313 -0.017631523311138153 -0.08678961545228958 -0.6018381714820862 0.7582094073295593 0.0 0.0 0.0 0.0
0.314 -0.021192194893956184 -0.08820051699876785 -0.5740109086036682 0.7797800898551941 0.0 0.0 0.0 0.0
0.315 -0.02440623939037323 -0.08940140157938004 -0.5491058826446533 0.796577513217926 0.0 0.0 0.0 0.0
0.316 -0.02834436483681202 -0.09029368311166763 -0.5212687849998474 0.8141606450080872 0.0 0.0 0.0 0.0
0.317 -0.031839173287153244 -0.09135584533214569 -0.49622008204460144 0.8304928541183472 0.0 0.0 0.0 0.0
0.318 -0.03476916253566742 -0.09340737760066986 -0.4674123227596283 0.8483556509017944 0.0 0.0 0.0 0.0
0.319 -0.038298942148685455 -0.09295068681240082 -0.44025713205337524 0.8599127531051636 0.0 0.0 0.0 0.0
0.32 -0.043068818747997284 -0.09268985688686371 -0.41005828976631165 0.8759772181510925 0.0 0.0 0.0 0.0
0.321 -0.046252425760030746 -0.09192977845668793 -0.3826216757297516 0.8877272009849548 0.0 0.0 0.0 0.0
0.322 -0.04984523728489876 -0.09136319905519485 -0.35228806734085083 0.9031088948249817 0.0 0.0 0.0 0.0
0.323 -0.05398934707045555 -0.09060237556695938 -0.3235369324684143 0.9106759428977966 0.0 0.0 0.0 0.0
0.324 -0.05630657449364662 -0.09015162289142609 -0.29229897260665894 0.9245383739471436 0.0 0.0 0.0 0.0
0.325 -0.060128144919872284 -0.08850689977407455 -0.264838308095932 0.9300603866577148 0.0 0.0 0.0 0.0
0.326 -0.06354866176843643 -0.08802703768014908 -0.23077630996704102 0.9436683654785156 0.0 0.0 0.0 0.0
0.327 -0.06802722811698914 -0.08631564676761627 -0.20172391831874847 0.9462648034095764 0.0 0.0 0.0 0.0
0.328 -0.07025213539600372 -0.0839763730764389 -0.16800102591514587 0.9575181007385254 0.0 0.0 0.0 0.0
0.329 -0.07377792149782181 -0.08246824890375137 -0.13806457817554474 0.9590233564376831 0.0 0.0 0.0 0.0
0.33 -0.07591765373945236 -0.07951624691486359 -0.10684341937303543 0.9665325880050659 0.0 0.0 0.0 0.0
0.331 -0.07936432212591171 -0.07784557342529297 -0.07506962865591049 0.9659982323646545 0.0 0.0 0.0 0.0
0.332 -0.08295033872127533 -0.0745111033320427 -0.04158557578921318 0.9698066115379333 0.0 0.0 0.0 0.0
0.333 -0.08501885831356049 -0.071565181016922 -0.010744859464466572 0.9692093133926392 0.0 0.0 0.0 0.0
0.334 -0.08700963854789734 -0.06783892959356308 0.02151263691484928 0.9710755944252014 0.0 0.0 0.0 0.0
0.335 -0.08912967145442963 -0.06412984430789948 0.054869357496500015 0.967694103717804 0.0 0.0 0.0 0.0
0.336 -0.0904543548822403 -0.06249630078673363 0.08590357005596161 0.969954252243042 0.0 0.0 0.0 0.0
0.337 -0.09212963283061981 -0.05744463950395584 0.11824240535497665 0.9630290269851685 0.0 0.0 0.0 0.0
0.338 -0.09247171133756638 -0.055267058312892914 0.1500406265258789 0.9629470705986023 0.0 0.0 0.0 0.0
0.339 -0.09344901889562607 -0.0504227839410305 0.17897789180278778 0.9548014402389526 0.0 0.0 0.0 0.0
0.34 -0.09426702558994293 -0.04733603075146675 0.2077590525150299 0.9529448747634888 0.0 0.0 0.0 0.0
0.341 -0.09569405764341354 -0.04316183552145958 0.2460957169532776 0.9414524435997009 0.0 0.0 0.0 0.0
0.342 -0.09488708525896072 -0.03988088294863701 0.274252325296402 0.9341903328895569 0.0 0.0 0.0 0.0
0.343 -0.09488247334957123 -0.03620343655347824 0.308064728975296 0.9259759187698364 0.0 0.0 0.0 0.0
0.344 -0.09492833912372589 -0.03171846643090248 0.33579114079475403 0.9153945446014404 0.0 0.0 0.0 0.0
0.345 -0.09432905167341232 -0.02740016207098961 0.3691069781780243 0.9018949270248413 0.0 0.0 0.0 0.0
0.346 -0.09304662048816681 -0.0243894811719656 0.39516812562942505 0.8907214403152466 0.0 0.0 0.0 0.0
0.347 -0.0926462858915329 -0.021581312641501427 0.4295051693916321 0.8785419464111328 0.0 0.0 0.0 0.0
0.348 -0.09105909615755081 -0.01714974455535412 0.4545130729675293 0.862238347530365 0.0 0.0 0.0 0.0
0.349 -0.08939874172210693 -0.01379095297306776 0.48880717158317566 0.8462264537811279 0.0 0.0 0.0 0.0
0.35 -0.08718588948249817 -0.009852375835180283 0.5101308822631836 0.8316563367843628 0.0 0.0 0.0 0.0
0.351 -0.08555334061384201 -0.00799102708697319 0.5439406037330627 0.814670979976654 0.0 0.0 0.0 0.0
0.352 -0.08186609297990799 -0.0036640865728259087 0.5648056864738464 0.7946217656135559 0.0 0.0 0.0 0.0
0.353 -0.07948030531406403 -0.0009202836081385612 0.5933847427368164 0.7780793905258179 0.0 0.0 0.0 0.0
0.354 -0.07684699445962906 0.0018566660583019257 0.6150751113891602 0.7560503482818604 0.0 0.0 0.0 0.0
0.355 -0.07304886728525162 0.0034490441903471947 0.6457838416099548 0.7385058999061584 0.0 0.0 0.0 0.0
0.356 -0.07092420756816864 0.007077242247760296 0.6675893068313599 0.7118796706199646 0.0 0.0 0.0 0.0
0.357 -0.06653792411088943 0.008134299889206886 0.6911800503730774 0.6948540806770325 0.0 0.0 0.0 0.0
0.358 -0.06446481496095657 0.009983052499592304 0.7141040563583374 0.6676012277603149 0.0 0.0 0.0 0.0
0.359 -0.06025063246488571 0.012537148781120777 0.7374421954154968 0.6450712084770203 0.0 0.0 0.0 0.0
0.36 -0.0571400485932827 0.01326111052185297 0.7576975226402283 0.6163963675498962 0.0 0.0 0.0 0.0
0.361 -0.053085923194885254 0.01444738544523716 0.7799889445304871 0.5931479334831238 0.0 0.0 0.0 0.0
0.362 -0.04878389090299606 0.01451066043227911 0.7982611060142517 0.5679395794868469 0.0 0.0 0.0 0.0
0.363 -0.04455292597413063 0.015808992087841034 0.8164182901382446 0.5424744486808777 0.0 0.0 0.0 0.0
0.364 -0.0411762073636055 0.01500596571713686 0.8353290557861328 0.5142795443534851 0.0 0.0 0.0 0.0
0.365 -0.03756130486726761 0.016277309507131577 0.851084291934967 0.486501008272171 0.0 0.0 0.0 0.0
0.366 -0.033561620861291885 0.014706681482493877 0.8678768873214722 0.456695556640625 0.0 0.0 0.0 0.0
0.367 -0.030123038217425346 0.014628003351390362 0.8832486867904663 0.42924270033836365 0.0 0.0 0.0 0.0
0.368 -0.024830790236592293 0.013783669099211693 0.8971505761146545 0.39835989475250244 0.0 0.0 0.0 0.0
0.369 -0.021877363324165344 0.012623093090951443 0.9092820286750793 0.36815279722213745 0.0 0.0 0.0 0.0
0.37 -0.01892029494047165 0.011540349572896957 0.9212337136268616 0.33575230836868286 0.0 0.0 0.0 0.0
0.371 -0.013926840387284756 0.009809778071939945 0.9302657246589661 0.3088429272174835 0.0 0.0 0.0 0.0
0.372 -0.010562190786004066 0.007893710397183895 0.9412490725517273 0.2768491506576538 0.0 0.0 0.0 0.0
0.373 -0.0073982467874884605 0.005861558951437473 0.9508571624755859 0.24558371305465698 0.0 0.0 0.0 0.0
0.374 -0.004570586606860161 0.0036311792209744453 0.9579713344573975 0.20907966792583466 0.0 0.0 0.0 0.0
0.375 -0.0018465137109160423 0.0014620441943407059 0.9622033834457397 0.1805647313594818 0.0 0.0 0.0 0.0
0.376 0.0019221287220716476 -0.0006860652938485146 0.9674768447875977 0.14427724480628967 0.0 0.0 0.0 0.0
0.377 0.004528965801000595 -0.004217665642499924 0.9724985361099243 0.11889087408781052 0.0 0.0 0.0 0.0
0.378 0.006020266562700272 -0.006825685501098633 0.9755167961120605 0.08190423995256424 0.0 0.0 0.0 0.0
0.379 0.008668297901749611 -0.011055356822907925 0.9796819686889648 0.05287342146039009 0.0 0.0 0.0 0.0
0.38 0.011159656569361687 -0.013725039549171925 0.9800857305526733 0.018575115129351616 0.0 0.0 0.0 0.0
0.381 0.012654845602810383 -0.016782741993665695 0.9786469340324402 -0.01130550354719162 0.0 0.0 0.0 0.0
0.382 0.013274814933538437 -0.020650241523981094 0.9778466820716858 -0.049698252230882645 0.0 0.0 0.0 0.0
0.383 0.015233615413308144 -0.024202978238463402 0.9743450284004211 -0.07426131516695023 0.0 0.0 0.0 0.0
0.384 0.016237352043390274 -0.029115522280335426 0.9759930968284607 -0.1141824871301651 0.0 0.0 0.0 0.0
0.385 0.018139567226171494 -0.031650807708501816 0.9676698446273804 -0.1408873200416565 0.0 0.0 0.0 0.0
0.386 0.017702538520097733 -0.03552979975938797 0.9646693468093872 -0.17170464992523193 0.0 0.0 0.0 0.0
0.387 0.01731731742620468 -0.0392439030110836 0.9568784236907959 -0.20825493335723877 0.0 0.0 0.0 0.0
0.388 0.017648974433541298 -0.04364706948399544 0.9529836177825928 -0.23897358775138855 0.0 0.0 0.0 0.0
0.389 0.016941644251346588 -0.047090835869312286 0.9405519962310791 -0.27016258239746094 0.0 0.0 0.0 0.0
0.39 0.01765277050435543 -0.050231531262397766 0.9325025677680969 -0.3003166913986206 0.0 0.0 0.0 0.0
0.391 0.01588442735373974 -0.0546577014029026 0.9212523698806763 -0.3319239318370819 0.0 0.0 0.0 0.0
0.392 0.014748185873031616 -0.057824376970529556 0.9123427867889404 -0.363572895526886 0.0 0.0 0.0 0.0
0.393 0.013963467441499233 -0.06074325367808342 0.8949193358421326 -0.393451452255249 0.0 0.0 0.0 0.0
0.394 0.012659904547035694 -0.06437349319458008 0.8836437463760376 -0.42405062913894653 0.0 0.0 0.0 0.0
0.395 0.011428925208747387 -0.06866540014743805 0.871041476726532 -0.448819100856781 0.0 0.0 0.0 0.0
0.396 0.008977536112070084 -0.07054226100444794 0.8533302545547485 -0.47947338223457336 0.0 0.0 0.0 0.0
0.397 0.007901672273874283 -0.07360292226076126 0.8363398313522339 -0.5046826601028442 0.0 0.0 0.0 0.0
0.398 0.005556561052799225 -0.07662615180015564 0.8218485713005066 -0.5313778519630432 0.0 0.0 0.0 0.0
0.399 0.0032721487805247307 -0.07898790389299393 0.8016939163208008 -0.5597650408744812 0.0 0.0 0.0 0.0
0.4 0.0008391179144382477 -0.08101493865251541 0.7826796770095825 -0.5849172472953796 0.0 0.0 0.0 0.0
0.401 -0.002466565929353237 -0.08420079201459885 0.7634469866752625 -0.6170458197593689 0.0 0.0 0.0 0.0
0.402 -0.0049689896404743195 -0.08589711785316467 0.745432436466217 -0.6358908414840698 0.0 0.0 0.0 0.0
0.403 -0.007539693266153336 -0.08695168048143387 0.7230945825576782 -0.6611786484718323 0.0 0.0 0.0 0.0
0.404 -0.011403920128941536 -0.08937491476535797 0.7013989686965942 -0.6844034194946289 0.0 0.0 0.0 0.0
0.405 -0.013607678934931755 -0.08972059190273285 0.676241934299469 -0.7071616649627686 0.0 0.0 0.0 0.0
0.406 -0.0170347411185503 -0.0910353735089302 0.6563675999641418 -0.7264455556869507 0.0 0.0 0.0 0.0
0.407 -0.02109079621732235 -0.09099604189395905 0.6281551122665405 -0.7514042854309082 0.0 0.0 0.0 0.0
0.408 -0.023671716451644897 -0.09174449741840363 0.6053447127342224 -0.7666390538215637 0.0 0.0 0.0 0.0
0.409 -0.02784672938287258 -0.09179993718862534 0.5747452974319458 -0.7928072214126587 0.0 0.0 0.0 0.0
0.41 -0.029466360807418823 -0.0929560512304306 0.5539156794548035 -0.8079668879508972 0.0 0.0 0.0 0.0
0.411 -0.03372539207339287 -0.09166759252548218 0.523366391658783 -0.8298565149307251 0.0 0.0 0.0 0.0
0.412 -0.036386094987392426 -0.09150747209787369 0.49736288189888 -0.8411828279495239 0.0 0.0 0.0 0.0
0.413 -0.03894829750061035 -0.0909489169716835 0.4677380919456482 -0.8603525161743164 0.0 0.0 0.0 0.0
0.414 -0.042717088013887405 -0.0909113883972168 0.44120797514915466 -0.8759430050849915 0.0 0.0 0.0 0.0
0.415 -0.04517001286149025 -0.08846832066774368 0.40999603271484375 -0.8913710713386536 0.0 0.0 0.0 0.0
0.416 -0.048433657735586166 -0.0877315029501915 0.3821033239364624 -0.9022388458251953 0.0 0.0 0.0 0.0
0.417 -0.05161123350262642 -0.08629291504621506 0.3496938645839691 -0.920166552066803 0.0 0.0 0.0 0.0
0.418 -0.05318967252969742 -0.08569017052650452 0.32293251156806946 -0.9272603392601013 0.0 0.0 0.0 0.0
0.419 -0.05612798407673836 -0.08250733464956284 0.287968248128891 -0.9414277672767639 0.0 0.0 0.0 0.0
0.42 -0.058028023689985275 -0.08045611530542374 0.2598845064640045 -0.9460580348968506 0.0 0.0 0.0 0.0
0.421 -0.05886673554778099 -0.07951956987380981 0.22794844210147858 -0.9576132893562317 0.0 0.0 0.0 0.0
0.422 -0.060840997844934464 -0.07667947560548782 0.1984766125679016 -0.9619019031524658 0.0 0.0 0.0 0.0
0.423 -0.06322651356458664 -0.07504520565271378 0.16543841361999512 -0.971663236618042 0.0 0.0 0.0 0.0
0.424 -0.06353221833705902 -0.07120674103498459 0.1329362690448761 -0.9723917841911316 0.0 0.0 0.0 0.0
0.425 -0.06517688930034637 -0.06830666959285736 0.09918231517076492 -0.9799864888191223 0.0 0.0 0.0 0.0
0.426 -0.06649740785360336 -0.06661804765462875 0.06853298097848892 -0.9823587536811829 0.0 0.0 0.0 0.0
0.427 -0.06717837601900101 -0.06287948042154312 0.032237518578767776 -0.9866552948951721 0.0 0.0 0.0 0.0
0.428 -0.0683361142873764 -0.060434434562921524 0.002237485721707344 -0.9855771660804749 0.0 0.0 0.0 0.0
0.429 -0.06846219301223755 -0.057956941425800323 -0.0321851409971714 -0.9873007535934448 0.0 0.0 0.0 0.0
0.43 -0.06814126670360565 -0.05382935702800751 -0.06420280039310455 -0.983052670955658 0.0 0.0 0.0 0.0
0.431 -0.06675262749195099 -0.05180465802550316 -0.09772824496030807 -0.9817269444465637 0.0 0.0 0.0 0.0
0.432 -0.06680547446012497 -0.04946672543883324 -0.12722539901733398 -0.9816828966140747 0.0 0.0 0.0 0.0
0.433 -0.0660877525806427 -0.04614561051130295 -0.15818965435028076 -0.9731460809707642 0.0 0.0 0.0 0.0
0.434 -0.06620156019926071 -0.043628327548503876 -0.19890183210372925 -0.9686257839202881 0.0 0.0 0.0 0.0
0.435 -0.06359763443470001 -0.04075615480542183 -0.22203074395656586 -0.9607124924659729 0.0 0.0 0.0 0.0
0.436 -0.06185952574014664 -0.037859708070755005 -0.2589302062988281 -0.9519613981246948 0.0 0.0 0.0 0.0
0.437 -0.06068035587668419 -0.03568530082702637 -0.2872869670391083 -0.9427931904792786 0.0 0.0 0.0 0.0
0.438 -0.058492064476013184 -0.03460148721933365 -0.3205113708972931 -0.934356689453125 0.0 0.0 0.0 0.0
0.439 -0.05714626982808113 -0.03216283768415451 -0.3516813814640045 -0.922003448009491 0.0 0.0 0.0 0.0
0.44 -0.05559299513697624 -0.02983800135552883 -0.38686883449554443 -0.9107232689857483 0.0 0.0 0.0 0.0
0.441 -0.052860572934150696 -0.028163304552435875 -0.41398394107818604 -0.8965036869049072 0.0 0.0 0.0 0.0
0.442 -0.049124620854854584 -0.02571500465273857 -0.44504696130752563 -0.8812587261199951 0.0 0.0 0.0 0.0
0.443 -0.04829230532050133 -0.024914143607020378 -0.47002485394477844 -0.8673255443572998 0.0 0.0 0.0 0.0
0.444 -0.04487079009413719 -0.02468371018767357 -0.5028629899024963 -0.8521262407302856 0.0 0.0 0.0 0.0
0.445 -0.040801312774419785 -0.023141201585531235 -0.5273357629776001 -0.832843542098999 0.0 0.0 0.0 0.0
0.446 -0.039407070726156235 -0.022930582985281944 -0.5573620796203613 -0.8177903294563293 0.0 0.0 0.0 0.0
0.447 -0.03524582460522652 -0.02218889817595482 -0.5808613300323486 -0.7983490824699402 0.0 0.0 0.0 0.0
0.448 -0.03203155845403671 -0.021945897489786148 -0.610594630241394 -0.7781880497932434 0.0 0.0 0.0 0.0
0.449 -0.028993360698223114 -0.020589569583535194 -0.6340131163597107 -0.754581868648529 0.0 0.0 0.0 0.0
0.45 -0.02633768506348133 -0.020944999530911446 -0.6638942360877991 -0.7342443466186523 0.0 0.0 0.0 0.0
0.451 -0.023457642644643784 -0.02193562686443329 -0.6819729804992676 -0.7126447558403015 0.0 0.0 0.0 0.0
0.452 -0.02081970125436783 -0.022783376276493073 -0.710049569606781 -0.6899694204330444 0.0 0.0 0.0 0.0
0.453 -0.01633576676249504 -0.023558195680379868 -0.7292107939720154 -0.66330885887146 0.0 0.0 0.0 0.0
0.454 -0.013735414482653141 -0.024403700605034828 -0.753822922706604 -0.6413823366165161 0.0 0.0 0.0 0.0
0.455 -0.010147412307560444 -0.026196015998721123 -0.7706692814826965 -0.6128063201904297 0.0 0.0 0.0 0.0
0.456 -0.008680323138833046 -0.029062405228614807 -0.7934874296188354 -0.5892917513847351 0.0 0.0 0.0 0.0
0.457 -0.004669954068958759 -0.030029503628611565 -0.8097105026245117 -0.5599587559700012 0.0 0.0 0.0 0.0
0.458 -0.0023093698546290398 -0.03175137937068939 -0.8325715065002441 -0.5333839654922485 0.0 0.0 0.0 0.0
0.459 -0.00035149604082107544 -0.03431977704167366 -0.8481537103652954 -0.5042799711227417 0.0 0.0 0.0 0.0
0.46 0.0021832911297678947 -0.0376875139772892 -0.8628709316253662 -0.4812910258769989 0.0 0.0 0.0 0.0
0.461 0.004094494506716728 -0.039484795182943344 -0.8780379295349121 -0.44388753175735474 0.0 0.0 0.0 0.0
0.462 0.007140101864933968 -0.04274102672934532 -0.8930132985115051 -0.4188667833805084 0.0 0.0 0.0 0.0
0.463 0.0075597018003463745 -0.046030085533857346 -0.9072476029396057 -0.3860393464565277 0.0 0.0 0.0 0.0
0.464 0.010238882154226303 -0.049178946763277054 -0.9207924008369446 -0.35960301756858826 0.0 0.0 0.0 0.0
0.465 0.01102240476757288 -0.05335278436541557 -0.9306212067604065 -0.32907333970069885 0.0 0.0 0.0 0.0
0.466 0.012497025541961193 -0.055965080857276917 -0.9407451152801514 -0.2953818142414093 0.0 0.0 0.0 0.0
0.467 0.013502763584256172 -0.05940781161189079 -0.9478641748428345 -0.26317426562309265 0.0 0.0 0.0 0.0
0.468 0.01498291827738285 -0.06347418576478958 -0.9536790251731873 -0.23572948575019836 0.0 0.0 0.0 0.0
0.469 0.014133522287011147 -0.0681566596031189 -0.9647631049156189 -0.20007368922233582 0.0 0.0 0.0 0.0
0.47 0.015404258854687214 -0.07099799066781998 -0.9676188230514526 -0.17230243980884552 0.0 0.0 0.0 0.0
0.471 0.013658719137310982 -0.07490485161542892 -0.9772874116897583 -0.13568198680877686 0.0 0.0 0.0 0.0
0.472 0.014922688715159893 -0.07811325043439865 -0.9758726358413696 -0.10791033506393433 0.0 0.0 0.0 0.0
0.473 0.01303117722272873 -0.08274490386247635 -0.9823510646820068 -0.06915120035409927 0.0 0.0 0.0 0.0
0.474 0.013803981244564056 -0.08687124401330948 -0.9826250076293945 -0.04659610614180565 0.0 0.0 0.0 0.0
0.475 0.011995001696050167 -0.08886352926492691 -0.9822116494178772 -0.004952592775225639 0.0 0.0 0.0 0.0
0.476 0.010135847143828869 -0.09361790120601654 -0.9834731221199036 0.023066673427820206 0.0 0.0 0.0 0.0
0.477 0.009784137830138206 -0.0964321717619896 -0.9808276295661926 0.05806894972920418 0.0 0.0 0.0 0.0
0.478 0.007253240793943405 -0.10061262547969818 -0.9797261953353882 0.08957972377538681 0.0 0.0 0.0 0.0
0.479 0.005731754004955292 -0.1041308045387268 -0.9764298796653748 0.12335534393787384 0.0 0.0 0.0 0.0
0.48 0.0022072065621614456 -0.10662967711687088 -0.9694342017173767 0.15045535564422607 0.0 0.0 0.0 0.0
0.481 -0.0005449960008263588 -0.11013403534889221 -0.966749906539917 0.18584004044532776 0.0 0.0 0.0 0.0
0.482 -0.0030978629365563393 -0.11216197907924652 -0.9563419818878174 0.21553586423397064 0.0 0.0 0.0 0.0
0.483 -0.004876064136624336 -0.11605632305145264 -0.9499563574790955 0.24930810928344727 0.0 0.0 0.0 0.0
0.484 -0.007735293358564377 -0.11738231033086777 -0.9402552247047424 0.2784326374530792 0.0 0.0 0.0 0.0
0.485 -0.012191078625619411 -0.11993566900491714 -0.9341405630111694 0.30790531635284424 0.0 0.0 0.0 0.0
0.486 -0.014647313393652439 -0.12284797430038452 -0.9204195737838745 0.33860909938812256 0.0 0.0 0.0 0.0
0.487 -0.018753737211227417 -0.12479110807180405 -0.9097490906715393 0.3692557215690613 0.0 0.0 0.0 0.0
0.488 -0.023322543129324913 -0.1257089227437973 -0.8970412611961365 0.4023514688014984 0.0 0.0 0.0 0.0
0.489 -0.026683758944272995 -0.12721645832061768 -0.8871119618415833 0.42732471227645874 0.0 0.0 0.0 0.0
0.49 -0.029794560745358467 -0.12811820209026337 -0.867220938205719 0.4594438970088959 0.0 0.0 0.0 0.0
0.491 -0.03457432612776756 -0.12885594367980957 -0.8562341928482056 0.4860888421535492 0.0 0.0 0.0 0.0
0.492 -0.03809179365634918 -0.12945351004600525 -0.835604727268219 0.5161136984825134 0.0 0.0 0.0 0.0
0.493 -0.042244210839271545 -0.13013847172260284 -0.8215882182121277 0.5403779745101929 0.0 0.0 0.0 0.0
0.494 -0.046021051704883575 -0.12987586855888367 -0.8005147576332092 0.5696779489517212 0.0 0.0 0.0 0.0
0.495 -0.05090506374835968 -0.12974897027015686 -0.7818781137466431 0.5953505635261536 0.0 0.0 0.0 0.0
0.496 -0.05625206604599953 -0.12923982739448547 -0.7623668909072876 0.6236898899078369 0.0 0.0 0.0 0.0
0.497 -0.05920546501874924 -0.12934274971485138 -0.7447589635848999 0.643231987953186 0.0 0.0 0.0 0.0
0.498 -0.063024140894413 -0.12725262343883514 -0.7209398150444031 0.6717305183410645 0.0 0.0 0.0 0.0
0.499 -0.06722796708345413 -0.12627321481704712 -0.6995242238044739 0.6914467811584473 0.0 0.0 0.0 0.0
0.5 -0.07030650228261948 -0.12419433146715164 -0.6768179535865784 0.7180203199386597 0.0 0.0 0.0 0.0
0.501 -0.07422374933958054 -0.12379759550094604 -0.6534733176231384 0.7368848323822021 0.0 0.0 0.0 0.0
0.502 -0.07785126566886902 -0.1216578260064125 -0.6271774768829346 0.7635312676429749 0.0 0.0 0.0 0.0
0.503 -0.0819072425365448 -0.11819242686033249 -0.6018602848052979 0.7782233953475952 0.0 0.0 0.0 0.0
0.504 -0.08476121723651886 -0.11736041307449341 -0.5763392448425293 0.8029290437698364 0.0 0.0 0.0 0.0
0.505 -0.08889919519424438 -0.11364462971687317 -0.5501707196235657 0.8172675967216492 0.0 0.0 0.0 0.0
0.506 -0.09034179896116257 -0.11066735535860062 -0.5210698843002319 0.8412376642227173 0.0 0.0 0.0 0.0
0.507 -0.09493789076805115 -0.1066790446639061 -0.49187299609184265 0.8524322509765625 0.0 0.0 0.0 0.0
0.508 -0.09685830026865005 -0.10499819368124008 -0.4640817940235138 0.8730111122131348 0.0 0.0 0.0 0.0
0.509 -0.09813376516103745 -0.09964918345212936 -0.4372306168079376 0.8827455639839172 0.0 0.0 0.0 0.0
0.51 -0.10090313851833344 -0.09584677964448929 -0.4070690870285034 0.9026903510093689 0.0 0.0 0.0 0.0
0.511 -0.10340172797441483 -0.09321098029613495 -0.3779712915420532 0.9118942022323608 0.0 0.0 0.0 0.0
0.512 -0.10502457618713379 -0.08963079005479813 -0.34173136949539185 0.92925626039505 0.0 0.0 0.0 0.0
0.513 -0.10643676668405533 -0.084688700735569 -0.3142578601837158 0.9352871179580688 0.0 0.0 0.0 0.0
0.514 -0.10644582659006119 -0.08160283416509628 -0.2840336859226227 0.9499346017837524 0.0 0.0 0.0 0.0
0.515 -0.10790298879146576 -0.07624340802431107 -0.2511303126811981 0.953916609287262 0.0 0.0 0.0 0.0
0.516 -0.10722381621599197 -0.0722876489162445 -0.2222657948732376 0.967593789100647 0.0 0.0 0.0 0.0
0.517 -0.10815390199422836 -0.06896048039197922 -0.188271626830101 0.9711564779281616 0.0 0.0 0.0 0.0
0.518 -0.10707921534776688 -0.06410808116197586 -0.15592409670352936 0.9803783297538757 0.0 0.0 0.0 0.0
0.519 -0.10715029388666153 -0.05896379053592682 -0.12274853885173798 0.9805691242218018 0.0 0.0 0.0 0.0
0.52 -0.1073266789317131 -0.05668375641107559 -0.09026754647493362 0.9875648021697998 0.0 0.0 0.0 0.0
0.521 -0.10563727468252182 -0.05047319829463959 -0.05590890347957611 0.9878827333450317 0.0 0.0 0.0 0.0
0.522 -0.10452336072921753 -0.047211017459630966 -0.024758756160736084 0.992555558681488 0.0 0.0 0.0 0.0
0.523 -0.10236719250679016 -0.0432300865650177 0.010189170949161053 0.9897145628929138 0.0 0.0 0.0 0.0
0.524 -0.10167459398508072 -0.039538685232400894 0.04336366802453995 0.9906550049781799 0.0 0.0 0.0 0.0
0.525 -0.10057015717029572 -0.03632248938083649 0.0800354927778244 0.9884148836135864 0.0 0.0 0.0 0.0
0.526 -0.09670878946781158 -0.031899791210889816 0.10577178001403809 0.9850020408630371 0.0 0.0 0.0 0.0
0.527 -0.0943332314491272 -0.02803371101617813 0.14456510543823242 0.9818753600120544 0.0 0.0 0.0 0.0
0.528 -0.09176278114318848 -0.025014689192175865 0.1722186654806137 0.9755852222442627 0.0 0.0 0.0 0.0
0.529 -0.08838947862386703 -0.02245667576789856 0.2106848806142807 0.9710672497749329 0.0 0.0 0.0 0.0
0.53 -0.0854945108294487 -0.01915579102933407 0.23688729107379913 0.9616310596466064 0.0 0.0 0.0 0.0
0.531 -0.08227335661649704 -0.018049605190753937 0.2764931321144104 0.9557858109474182 0.0 0.0 0.0 0.0
0.532 -0.07876337319612503 -0.014628314413130283 0.29959607124328613 0.9425790905952454 0.0 0.0 0.0 0.0
0.533 -0.0761055052280426 -0.0118409413844347 0.3365040123462677 0.9318928122520447 0.0 0.0 0.0 0.0
0.534 -0.07220884412527084 -0.01177827175706625 0.3652209937572479 0.922356128692627 0.0 0.0 0.0 0.0
0.535 -0.06786194443702698 -0.008486457169055939 0.3979155421257019 0.9099384546279907 0.0 0.0 0.0 0.0
0.536 -0.0635160580277443 -0.007562159560620785 0.42492666840553284 0.8939090967178345 0.0 0.0 0.0 0.0
0.537 -0.06015259027481079 -0.008080110885202885 0.4596688449382782 0.8795338869094849 0.0 0.0 0.0 0.0
0.538 -0.055479761213064194 -0.007060755044221878 0.48364683985710144 0.864609956741333 0.0 0.0 0.0 0.0
0.539 -0.051550112664699554 -0.005127795971930027 0.5142801403999329 0.8469627499580383 0.0 0.0 0.0 0.0
0.54 -0.04807450994849205 -0.005877562798559666 0.5423586964607239 0.829281210899353 0.0 0.0 0.0 0.0
0.541 -0.04345718026161194 -0.005146045237779617 0.5692993402481079 0.8117800354957581 0.0 0.0 0.0 0.0
0.542 -0.0407092310488224 -0.005546123720705509 0.5983626842498779 0.7856574058532715 0.0 0.0 0.0 0.0
0.543 -0.03503763675689697 -0.006701040081679821 0.6218259334564209 0.7713291049003601 0.0 0.0 0.0 0.0
0.544 -0.032181769609451294 -0.006219855509698391 0.6483756899833679 0.7445458173751831 0.0 0.0 0.0 0.0
0.545 -0.027399778366088867 -0.008182050660252571 0.6702214479446411 0.7279626131057739 0.0 0.0 0.0 0.0
0.546 -0.02485640160739422 -0.009154107421636581 0.6972687840461731 0.7003250122070312 0.0 0.0 0.0 0.0
0.547 -0.020521312952041626 -0.012033341452479362 0.7183815836906433 0.6801270246505737 0.0 0.0 0.0 0.0
0.548 -0.017527924850583076 -0.01300851907581091 0.7411967515945435 0.6510258913040161 0.0 0.0 0.0 0.0
0.549 -0.013468888588249683 -0.01537772361189127 0.7611737847328186 0.629960834980011 0.0 0.0 0.0 0.0
0.55 -0.010698319412767887 -0.01674056053161621 0.7815217971801758 0.601723313331604 0.0 0.0 0.0 0.0
0.551 -0.008098737336695194 -0.019767893478274345 0.7989799380302429 0.5812124609947205 0.0 0.0 0.0 0.0
0.552 -0.004302233457565308 -0.023377155885100365 0.8208309412002563 0.5498183965682983 0.0 0.0 0.0 0.0
0.553 -0.00199268851429224 -0.02529950439929962 0.8352689146995544 0.5246727466583252 0.0 0.0 0.0 0.0
0.554 -0.0006907200440764427 -0.02824348583817482 0.8554554581642151 0.49056631326675415 0.0 0.0 0.0 0.0
0.555 0.0018533319234848022 -0.03130841627717018 0.8667349219322205 0.46574777364730835 0.0 0.0 0.0 0.0
0.556 0.004202219657599926 -0.03563541918992996 0.8878704905509949 0.43116793036460876 0.0 0.0 0.0 0.0
0.557 0.005910001695156097 -0.03843742609024048 0.8962833285331726 0.4099428653717041 0.0 0.0 0.0 0.0
0.558 0.00829958263784647 -0.04130765050649643 0.9107309579849243 0.37720707058906555 0.0 0.0 0.0 0.0
0.559 0.008790028281509876 -0.044710129499435425 0.92205411195755 0.3474039137363434 0.0 0.0 0.0 0.0
0.56 0.010718761011958122 -0.048322148621082306 0.9342710375785828 0.3150714039802551 0.0 0.0 0.0 0.0
0.561 0.010570652782917023 -0.05122945085167885 0.9401816129684448 0.2869536280632019 0.0 0.0 0.0 0.0
0.562 0.010687150061130524 -0.05566307157278061 0.9517340064048767 0.24971367418766022 0.0 0.0 0.0 0.0
0.563 0.011329138651490211 -0.058578841388225555 0.9566753506660461 0.22400806844234467 0.0 0.0 0.0 0.0
0.564 0.01084717083722353 -0.06220803037285805 0.9656006693840027 0.18654008209705353 0.0 0.0 0.0 0.0
0.565 0.011991317383944988 -0.06507132947444916 0.9684255123138428 0.16024845838546753 0.0 0.0 0.0 0.0
0.566 0.011978997848927975 -0.06877082586288452 0.9762218594551086 0.12498105317354202 0.0 0.0 0.0 0.0
0.567 0.011549299582839012 -0.07220971584320068 0.9785874485969543 0.09664656221866608 0.0 0.0 0.0 0.0
0.568 0.009349524043500423 -0.07526730000972748 0.9800121188163757 0.05678681284189224 0.0 0.0 0.0 0.0
0.569 0.008990302681922913 -0.07813074439764023 0.9807063937187195 0.03118959069252014 0.0 0.0 0.0 0.0
0.57 0.006865832023322582 -0.08225817233324051 0.9836673736572266 -0.009105767123401165 0.0 0.0 0.0 0.0
0.571 0.006952126510441303 -0.08620192110538483 0.9817888736724854 -0.033647023141384125 0.0 0.0 0.0 0.0
0.572 0.005047226324677467 -0.08746971935033798 0.9808517694473267 -0.06967434287071228 0.0 0.0 0.0 0.0
0.573 0.002712670713663101 -0.09109242260456085 0.9775128364562988 -0.09868665039539337 0.0 0.0 0.0 0.0
0.574 2.5238841772079468e-06 -0.09324770420789719 0.9763685464859009 -0.1373164802789688 0.0 0.0 0.0 0.0
0.575 -0.0015093954280018806 -0.09608891606330872 0.9697383046150208 -0.16618728637695312 0.0 0.0 0.0 0.0
0.576 -0.003821388818323612 -0.0973687469959259 0.9633045196533203 -0.1956351399421692 0.0 0.0 0.0 0.0
0.577 -0.005576403811573982 -0.09964518249034882 0.9537104964256287 -0.22770780324935913 0.0 0.0 0.0 0.0
0.578 -0.00922244880348444 -0.10150307416915894 0.9504273533821106 -0.26327425241470337 0.0 0.0 0.0 0.0
0.579 -0.010728486813604832 -0.10272715240716934 0.9369321465492249 -0.29021191596984863 0.0 0.0 0.0 0.0
0.58 -0.0132438438013196 -0.1045367643237114 0.9303318858146667 -0.32193702459335327 0.0 0.0 0.0 0.0
0.581 -0.017382288351655006 -0.10499472171068192 0.9165014624595642 -0.355495423078537 0.0 0.0 0.0 0.0
0.582 -0.01867297664284706 -0.10620135813951492 0.9083569049835205 -0.38198381662368774 0.0 0.0 0.0 0.0
0.583 -0.021628927439451218 -0.1074889525771141 0.8940929174423218 -0.41409987211227417 0.0 0.0 0.0 0.0
0.584 -0.0240781269967556 -0.10693859308958054 0.8793307542800903 -0.44069263339042664 0.0 0.0 0.0 0.0
0.585 -0.028699466958642006 -0.10720425844192505 0.8627786040306091 -0.4758435785770416 0.0 0.0 0.0 0.0
0.586 -0.02928423509001732 -0.10682418942451477 0.84881991147995 -0.49483048915863037 0.0 0.0 0.0 0.0
0.587 -0.03339629992842674 -0.10667070746421814 0.8276265263557434 -0.5314645171165466 0.0 0.0 0.0 0.0
0.588 -0.03495010733604431 -0.1070108637213707 0.8152163624763489 -0.5533350110054016 0.0 0.0 0.0 0.0
0.589 -0.03700212389230728 -0.10588730871677399 0.793304979801178 -0.58499675989151 0.0 0.0 0.0 0.0
0.59 -0.04068354517221451 -0.10536419600248337 0.7765112519264221 -0.6048946380615234 0.0 0.0 0.0 0.0
0.591 -0.04312695935368538 -0.10295029729604721 0.7505447864532471 -0.636198878288269 0.0 0.0 0.0 0.0
0.592 -0.04440389946103096 -0.10210861265659332 0.734329104423523 -0.6540701389312744 0.0 0.0 0.0 0.0
0.593 -0.047703780233860016 -0.10223628580570221 0.7092695832252502 -0.6877892017364502 0.0 0.0 0.0 0.0
0.594 -0.049284256994724274 -0.10046843439340591 0.6872169375419617 -0.7047465443611145 0.0 0.0 0.0 0.0
0.595 -0.05167065188288689 -0.09860876947641373 0.660569965839386 -0.7329040765762329 0.0 0.0 0.0 0.0
0.596 -0.051379699259996414 -0.09672892838716507 0.6426749229431152 -0.7476189732551575 0.0 0.0 0.0 0.0
0.597 -0.05342802405357361 -0.0937424972653389 0.6115573048591614 -0.772895336151123 0.0 0.0 0.0 0.0
0.598 -0.05415648594498634 -0.09256086498498917 0.589979887008667 -0.7857360243797302 0.0 0.0 0.0 0.0
0.599 -0.05669812485575676 -0.09149116277694702 0.5606096386909485 -0.8141634464263916 0.0 0.0 0.0 0.0
0.6 -0.05586063489317894 -0.0878983810544014 0.5375500321388245 -0.8243329524993896 0.0 0.0 0.0 0.0
0.601 -0.057787638157606125 -0.08547959476709366 0.5027035474777222 -0.8470815420150757 0.0 0.0 0.0 0.0
0.602 -0.05894811823964119 -0.08357862383127213 0.47591641545295715 -0.8606281280517578 0.0 0.0 0.0 0.0
0.603 -0.05831944942474365 -0.0831492468714714 0.45083004236221313 -0.8806139826774597 0.0 0.0 0.0 0.0
0.604 -0.0586819164454937 -0.07870743423700333 0.41783082485198975 -0.8921318054199219 0.0 0.0 0.0 0.0
0.605 -0.05759983882308006 -0.07784447073936462 0.38981789350509644 -0.9075320959091187 0.0 0.0 0.0 0.0
0.606 -0.05778619647026062 -0.07545571029186249 0.3601009249687195 -0.9156592488288879 0.0 0.0 0.0 0.0
0.607 -0.057068534195423126 -0.07281768321990967 0.32853367924690247 -0.928930938243866 0.0 0.0 0.0 0.0
0.608 -0.05739101395010948 -0.06983433663845062 0.29304271936416626 -0.9383565187454224 0.0 0.0 0.0 0.0
0.609 -0.05506674200296402 -0.0693998783826828 0.2663794159889221 -0.9498794078826904 0.0 0.0 0.0 0.0
0.61 -0.054776351898908615 -0.0670325830578804 0.23390604555606842 -0.9558126926422119 0.0 0.0 0.0 0.0
0.611 -0.053602710366249084 -0.0654277577996254 0.1998600959777832 -0.9661277532577515 0.0 0.0 0.0 0.0
0.612 -0.05121134966611862 -0.06317547708749771 0.17097781598567963 -0.9665628671646118 0.0 0.0 0.0 0.0
0.613 -0.050187837332487106 -0.06179795786738396 0.13822278380393982 -0.9769746661186218 0.0 0.0 0.0 0.0
0.614 -0.048665814101696014 -0.06033150479197502 0.10484848916530609 -0.9799187779426575 0.0 0.0 0.0 0.0
0.615 -0.046353381127119064 -0.05898963287472725 0.07187285274267197 -0.9829339385032654 0.0 0.0 0.0 0.0
0.616 -0.04475947469472885 -0.056792471557855606 0.033455584198236465 -0.9831326007843018 0.0 0.0 0.0 0.0
0.617 -0.04203762486577034 -0.055880360305309296 0.006762268021702766 -0.9825316071510315 0.0 0.0 0.0 0.0
0.618 -0.03998540714383125 -0.05381336435675621 -0.031968407332897186 -0.9839293360710144 0.0 0.0 0.0 0.0
0.619 -0.03795964643359184 -0.05498063191771507 -0.06141917407512665 -0.9843773245811462 0.0 0.0 0.0 0.0
0.62 -0.03539920598268509 -0.05493096634745598 -0.09549369663000107 -0.9827167391777039 0.0 0.0 0.0 0.0
0.621 -0.03329898416996002 -0.05247974768280983 -0.12257174402475357 -0.9741172790527344 0.0 0.0 0.0 0.0
0.622 -0.030423058196902275 -0.05242396146059036 -0.16319485008716583 -0.9692721366882324 0.0 0.0 0.0 0.0
0.623 -0.02884630486369133 -0.052882809191942215 -0.19053731858730316 -0.9629492163658142 0.0 0.0 0.0 0.0
0.624 -0.026527807116508484 -0.05503387749195099 -0.22480762004852295 -0.9601117372512817 0.0 0.0 0.0 0.0
0.625 -0.021857766434550285 -0.0547197125852108 -0.2509301006793976 -0.9480132460594177 0.0 0.0 0.0 0.0
0.626 -0.01999625377357006 -0.05615327134728432 -0.28802311420440674 -0.9407487511634827 0.0 0.0 0.0 0.0
0.627 -0.017970716580748558 -0.05556114763021469 -0.3144894242286682 -0.9269412755966187 0.0 0.0 0.0 0.0
0.628 -0.014681759290397167 -0.05745646730065346 -0.35067808628082275 -0.9168665409088135 0.0 0.0 0.0 0.0
0.629 -0.013115396723151207 -0.05927403271198273 -0.37551644444465637 -0.9053882360458374 0.0 0.0 0.0 0.0
0.63 -0.011470469646155834 -0.05909738317131996 -0.410506933927536 -0.8920457363128662 0.0 0.0 0.0 0.0
0.631 -0.009433156810700893 -0.06266222149133682 -0.43563607335090637 -0.8769084215164185 0.0 0.0 0.0 0.0
0.632 -0.006179566495120525 -0.06412270665168762 -0.46635401248931885 -0.8605924844741821 0.0 0.0 0.0 0.0
0.633 -0.004387189634144306 -0.06610307842493057 -0.49237918853759766 -0.8434075713157654 0.0 0.0 0.0 0.0
0.634 -0.0023416392505168915 -0.0680253878235817 -0.5208204388618469 -0.8287842273712158 0.0 0.0 0.0 0.0
0.635 -0.0019545769318938255 -0.06946174800395966 -0.5500336289405823 -0.8083937168121338 0.0 0.0 0.0 0.0
0.636 -0.0004205368459224701 -0.072983518242836 -0.5751357078552246 -0.7951980829238892 0.0 0.0 0.0 0.0
0.637 0.000387425534427166 -0.0751306414604187 -0.6025785803794861 -0.7715861201286316 0.0 0.0 0.0 0.0
0.638 0.0027933744713664055 -0.0774562656879425 -0.6272762417793274 -0.7523298859596252 0.0 0.0 0.0 0.0
0.639 0.0032191453501582146 -0.08027340471744537 -0.6525137424468994 -0.7257273197174072 0.0 0.0 0.0 0.0
0.64 0.004444819875061512 -0.08316157013177872 -0.6737268567085266 -0.7083168625831604 0.0 0.0 0.0 0.0
0.641 0.0044599901884794235 -0.08605930209159851 -0.6986854672431946 -0.6823370456695557 0.0 0.0 0.0 0.0
0.642 0.005894791334867477 -0.08929390460252762 -0.7166901230812073 -0.6638243794441223 0.0 0.0 0.0 0.0
0.643 0.005002646706998348 -0.0934809222817421 -0.7423599362373352 -0.6343683004379272 0.0 0.0 0.0 0.0
0.644 0.005533586256206036 -0.09562825411558151 -0.7589771747589111 -0.614275336265564 0.0 0.0 0.0 0.0
0.645 0.004836161620914936 -0.09943005442619324 -0.7795881628990173 -0.5869742035865784 0.0 0.0 0.0 0.0
0.646 0.004431884735822678 -0.10204486548900604 -0.796989381313324 -0.5644913911819458 0.0 0.0 0.0 0.0
0.647 0.0021688509732484818 -0.10496047139167786 -0.8200057744979858 -0.531508207321167 0.0 0.0 0.0 0.0
0.648 0.0024601127952337265 -0.10682301223278046 -0.8326416015625 -0.5072116851806641 0.0 0.0 0.0 0.0
0.649 0.0015795258805155754 -0.10970232635736465 -0.850366473197937 -0.4734431505203247 0.0 0.0 0.0 0.0
0.65 0.0007187547162175179 -0.11378862708806992 -0.862586498260498 -0.453707218170166 0.0 0.0 0.0 0.0
0.651 -0.0024283789098262787 -0.11599964648485184 -0.881938636302948 -0.41839540004730225 0.0 0.0 0.0 0.0
0.652 -0.002795872278511524 -0.11898593604564667 -0.8896746039390564 -0.39512205123901367 0.0 0.0 0.0 0.0
0.653 -0.005663380958139896 -0.12155766785144806 -0.9054238200187683 -0.3606405556201935 0.0 0.0 0.0 0.0
0.654 -0.006748267449438572 -0.12452557682991028 -0.9144530296325684 -0.33689814805984497 0.0 0.0 0.0 0.0
0.655 -0.011017058975994587 -0.12698161602020264 -0.9293001294136047 -0.30021119117736816 0.0 0.0 0.0 0.0
0.656 -0.011055994778871536 -0.12861594557762146 -0.9341174364089966 -0.2739849388599396 0.0 0.0 0.0 0.0
0.657 -0.01390922162681818 -0.13043226301670074 -0.9446585774421692 -0.2393379658460617 0.0 0.0 0.0 0.0
0.658 -0.017979975789785385 -0.132331982254982 -0.9523575901985168 -0.21148885786533356 0.0 0.0 0.0 0.0
0.659 -0.019927214831113815 -0.13444779813289642 -0.9588205218315125 -0.17401880025863647 0.0 0.0 0.0 0.0
0.66 -0.022742951288819313 -0.13464899361133575 -0.9607023000717163 -0.14992155134677887 0.0 0.0 0.0 0.0
0.661 -0.027437249198555946 -0.13728958368301392 -0.9697865843772888 -0.11038359999656677 0.0 0.0 0.0 0.0
0.662 -0.029944630339741707 -0.13711155951023102 -0.9693573713302612 -0.07924205809831619 0.0 0.0 0.0 0.0
0.663 -0.03372775763273239 -0.13769450783729553 -0.9752153158187866 -0.050586070865392685 0.0 0.0 0.0 0.0
0.664 -0.03690553084015846 -0.1385202407836914 -0.9729662537574768 -0.020028045400977135 0.0 0.0 0.0 0.0
0.665 -0.038069948554039 -0.1395818442106247 -0.9760957360267639 0.015447717159986496 0.0 0.0 0.0 0.0
0.666 -0.04355498403310776 -0.13948309421539307 -0.9723881483078003 0.04415753111243248 0.0 0.0 0.0 0.0
0.667 -0.04596714302897453 -0.13784299790859222 -0.9737069606781006 0.07834210991859436 0.0 0.0 0.0 0.0
0.668 -0.048840295523405075 -0.1383465826511383 -0.9677256345748901 0.11023181676864624 0.0 0.0 0.0 0.0
0.669 -0.05208081752061844 -0.13810975849628448 -0.9638681411743164 0.14407439529895782 0.0 0.0 0.0 0.0
0.67 -0.05690276622772217 -0.13773493468761444 -0.9586617350578308 0.17245730757713318 0.0 0.0 0.0 0.0
0.671 -0.06053349748253822 -0.13534052670001984 -0.9550396203994751 0.20587027072906494 0.0 0.0 0.0 0.0
0.672 -0.06285527348518372 -0.13444335758686066 -0.9469283223152161 0.2407185584306717 0.0 0.0 0.0 0.0
0.673 -0.06494887173175812 -0.13303008675575256 -0.9354050755500793 0.26736894249916077 0.0 0.0 0.0 0.0
0.674 -0.06924470514059067 -0.13171063363552094 -0.9276962280273438 0.3025568425655365 0.0 0.0 0.0 0.0
0.675 -0.07080657035112381 -0.1290215253829956 -0.9166229367256165 0.32974570989608765 0.0 0.0 0.0 0.0
0.676 -0.07333625108003616 -0.12542685866355896 -0.9043927788734436 0.3620641827583313 0.0 0.0 0.0 0.0
0.677 -0.07633699476718903 -0.12366046011447906 -0.8938929438591003 0.38886454701423645 0.0 0.0 0.0 0.0
0.678 -0.0787382423877716 -0.12122538685798645 -0.8784587979316711 0.4240369200706482 0.0 0.0 0.0 0.0
0.679 -0.08009237796068192 -0.1188126653432846 -0.8671446442604065 0.4463917315006256 0.0 0.0 0.0 0.0
0.68 -0.08378155529499054 -0.11696399748325348 -0.8511812090873718 0.48091748356819153 0.0 0.0 0.0 0.0
0.681 -0.08489125221967697 -0.11399766057729721 -0.8368102312088013 0.5036429166793823 0.0 0.0 0.0 0.0
0.682 -0.08502614498138428 -0.11083933711051941 -0.8154957294464111 0.5364064574241638 0.0 0.0 0.0 0.0
0.683 -0.08629908412694931 -0.10765481740236282 -0.7995720505714417 0.5576835870742798 0.0 0.0 0.0 0.0
0.684 -0.0887637510895729 -0.1047808974981308 -0.7799667119979858 0.5898029804229736 0.0 0.0 0.0 0.0
0.685 -0.08949718624353409 -0.1008986309170723 -0.7586734294891357 0.6126719117164612 0.0 0.0 0.0 0.0
0.686 -0.09054714441299438 -0.09743542969226837 -0.7385295629501343 0.6404516696929932 0.0 0.0 0.0 0.0
0.687 -0.09016413986682892 -0.09322832524776459 -0.7170270681381226 0.6604312658309937 0.0 0.0 0.0 0.0
0.688 -0.08941350132226944 -0.08938024938106537 -0.6914991736412048 0.6918423771858215 0.0 0.0 0.0 0.0
0.689 -0.0909949466586113 -0.08580223470926285 -0.6721882820129395 0.7070016264915466 0.0 0.0 0.0 0.0
0.69 -0.08921363204717636 -0.08395034074783325 -0.6445674300193787 0.734305202960968 0.0 0.0 0.0 0.0
0.691 -0.08803477138280869 -0.0804792121052742 -0.6240200400352478 0.7489587068557739 0.0 0.0 0.0 0.0
0.692 -0.08769413083791733 -0.07528231292963028 -0.5982515811920166 0.7742369771003723 0.0 0.0 0.0 0.0
0.693 -0.08671345561742783 -0.07352546602487564 -0.5708136558532715 0.789871335029602 0.0 0.0 0.0 0.0
0.694 -0.08482711017131805 -0.06962356716394424 -0.5414748191833496 0.8135057091712952 0.0 0.0 0.0 0.0
0.695 -0.08312486857175827 -0.06644915044307709 -0.5148988366127014 0.8263649940490723 0.0 0.0 0.0 0.0
0.696 -0.0816991925239563 -0.06217910349369049 -0.4883442223072052 0.8454647660255432 0.0 0.0 0.0 0.0
0.697 -0.07879377901554108 -0.06077956780791283 -0.45874902606010437 0.8575524091720581 0.0 0.0 0.0 0.0
0.698 -0.076914943754673 -0.05810122936964035 -0.43110308051109314 0.8763221502304077 0.0 0.0 0.0 0.0
0.699 -0.0763392373919487 -0.05486735701560974 -0.3967123031616211 0.8875859379768372 0.0 0.0 0.0 0.0
0.7 -0.07210700213909149 -0.05370529368519783 -0.3718738555908203 0.9020043611526489 0.0 0.0 0.0 0.0
0.701 -0.07024402916431427 -0.05090990290045738 -0.3379403352737427 0.9118329286575317 0.0 0.0 0.0 0.0
0.702 -0.06769037991762161 -0.0481635220348835 -0.3098321855068207 0.9225767254829407 0.0 0.0 0.0 0.0
0.703 -0.06348641961812973 -0.04604610800743103 -0.27597174048423767 0.9302767515182495 0.0 0.0 0.0 0.0
0.704 -0.06178629398345947 -0.04508185386657715 -0.24651122093200684 0.9404440522193909 0.0 0.0 0.0 0.0
0.705 -0.05747760087251663 -0.04436562955379486 -0.21339623630046844 0.9471383690834045 0.0 0.0 0.0 0.0
0.706 -0.05417076125741005 -0.042970214039087296 -0.18399684131145477 0.954637348651886 0.0 0.0 0.0 0.0
0.707 -0.05147099122405052 -0.041402943432331085 -0.147365003824234 0.9590424299240112 0.0 0.0 0.0 0.0
0.708 -0.04808356240391731 -0.0404810756444931 -0.11538108438253403 0.9638140797615051 0.0 0.0 0.0 0.0
0.709 -0.044985394924879074 -0.04132853075861931 -0.08193787932395935 0.9675704836845398 0.0 0.0 0.0 0.0
0.71 -0.04018143564462662 -0.03958805277943611 -0.05646069720387459 0.9657174944877625 0.0 0.0 0.0 0.0
0.711 -0.0371401384472847 -0.03930017724633217 -0.018046438694000244 0.970410943031311 0.0 0.0 0.0 0.0
0.712 -0.033518340438604355 -0.041587140411138535 0.007152236998081207 0.9679617285728455 0.0 0.0 0.0 0.0
0.713 -0.029276490211486816 -0.04126996546983719 0.03990387171506882 0.9709731936454773 0.0 0.0 0.0 0.0
0.714 -0.027209630236029625 -0.04232238233089447 0.07244423031806946 0.9628980755805969 0.0 0.0 0.0 0.0
0.715 -0.024441678076982498 -0.042836789041757584 0.10874800384044647 0.9613016843795776 0.0 0.0 0.0 0.0
0.716 -0.021196547895669937 -0.044331420212984085 0.1360822170972824 0.9565422534942627 0.0 0.0 0.0 0.0
0.717 -0.01766255497932434 -0.044498030096292496 0.1706112027168274 0.9517398476600647 0.0 0.0 0.0 0.0
0.718 -0.01379369106143713 -0.046697307378053665 0.19863925874233246 0.9425458908081055 0.0 0.0 0.0 0.0
0.719 -0.011777778156101704 -0.050327494740486145 0.23702377080917358 0.9387704730033875 0.0 0.0 0.0 0.0
0.72 -0.008666292764246464 -0.05230597406625748 0.26158449053764343 0.9296591877937317 0.0 0.0 0.0 0.0
0.721 -0.006768392398953438 -0.05361054837703705 0.2987300753593445 0.9200244545936584 0.0 0.0 0.0 0.0
0.722 -0.003973672166466713 -0.0562722310423851 0.3222106397151947 0.9089879989624023 0.0 0.0 0.0 0.0
0.723 -0.0019418997690081596 -0.05740748345851898 0.3521428108215332 0.8981658816337585 0.0 0.0 0.0 0.0
0.724 -5.6799501180648804e-05 -0.06096833571791649 0.3836393356323242 0.8823282122612 0.0 0.0 0.0 0.0
0.725 0.002717430703341961 -0.06270778924226761 0.40908122062683105 0.8727149963378906 0.0 0.0 0.0 0.0
0.726 0.004489682614803314 -0.06634286046028137 0.43987560272216797 0.8560742735862732 0.0 0.0 0.0 0.0
0.727 0.005655474029481411 -0.06894208490848541 0.4660453796386719 0.842639148235321 0.0 0.0 0.0 0.0
0.728 0.006967770867049694 -0.071942999958992 0.49388235807418823 0.8245155811309814 0.0 0.0 0.0 0.0
0.729 0.007912399247288704 -0.0755344107747078 0.5223425030708313 0.8078151345252991 0.0 0.0 0.0 0.0
0.73 0.008853230625391006 -0.07890018075704575 0.5485758185386658 0.7907899618148804 0.0 0.0 0.0 0.0
0.731 0.00921313650906086 -0.08092334866523743 0.5711740851402283 0.7737023234367371 0.0 0.0 0.0 0.0
0.732 0.00988183543086052 -0.08539979159832001 0.6005396246910095 0.7527285218238831 0.0 0.0 0.0 0.0
0.733 0.010198131203651428 -0.0877666100859642 0.6191418766975403 0.7342274188995361 0.0 0.0 0.0 0.0
0.734 0.009564461186528206 -0.0914178192615509 0.6495380997657776 0.7104234099388123 0.0 0.0 0.0 0.0
0.735 0.009187808260321617 -0.0940275490283966 0.6666199564933777 0.6906610727310181 0.0 0.0 0.0 0.0
0.736 0.008778315968811512 -0.09778487682342529 0.6954542398452759 0.6659822463989258 0.0 0.0 0.0 0.0
0.737 0.007773883640766144 -0.0992659330368042 0.709191083908081 0.6464108824729919 0.0 0.0 0.0 0.0
0.738 0.007354510948061943 -0.10234543681144714 0.736248254776001 0.6172971129417419 0.0 0.0 0.0 0.0
0.739 0.005905617959797382 -0.1051078736782074 0.750478208065033 0.5990808606147766 0.0 0.0 0.0 0.0
0.74 0.0038919197395443916 -0.10783274471759796 0.7737088203430176 0.5668941140174866 0.0 0.0 0.0 0.0
0.741 0.0044274404644966125 -0.11051373928785324 0.7887477278709412 0.5482052564620972 0.0 0.0 0.0 0.0
0.742 0.0024326471611857414 -0.11232734471559525 0.8112143874168396 0.5172864198684692 0.0 0.0 0.0 0.0
0.743 -0.0008031083270907402 -0.11496993154287338 0.8228240609169006 0.4933883547782898 0.0 0.0 0.0 0.0
0.744 -0.0019663404673337936 -0.11506970226764679 0.8426116704940796 0.4612201154232025 0.0 0.0 0.0 0.0
0.745 -0.003672645427286625 -0.11925370991230011 0.8534536361694336 0.4379641115665436 0.0 0.0 0.0 0.0
0.746 -0.006335976533591747 -0.11927199363708496 0.8687154650688171 0.4070589244365692 0.0 0.0 0.0 0.0
0.747 -0.00791797786951065 -0.12214989960193634 0.8808234930038452 0.3788447976112366 0.0 0.0 0.0 0.0
0.748 -0.01233917847275734 -0.12348980456590652 0.8976742625236511 0.3446773290634155 0.0 0.0 0.0 0.0
0.749 -0.01336955651640892 -0.12493250519037247 0.9044531583786011 0.31916379928588867 0.0 0.0 0.0 0.0
0.75 -0.016698762774467468 -0.1258489489555359 0.9181117415428162 0.28545883297920227 0.0 0.0 0.0 0.0
0.751 -0.01870747283101082 -0.12671175599098206 0.9241745471954346 0.2594427168369293 0.0 0.0 0.0 0.0
0.752 -0.02110263518989086 -0.1251010298728943 0.9346661567687988 0.22384701669216156 0.0 0.0 0.0 0.0
0.753 -0.024389492347836494 -0.12599590420722961 0.9378046989440918 0.19426633417606354 0.0 0.0 0.0 0.0
0.754 -0.027215003967285156 -0.12615667283535004 0.9466402530670166 0.15883934497833252 0.0 0.0 0.0 0.0
0.755 -0.02953406609594822 -0.12656331062316895 0.9506756663322449 0.13118866086006165 0.0 0.0 0.0 0.0
0.756 -0.031944748014211655 -0.12495272606611252 0.9543600082397461 0.10167357325553894 0.0 0.0 0.0 0.0
0.757 -0.03378232568502426 -0.12394346296787262 0.9570621848106384 0.07020244747400284 0.0 0.0 0.0 0.0
0.758 -0.03563309833407402 -0.12368524074554443 0.9595492482185364 0.0414290577173233 0.0 0.0 0.0 0.0
0.759 -0.038264200091362 -0.12228801846504211 0.9574922323226929 0.0015264367684721947 0.0 0.0 0.0 0.0
0.76 -0.03951859474182129 -0.1222548708319664 0.9598432183265686 -0.02026333473622799 0.0 0.0 0.0 0.0
0.761 -0.0415094830095768 -0.12070282548666 0.9592645168304443 -0.058858439326286316 0.0 0.0 0.0 0.0
0.762 -0.04366857931017876 -0.11933273077011108 0.9560869336128235 -0.08605010062456131 0.0 0.0 0.0 0.0
0.763 -0.04640570655465126 -0.11656578630208969 0.9502471685409546 -0.12325419485569 0.0 0.0 0.0 0.0
0.764 -0.04736777022480965 -0.1151677742600441 0.9454336762428284 -0.14791585505008698 0.0 0.0 0.0 0.0
0.765 -0.048186879605054855 -0.11276306957006454 0.9418695569038391 -0.1857885718345642 0.0 0.0 0.0 0.0
0.766 -0.04881222918629646 -0.11144229769706726 0.9349795579910278 -0.21047921478748322 0.0 0.0 0.0 0.0
0.767 -0.05097183957695961 -0.1078290119767189 0.9257280826568604 -0.24836242198944092 0.0 0.0 0.0 0.0
0.768 -0.0514618344604969 -0.10644157230854034 0.9164866805076599 -0.2743714451789856 0.0 0.0 0.0 0.0
0.769 -0.05205421522259712 -0.10527651011943817 0.9116044640541077 -0.31232747435569763 0.0 0.0 0.0 0.0
0.77 -0.05167992040514946 -0.10246060788631439 0.8981878161430359 -0.33509448170661926 0.0 0.0 0.0 0.0
0.771 -0.0506637804210186 -0.09989901632070541 0.8859942555427551 -0.36815059185028076 0.0 0.0 0.0 0.0
0.772 -0.05209748074412346 -0.0959504172205925 0.8716945648193359 -0.3934206962585449 0.0 0.0 0.0 0.0
0.773 -0.05127628520131111 -0.09529891610145569 0.8616579174995422 -0.42636239528656006 0.0 0.0 0.0 0.0
0.774 -0.05013677105307579 -0.09261641651391983 0.8472772836685181 -0.4501684308052063 0.0 0.0 0.0 0.0
0.775 -0.05045802518725395 -0.09047388285398483 0.829231321811676 -0.4864671230316162 0.0 0.0 0.0 0.0
0.776 -0.049549661576747894 -0.08694813400506973 0.8115320205688477 -0.5060148239135742 0.0 0.0 0.0 0.0
0.777 -0.04855344444513321 -0.08373982459306717 0.79127037525177 -0.5409319996833801 0.0 0.0 0.0 0.0
0.778 -0.04677201062440872 -0.0819946676492691 0.7739442586898804 -0.5618586540222168 0.0 0.0 0.0 0.0
0.779 -0.0454157292842865 -0.08036158233880997 0.7558674812316895 -0.5899668335914612 0.0 0.0 0.0 0.0
0.78 -0.04258539155125618 -0.0778447687625885 0.731776773929596 -0.6096670627593994 0.0 0.0 0.0 0.0
0.781 -0.041012831032276154 -0.07760458439588547 0.7176218628883362 -0.6371871829032898 0.0 0.0 0.0 0.0
0.782 -0.03876892477273941 -0.07530952244997025 0.6909897327423096 -0.6584960222244263 0.0 0.0 0.0 0.0
0.783 -0.034799687564373016 -0.0736866295337677 0.6696031093597412 -0.6795017123222351 0.0 0.0 0.0 0.0
0.784 -0.03354240208864212 -0.07111631333827972 0.6439546942710876 -0.7031978964805603 0.0 0.0 0.0 0.0
0.785 -0.03024374507367611 -0.0723579004406929 0.6256678104400635 -0.721734344959259 0.0 0.0 0.0 0.0
0.786 -0.028429245576262474 -0.06940341740846634 0.595658004283905 -0.7459167838096619 0.0 0.0 0.0 0.0
0.787 -0.024477090686559677 -0.06980308145284653 0.5742034316062927 -0.7626762986183167 0.0 0.0 0.0 0.0
0.788 -0.021486088633537292 -0.06823604553937912 0.5433967113494873 -0.7797451019287109 0.0 0.0 0.0 0.0
0.789 -0.01850254461169243 -0.06779893487691879 0.516913652420044 -0.79892897605896 0.0 0.0 0.0 0.0
0.79 -0.014889078214764595 -0.06910590827465057 0.49374324083328247 -0.8121429681777954 0.0 0.0 0.0 0.0
0.791 -0.011671459302306175 -0.0695498064160347 0.4706723392009735 -0.8277706503868103 0.0 0.0 0.0 0.0
0.792 -0.008157544769346714 -0.06950348615646362 0.4371511936187744 -0.8454546332359314 0.0 0.0 0.0 0.0
0.793 -0.005099333822727203 -0.07014426589012146 0.40987563133239746 -0.8559473156929016 0.0 0.0 0.0 0.0
0.794 -0.0024783750995993614 -0.0703745111823082 0.37510204315185547 -0.8705019950866699 0.0 0.0 0.0 0.0
0.795 0.0016240421682596207 -0.07241813093423843 0.3545290529727936 -0.8811112642288208 0.0 0.0 0.0 0.0
0.796 0.003249392844736576 -0.07333534210920334 0.3167436122894287 -0.8940899968147278 0.0 0.0 0.0 0.0
0.797 0.007562638260424137 -0.07575679570436478 0.295950710773468 -0.9024114608764648 0.0 0.0 0.0 0.0
0.798 0.010696503333747387 -0.0767744705080986 0.2571337819099426 -0.9114434719085693 0.0 0.0 0.0 0.0
0.799 0.013956528156995773 -0.07962607592344284 0.23600876331329346 -0.917156457901001 0.0 0.0 0.0 0.0
0.8 0.015743913128972054 -0.08189447224140167 0.19834481179714203 -0.9261917471885681 0.0 0.0 0.0 0.0
0.801 0.018917059525847435 -0.08429061621427536 0.17437413334846497 -0.9284228682518005 0.0 0.0 0.0 0.0
0.802 0.02145439013838768 -0.08906714618206024 0.13290956616401672 -0.9406184554100037 0.0 0.0 0.0 0.0
0.803 0.02302877977490425 -0.09017670899629593 0.11088082194328308 -0.9377485513687134 0.0 0.0 0.0 0.0
0.804 0.025649411603808403 -0.09284898638725281 0.06989914178848267 -0.9433454871177673 0.0 0.0 0.0 0.0
0.805 0.028698502108454704 -0.0979706346988678 0.050947077572345734 -0.942742109298706 0.0 0.0 0.0 0.0
0.806 0.02880921959877014 -0.10124451667070389 0.009209951385855675 -0.9467822313308716 0.0 0.0 0.0 0.0
0.807 0.03135991096496582 -0.10541348159313202 -0.01519355271011591 -0.9408366084098816 0.0 0.0 0.0 0.0
0.808 0.03272557258605957 -0.10803017020225525 -0.05235862359404564 -0.9418097734451294 0.0 0.0 0.0 0.0
0.809 0.03441484272480011 -0.11295776814222336 -0.07545489817857742 -0.9375579953193665 0.0 0.0 0.0 0.0
0.81 0.03530094772577286 -0.11774519830942154 -0.1127740889787674 -0.9361807107925415 0.0 0.0 0.0 0.0
0.811 0.03535676747560501 -0.12207480520009995 -0.13597171008586884 -0.9302242994308472 0.0 0.0 0.0 0.0
0.812 0.03466980159282684 -0.12570074200630188 -0.1704311966896057 -0.9295964241027832 0.0 0.0 0.0 0.0
0.813 0.03558780252933502 -0.13016651570796967 -0.20154471695423126 -0.9170041680335999 0.0 0.0 0.0 0.0
0.814 0.03554742410778999 -0.13453422486782074 -0.2270883172750473 -0.9124040603637695 0.0 0.0 0.0 0.0
0.815 0.033272650092840195 -0.1395917683839798 -0.2640436589717865 -0.9042928814888 0.0 0.0 0.0 0.0
0.816 0.03204600512981415 -0.14408496022224426 -0.2876030206680298 -0.8966728448867798 0.0 0.0 0.0 0.0
0.817 0.031800948083400726 -0.14878860116004944 -0.3214860260486603 -0.885013222694397 0.0 0.0 0.0 0.0
0.818 0.030149219557642937 -0.1525624543428421 -0.34758129715919495 -0.8729594349861145 0.0 0.0 0.0 0.0
0.819 0.028889723122119904 -0.15673857927322388 -0.3753591775894165 -0.8634520173072815 0.0 0.0 0.0 0.0
0.82 0.027174390852451324 -0.16008666157722473 -0.4036785960197449 -0.8490804433822632 0.0 0.0 0.0 0.0
0.821 0.022825714200735092 -0.16483564674854279 -0.43791547417640686 -0.8332864046096802 0.0 0.0 0.0 0.0
0.822 0.020769843831658363 -0.16809651255607605 -0.45754608511924744 -0.8206461071968079 0.0 0.0 0.0 0.0
0.823 0.018927497789263725 -0.17101778090000153 -0.48666849732398987 -0.8013637661933899 0.0 0.0 0.0 0.0
0.824 0.01503865234553814 -0.17495518922805786 -0.5119199156761169 -0.7878168225288391 0.0 0.0 0.0 0.0
0.825 0.010633531957864761 -0.17988088726997375 -0.5419396162033081 -0.7709501385688782 0.0 0.0 0.0 0.0
0.826 0.00867708120495081 -0.18189728260040283 -0.5577137470245361 -0.754650890827179 0.0 0.0 0.0 0.0
0.827 0.0028805406764149666 -0.18488895893096924 -0.5931501984596252 -0.7291129231452942 0.0 0.0 0.0 0.0
0.828 0.001064840704202652 -0.1870967298746109 -0.6055849194526672 -0.7157979011535645 0.0 0.0 0.0 0.0
0.829 -0.003678826615214348 -0.19130434095859528 -0.6363574862480164 -0.691750168800354 0.0 0.0 0.0 0.0
0.83 -0.008571511134505272 -0.19286802411079407 -0.6548274755477905 -0.6726041436195374 0.0 0.0 0.0 0.0
0.831 -0.013734788633883 -0.19574175775051117 -0.6806197166442871 -0.6483574509620667 0.0 0.0 0.0 0.0
0.832 -0.017524877563118935 -0.19555160403251648 -0.6974809169769287 -0.6253073215484619 0.0 0.0 0.0 0.0
0.833 -0.02360050566494465 -0.1976243108510971 -0.7235419750213623 -0.6019099950790405 0.0 0.0 0.0 0.0
0.834 -0.027860870584845543 -0.19779261946678162 -0.7359159588813782 -0.5813034176826477 0.0 0.0 0.0 0.0
0.835 -0.0337955616414547 -0.20050771534442902 -0.7620916366577148 -0.5512819290161133 0.0 0.0 0.0 0.0
0.836 -0.037799421697854996 -0.19923889636993408 -0.7733908891677856 -0.5290487408638 0.0 0.0 0.0 0.0
0.837 -0.04351051151752472 -0.2012368142604828 -0.7960878610610962 -0.5002606511116028 0.0 0.0 0.0 0.0
0.838 -0.04796799644827843 -0.19986571371555328 -0.807051420211792 -0.47852423787117004 0.0 0.0 0.0 0.0
0.839 -0.051784221082925797 -0.19934849441051483 -0.8253611326217651 -0.44669675827026367 0.0 0.0 0.0 0.0
0.84 -0.05775890126824379 -0.1985235959291458 -0.8369240760803223 -0.42308637499809265 0.0 0.0 0.0 0.0
0.841 -0.06349968165159225 -0.19653360545635223 -0.8560746908187866 -0.3886948227882385 0.0 0.0 0.0 0.0
0.842 -0.06661885231733322 -0.1945943981409073 -0.859560489654541 -0.36775076389312744 0.0 0.0 0.0 0.0
0.843 -0.07484067231416702 -0.1936122626066208 -0.879376232624054 -0.33307144045829773 0.0 0.0 0.0 0.0
0.844 -0.07544852048158646 -0.19046296179294586 -0.8826813101768494 -0.3099622428417206 0.0 0.0 0.0 0.0
0.845 -0.08103088289499283 -0.18945066630840302 -0.897392749786377 -0.27402612566947937 0.0 0.0 0.0 0.0
0.846 -0.08625331521034241 -0.1858956664800644 -0.9031835198402405 -0.24246378242969513 0.0 0.0 0.0 0.0
0.847 -0.08991294354200363 -0.18289867043495178 -0.9151304960250854 -0.2163177728652954 0.0 0.0 0.0 0.0
0.848 -0.09427502006292343 -0.1789732277393341 -0.9181772470474243 -0.18476109206676483 0.0 0.0 0.0 0.0
0.849 -0.09783146530389786 -0.17610591650009155 -0.9263216257095337 -0.15715087950229645 0.0 0.0 0.0 0.0
0.85 -0.10248320549726486 -0.17090941965579987 -0.9286177158355713 -0.12287210673093796 0.0 0.0 0.0 0.0
0.851 -0.10540647804737091 -0.16916272044181824 -0.9337935447692871 -0.09631859511137009 0.0 0.0 0.0 0.0
0.852 -0.10835205018520355 -0.16322390735149384 -0.9348472356796265 -0.057630326598882675 0.0 0.0 0.0 0.0
0.853 -0.11059392243623734 -0.1601824313402176 -0.934349536895752 -0.033726681023836136 0.0 0.0 0.0 0.0
0.854 -0.11478970944881439 -0.15429064631462097 -0.9384083151817322 0.004745973274111748 0.0 0.0 0.0 0.0
0.855 -0.11553286761045456 -0.15075375139713287 -0.9383588433265686 0.025778846815228462 0.0 0.0 0.0 0.0
0.856 -0.11757420748472214 -0.14382825791835785 -0.9336930513381958 0.06469006836414337 0.0 0.0 0.0 0.0
0.857 -0.11912950873374939 -0.14072993397712708 -0.9319832921028137 0.09025644510984421 0.0 0.0 0.0 0.0
0.858 -0.1198044940829277 -0.1358315795660019 -0.9285984635353088 0.12624020874500275 0.0 0.0 0.0 0.0
0.859 -0.12098245322704315 -0.13035914301872253 -0.9226800203323364 0.14920181035995483 0.0 0.0 0.0 0.0
0.86 -0.12319644540548325 -0.12405643612146378 -0.9173488020896912 0.18884046375751495 0.0 0.0 0.0 0.0
0.861 -0.12200692296028137 -0.11994945257902145 -0.909963071346283 0.213480606675148 0.0 0.0 0.0 0.0
0.862 -0.12135740369558334 -0.11474870890378952 -0.9031684994697571 0.24901831150054932 0.0 0.0 0.0 0.0
0.863 -0.1217932254076004 -0.10888265073299408 -0.8929551243782043 0.272769957780838 0.0 0.0 0.0 0.0
0.864 -0.12063295394182205 -0.1026936024427414 -0.8835231065750122 0.30916425585746765 0.0 0.0 0.0 0.0
0.865 -0.11860354989767075 -0.09829922765493393 -0.8714799284934998 0.3307068645954132 0.0 0.0 0.0 0.0
0.866 -0.1184660941362381 -0.09469245374202728 -0.8605705499649048 0.36830541491508484 0.0 0.0 0.0 0.0
0.867 -0.11647344380617142 -0.08904360234737396 -0.847827672958374 0.3899228274822235 0.0 0.0 0.0 0.0
0.868 -0.11331220716238022 -0.08361765742301941 -0.8334237337112427 0.4238736033439636 0.0 0.0 0.0 0.0
0.869 -0.1109573245048523 -0.08056460320949554 -0.8180666565895081 0.44421741366386414 0.0 0.0 0.0 0.0
0.87 -0.10765565186738968 -0.0755392387509346 -0.8034566044807434 0.47589269280433655 0.0 0.0 0.0 0.0
0.871 -0.10438049584627151 -0.07106563448905945 -0.7882466316223145 0.49618756771087646 0.0 0.0 0.0 0.0
0.872 -0.10323483496904373 -0.06692475825548172 -0.7690078616142273 0.5275077223777771 0.0 0.0 0.0 0.0
0.873 -0.09803876280784607 -0.06418710947036743 -0.7516700625419617 0.5461801290512085 0.0 0.0 0.0 0.0
0.874 -0.09451275318861008 -0.060971882194280624 -0.7330748438835144 0.5748269557952881 0.0 0.0 0.0 0.0
0.875 -0.09129589796066284 -0.0574011504650116 -0.710130512714386 0.5975871682167053 0.0 0.0 0.0 0.0
0.876 -0.08726638555526733 -0.05364478752017021 -0.6914473176002502 0.6194723844528198 0.0 0.0 0.0 0.0
0.877 -0.08248266577720642 -0.052356887608766556 -0.6696558594703674 0.6432540416717529 0.0 0.0 0.0 0.0
0.878 -0.07784359902143478 -0.050321295857429504 -0.6496924161911011 0.6648648977279663 0.0 0.0 0.0 0.0
0.879 -0.07463333010673523 -0.04727788642048836 -0.625491201877594 0.6840131282806396 0.0 0.0 0.0 0.0
0.88 -0.06943376362323761 -0.04547588527202606 -0.60517418384552 0.7060352563858032 0.0 0.0 0.0 0.0
0.881 -0.06386705487966537 -0.044485557824373245 -0.5774966478347778 0.7242318987846375 0.0 0.0 0.0 0.0
0.882 -0.05971474573016167 -0.04455797001719475 -0.5556470155715942 0.7432698011398315 0.0 0.0 0.0 0.0
0.883 -0.05480384826660156 -0.04322461038827896 -0.5260201692581177 0.7621515989303589 0.0 0.0 0.0 0.0
0.884 -0.04960190877318382 -0.04279029741883278 -0.5050352215766907 0.7759296298027039 0.0 0.0 0.0 0.0
0.885 -0.044231150299310684 -0.04167166352272034 -0.4750640392303467 0.7939215302467346 0.0 0.0 0.0 0.0
0.886 -0.04039592668414116 -0.042700689285993576 -0.4545639753341675 0.8069121837615967 0.0 0.0 0.0 0.0
0.887 -0.03506750985980034 -0.0429161936044693 -0.42085862159729004 0.823920726776123 0.0 0.0 0.0 0.0
0.888 -0.030637508258223534 -0.04405343532562256 -0.3994332551956177 0.8324887156486511 0.0 0.0 0.0 0.0
0.889 -0.026353169232606888 -0.045870259404182434 -0.36082831025123596 0.8520652055740356 0.0 0.0 0.0 0.0
0.89 -0.021572178229689598 -0.046001702547073364 -0.34268730878829956 0.857966423034668 0.0 0.0 0.0 0.0
0.891 -0.016675518825650215 -0.04809606820344925 -0.3087717890739441 0.8718827962875366 0.0 0.0 0.0 0.0
0.892 -0.013347775675356388 -0.05047023296356201 -0.2788695693016052 0.8812893033027649 0.0 0.0 0.0 0.0
0.893 -0.009168385528028011 -0.05377967655658722 -0.2509130537509918 0.8894604444503784 0.0 0.0 0.0 0.0
0.894 -0.00603813212364912 -0.055579718202352524 -0.2265268713235855 0.8930701017379761 0.0 0.0 0.0 0.0
0.895 -0.001255931332707405 -0.057416126132011414 -0.19257178902626038 0.9047365784645081 0.0 0.0 0.0 0.0
0.896 0.0020214738324284554 -0.0615093968808651 -0.16835008561611176 0.9049332737922668 0.0 0.0 0.0 0.0
0.897 0.0035214368253946304 -0.06476128846406937 -0.12861379981040955 0.912399172782898 0.0 0.0 0.0 0.0
0.898 0.007829511538147926 -0.06773775815963745 -0.10697831958532333 0.9135676026344299 0.0 0.0 0.0 0.0
0.899 0.011023327708244324 -0.07256212830543518 -0.07085268199443817 0.9211689829826355 0.0 0.0 0.0 0.0
0.9 0.011101791635155678 -0.07557983696460724 -0.04170544445514679 0.9183638095855713 0.0 0.0 0.0 0.0
0.901 0.014752479270100594 -0.07846357673406601 -0.015759991481900215 0.923494279384613 0.0 0.0 0.0 0.0
0.902 0.016075454652309418 -0.08381158858537674 0.015804143622517586 0.9206891655921936 0.0 0.0 0.0 0.0
0.903 0.017193414270877838 -0.08725201338529587 0.04480860382318497 0.9205212593078613 0.0 0.0 0.0 0.0
0.904 0.01869429461658001 -0.09197356551885605 0.07548829168081284 0.9173868894577026 0.0 0.0 0.0 0.0
0.905 0.02041408233344555 -0.09466604888439178 0.1045968309044838 0.9155457019805908 0.0 0.0 0.0 0.0
0.906 0.019383663311600685 -0.10001961886882782 0.13970822095870972 0.9099569916725159 0.0 0.0 0.0 0.0
0.907 0.020806070417165756 -0.10351327806711197 0.16625912487506866 0.9066082239151001 0.0 0.0 0.0 0.0
0.908 0.02093874290585518 -0.10861210525035858 0.200701043009758 0.8996964693069458 0.0 0.0 0.0 0.0
0.909 0.020610269159078598 -0.11221151798963547 0.22514450550079346 0.891741156578064 0.0 0.0 0.0 0.0
0.91 0.01912151277065277 -0.11507853865623474 0.2618354856967926 0.8818793892860413 0.0 0.0 0.0 0.0
0.911 0.018542075529694557 -0.11965909600257874 0.2789709270000458 0.8765657544136047 0.0 0.0 0.0 0.0
0.912 0.015563933178782463 -0.12453718483448029 0.3196544647216797 0.8629261255264282 0.0 0.0 0.0 0.0
0.913 0.016252823173999786 -0.12793117761611938 0.3350760042667389 0.8556041717529297 0.0 0.0 0.0 0.0
0.914 0.01506739854812622 -0.1319703459739685 0.3748582899570465 0.842000424861908 0.0 0.0 0.0 0.0
0.915 0.01105919573456049 -0.1342228204011917 0.3940197825431824 0.8282918334007263 0.0 0.0 0.0 0.0
0.916 0.009654618799686432 -0.1390739530324936 0.4294610023498535 0.814582884311676 0.0 0.0 0.0 0.0
0.917 0.007396411150693893 -0.14046140015125275 0.4460204541683197 0.8030446767807007 0.0 0.0 0.0 0.0
0.918 0.0044930120930075645 -0.14291787147521973 0.47937116026878357 0.7829511165618896 0.0 0.0 0.0 0.0
0.919 0.0020696334540843964 -0.14664950966835022 0.5007553696632385 0.7705384492874146 0.0 0.0 0.0 0.0
0.92 -0.002127251587808132 -0.1491100937128067 0.536587655544281 0.7469438910484314 0.0 0.0 0.0 0.0
0.921 -0.0031723659485578537 -0.15129530429840088 0.5523018836975098 0.7338945269584656 0.0 0.0 0.0 0.0
0.922 -0.00598827563226223 -0.15217962861061096 0.5817328691482544 0.7139535546302795 0.0 0.0 0.0 0.0
0.923 -0.009102942422032356 -0.1536598950624466 0.5940869450569153 0.6996299624443054 0.0 0.0 0.0 0.0
0.924 -0.013034631498157978 -0.154526025056839 0.6237331032752991 0.6735435724258423 0.0 0.0 0.0 0.0
0.925 -0.015669895336031914 -0.15674078464508057 0.6416893601417542 0.6563667058944702 0.0 0.0 0.0 0.0
0.926 -0.02126600407063961 -0.15786071121692657 0.672117292881012 0.6321322917938232 0.0 0.0 0.0 0.0
0.927 -0.02528334967792034 -0.15733599662780762 0.6854404211044312 0.6100236177444458 0.0 0.0 0.0 0.0
0.928 -0.029351182281970978 -0.15840008854866028 0.7113505005836487 0.5810132622718811 0.0 0.0 0.0 0.0
0.929 -0.030995488166809082 -0.15691186487674713 0.7220385670661926 0.5627588629722595 0.0 0.0 0.0 0.0
0.93 -0.03558630496263504 -0.15657298266887665 0.7441291213035583 0.536952793598175 0.0 0.0 0.0 0.0
0.931 -0.037378400564193726 -0.1561834067106247 0.7578929662704468 0.5133128762245178 0.0 0.0 0.0 0.0
0.932 -0.04270504042506218 -0.15674874186515808 0.7826211452484131 0.4849918782711029 0.0 0.0 0.0 0.0
0.933 -0.04473491385579109 -0.15360932052135468 0.7886087894439697 0.46009960770606995 0.0 0.0 0.0 0.0
0.934 -0.0486597940325737 -0.15373541414737701 0.8121387362480164 0.4321388900279999 0.0 0.0 0.0 0.0
0.935 -0.051697660237550735 -0.15220144391059875 0.8213945031166077 0.40731731057167053 0.0 0.0 0.0 0.0
0.936 -0.054694902151823044 -0.15037956833839417 0.8351939916610718 0.3780973255634308 0.0 0.0 0.0 0.0
0.937 -0.05851481854915619 -0.14816391468048096 0.8471779227256775 0.3500848412513733 0.0 0.0 0.0 0.0
0.938 -0.0594257153570652 -0.1445205956697464 0.8590185642242432 0.31443747878074646 0.0 0.0 0.0 0.0
0.939 -0.06217135488986969 -0.1415158212184906 0.8660147786140442 0.28996381163597107 0.0 0.0 0.0 0.0
0.94 -0.06410549581050873 -0.14020873606204987 0.8764638304710388 0.2650156319141388 0.0 0.0 0.0 0.0
0.941 -0.06801926344633102 -0.13747835159301758 0.8873279094696045 0.22895081341266632 0.0 0.0 0.0 0.0
0.942 -0.06780067086219788 -0.133067324757576 0.8878165483474731 0.2098945677280426 0.0 0.0 0.0 0.0
0.943 -0.06904156506061554 -0.12986306846141815 0.8984480500221252 0.1727038472890854 0.0 0.0 0.0 0.0
0.944 -0.07069628685712814 -0.1281348019838333 0.9019311666488647 0.14710815250873566 0.0 0.0 0.0 0.0
0.945 -0.07274332642555237 -0.12480983138084412 0.9083069562911987 0.11433667689561844 0.0 0.0 0.0 0.0
0.946 -0.07255414128303528 -0.12143503129482269 0.909800112247467 0.08567292243242264 0.0 0.0 0.0 0.0
0.947 -0.07368183135986328 -0.11768550425767899 0.9135291576385498 0.04987189173698425 0.0 0.0 0.0 0.0
0.948 -0.07241213321685791 -0.11350704729557037 0.9127894043922424 0.02724592573940754 0.0 0.0 0.0 0.0
0.949 -0.07199501991271973 -0.10966485738754272 0.9142372608184814 -0.008186627179384232 0.0 0.0 0.0 0.0
0.95 -0.0719279944896698 -0.10584777593612671 0.9098780155181885 -0.03387383744120598 0.0 0.0 0.0 0.0
0.951 -0.07073237001895905 -0.1034078598022461 0.9110651016235352 -0.06716164201498032 0.0 0.0 0.0 0.0
0.952 -0.07112216204404831 -0.09894135594367981 0.90260249376297 -0.09466354548931122 0.0 0.0 0.0 0.0
0.953 -0.06914135813713074 -0.0955030769109726 0.9003905653953552 -0.1280348002910614 0.0 0.0 0.0 0.0
0.954 -0.06856877356767654 -0.09258290380239487 0.8955236673355103 -0.15625476837158203 0.0 0.0 0.0 0.0
0.955 -0.06528415530920029 -0.09011931717395782 0.8907048106193542 -0.1858542412519455 0.0 0.0 0.0 0.0
0.956 -0.0636240616440773 -0.08573407679796219 0.8793938159942627 -0.21539132297039032 0.0 0.0 0.0 0.0
0.957 -0.061439741402864456 -0.08461925387382507 0.8773301839828491 -0.24212977290153503 0.0 0.0 0.0 0.0
0.958 -0.058537308126688004 -0.08196660876274109 0.8641927242279053 -0.2720164954662323 0.0 0.0 0.0 0.0
0.959 -0.056650519371032715 -0.07857425510883331 0.8565152883529663 -0.30120861530303955 0.0 0.0 0.0 0.0
0.96 -0.055133432149887085 -0.07652531564235687 0.8438812494277954 -0.33495140075683594 0.0 0.0 0.0 0.0
0.961 -0.05129290744662285 -0.07480069249868393 0.8357609510421753 -0.3575473725795746 0.0 0.0 0.0 0.0
0.962 -0.0476599857211113 -0.07241860032081604 0.816424548625946 -0.3835597336292267 0.0 0.0 0.0 0.0
0.963 -0.044844355434179306 -0.07088548690080643 0.8087935447692871 -0.4136040210723877 0.0 0.0 0.0 0.0
0.964 -0.04067523032426834 -0.07047387212514877 0.7934621572494507 -0.43646642565727234 0.0 0.0 0.0 0.0
0.965 -0.037913501262664795 -0.06841650605201721 0.7781643271446228 -0.46524879336357117 0.0 0.0 0.0 0.0
0.966 -0.03299127519130707 -0.06792965531349182 0.7611684203147888 -0.48955297470092773 0.0 0.0 0.0 0.0
0.967 -0.02933276817202568 -0.06817969679832458 0.7493320107460022 -0.5106008052825928 0.0 0.0 0.0 0.0
0.968 -0.026446891948580742 -0.06625054776668549 0.723595380783081 -0.5376555323600769 0.0 0.0 0.0 0.0
0.969 -0.02229393646121025 -0.06639645248651505 0.7080838084220886 -0.5576160550117493 0.0 0.0 0.0 0.0
0.97 -0.019530581310391426 -0.06711976230144501 0.6850354075431824 -0.5865631103515625 0.0 0.0 0.0 0.0
0.971 -0.014694376848638058 -0.06860578805208206 0.6738089919090271 -0.6036309003829956 0.0 0.0 0.0 0.0
0.972 -0.010387329384684563 -0.06902291625738144 0.6483989953994751 -0.6255702972412109 0.0 0.0 0.0 0.0
0.973 -0.007532144896686077 -0.0698777437210083 0.6273348331451416 -0.648025393486023 0.0 0.0 0.0 0.0
0.974 -0.004611429758369923 -0.07151898741722107 0.6015774011611938 -0.6720154881477356 0.0 0.0 0.0 0.0
0.975 0.0006456142291426659 -0.07275480031967163 0.5861058831214905 -0.6849998235702515 0.0 0.0 0.0 0.0
0.976 0.0024144239723682404 -0.07386886328458786 0.5545879006385803 -0.7088496088981628 0.0 0.0 0.0 0.0
0.977 0.006741154007613659 -0.07630105316638947 0.5371564030647278 -0.7208353281021118 0.0 0.0 0.0 0.0
0.978 0.010672908276319504 -0.07940906286239624 0.5121538043022156 -0.7406627535820007 0.0 0.0 0.0 0.0
0.979 0.012936459854245186 -0.08159112930297852 0.48739805817604065 -0.7538265585899353 0.0 0.0 0.0 0.0
0.98 0.015640374273061752 -0.08621995896100998 0.46103906631469727 -0.7767474055290222 0.0 0.0 0.0 0.0
0.981 0.019453328102827072 -0.08840262144804001 0.4432288408279419 -0.7850084900856018 0.0 0.0 0.0 0.0
0.982 0.02024218626320362 -0.09250891208648682 0.40635567903518677 -0.8050974607467651 0.0 0.0 0.0 0.0
0.983 0.022454136982560158 -0.09535417705774307 0.38459512591362 -0.8139901161193848 0.0 0.0 0.0 0.0
0.984 0.024148916825652122 -0.09750653803348541 0.3495780825614929 -0.8263023495674133 0.0 0.0 0.0 0.0
0.985 0.02683148719370365 -0.10172593593597412 0.32810506224632263 -0.8330951929092407 0.0 0.0 0.0 0.0
0.986 0.02843690663576126 -0.10573411732912064 0.2957834005355835 -0.8491494655609131 0.0 0.0 0.0 0.0
0.987 0.029223434627056122 -0.11058230698108673 0.27727097272872925 -0.8527289628982544 0.0 0.0 0.0 0.0
0.988 0.02911226451396942 -0.11438366770744324 0.2412337213754654 -0.8690515756607056 0.0 0.0 0.0 0.0
0.989 0.029531488195061684 -0.11830349266529083 0.2156992405653 -0.8712593913078308 0.0 0.0 0.0 0.0
0.99 0.0296163409948349 -0.123375304043293 0.1838948279619217 -0.8812265396118164 0.0 0.0 0.0 0.0
0.991 0.030941342934966087 -0.127809077501297 0.15960665047168732 -0.8833045363426208 0.0 0.0 0.0 0.0
0.992 0.029511624947190285 -0.13120944797992706 0.1284235715866089 -0.8915685415267944 0.0 0.0 0.0 0.0
0.993 0.02972092665731907 -0.13624230027198792 0.09912014752626419 -0.8910446166992188 0.0 0.0 0.0 0.0
0.994 0.02912520430982113 -0.13875852525234222 0.0659036934375763 -0.8951805830001831 0.0 0.0 0.0 0.0
0.995 0.02711094357073307 -0.1441773623228073 0.0386844202876091 -0.896689236164093 0.0 0.0 0.0 0.0
0.996 0.026200387626886368 -0.1475559026002884 0.012115846388041973 -0.8984848260879517 0.0 0.0 0.0 0.0
0.997 0.02390190213918686 -0.15204748511314392 -0.022580811753869057 -0.8977620005607605 0.0 0.0 0.0 0.0
0.998 0.02280496060848236 -0.15545162558555603 -0.05052763223648071 -0.8939501047134399 0.0 0.0 0.0 0.0
0.999 0.02108883112668991 -0.15858806669712067 -0.07585927098989487 -0.8916338682174683 0.0 0.0 0.0 0.0
1.0 0.017528614029288292 -0.16178710758686066 -0.11198623478412628 -0.8882225155830383 0.0 0.0 0.0 0.0
1.001 0.015153736807405949 -0.1615898460149765 -0.13907340168952942 -0.8833242058753967 0.0 0.0 0.0 0.0
1.002 0.012900012545287609 -0.16456012427806854 -0.16687889397144318 -0.8753653764724731 0.0 0.0 0.0 0.0
1.003 0.009194299578666687 -0.16798028349876404 -0.2000986933708191 -0.8732171654701233 0.0 0.0 0.0 0.0
1.004 0.0067756399512290955 -0.17048564553260803 -0.22490625083446503 -0.8615638017654419 0.0 0.0 0.0 0.0
1.005 0.0029938388615846634 -0.1742725819349289 -0.25537553429603577 -0.856632649898529 0.0 0.0 0.0 0.0
1.006 -0.0018947478383779526 -0.17560715973377228 -0.2840935289859772 -0.8464264869689941 0.0 0.0 0.0 0.0
1.007 -0.005602966994047165 -0.1788969188928604 -0.311550498008728 -0.8392267823219299 0.0 0.0 0.0 0.0
1.008 -0.010761931538581848 -0.1800207644701004 -0.33803361654281616 -0.8263344764709473 0.0 0.0 0.0 0.0
1.009 -0.01396501250565052 -0.18094702064990997 -0.3673073947429657 -0.8173527717590332 0.0 0.0 0.0 0.0
1.01 -0.017200814560055733 -0.18235281109809875 -0.3908444046974182 -0.7997708320617676 0.0 0.0 0.0 0.0
1.011 -0.022343050688505173 -0.18309089541435242 -0.4186621904373169 -0.7907867431640625 0.0 0.0 0.0 0.0
1.012 -0.02749539352953434 -0.18269528448581696 -0.44788864254951477 -0.7696919441223145 0.0 0.0 0.0 0.0
1.013 -0.029848437756299973 -0.1835499107837677 -0.467912495136261 -0.7561731934547424 0.0 0.0 0.0 0.0
1.014 -0.03604631870985031 -0.18344151973724365 -0.49815577268600464 -0.741107165813446 0.0 0.0 0.0 0.0
1.015 -0.03819847106933594 -0.18393230438232422 -0.5167009830474854 -0.7241213917732239 0.0 0.0 0.0 0.0
1.016 -0.04435647279024124 -0.18330202996730804 -0.5426051020622253 -0.7059873342514038 0.0 0.0 0.0 0.0
1.017 -0.04751318320631981 -0.18229041993618011 -0.5640294551849365 -0.6914985179901123 0.0 0.0 0.0 0.0
1.018 -0.05441628023982048 -0.18053914606571198 -0.5941662192344666 -0.6626784205436707 0.0 0.0 0.0 0.0
1.019 -0.056623540818691254 -0.1785585731267929 -0.608229398727417 -0.6479104161262512 0.0 0.0 0.0 0.0
1.02 -0.062441613525152206 -0.17748677730560303 -0.6350054740905762 -0.622408926486969 0.0 0.0 0.0 0.0
1.021 -0.06388326734304428 -0.1744520515203476 -0.6470080018043518 -0.6076675057411194 0.0 0.0 0.0 0.0
1.022 -0.06956262141466141 -0.17194898426532745 -0.676105260848999 -0.5777928233146667 0.0 0.0 0.0 0.0
1.023 -0.0695575550198555 -0.1702427715063095 -0.6823804974555969 -0.5630984902381897 0.0 0.0 0.0 0.0
1.024 -0.0761173740029335 -0.16699181497097015 -0.7119728326797485 -0.5307999849319458 0.0 0.0 0.0 0.0
1.025 -0.07637891918420792 -0.1642870455980301 -0.7179166078567505 -0.5178144574165344 0.0 0.0 0.0 0.0
1.026 -0.0825437381863594 -0.16047415137290955 -0.7450682520866394 -0.4807855188846588 0.0 0.0 0.0 0.0
1.027 -0.08332668244838715 -0.15636759996414185 -0.7513308525085449 -0.4656233489513397 0.0 0.0 0.0 0.0
1.028 -0.08668424934148788 -0.1543871909379959 -0.7718946933746338 -0.4370850920677185 0.0 0.0 0.0 0.0
1.029 -0.08815408498048782 -0.15044941008090973 -0.7794642448425293 -0.41559821367263794 0.0 0.0 0.0 0.0
1.03 -0.08980701863765717 -0.14483356475830078 -0.7964845299720764 -0.3794293999671936 0.0 0.0 0.0 0.0
1.031 -0.08990772068500519 -0.14128009974956512 -0.8041643500328064 -0.3615889251232147 0.0 0.0 0.0 0.0
1.032 -0.09367556869983673 -0.1367066651582718 -0.8211956024169922 -0.32681524753570557 0.0 0.0 0.0 0.0
1.033 -0.0940321683883667 -0.13417315483093262 -0.8259947896003723 -0.3071019649505615 0.0 0.0 0.0 0.0
1.034 -0.09588202089071274 -0.1295344978570938 -0.8414857983589172 -0.27183985710144043 0.0 0.0 0.0 0.0
1.035 -0.09558115899562836 -0.12430001050233841 -0.8448347449302673 -0.24737626314163208 0.0 0.0 0.0 0.0
1.036 -0.09569718688726425 -0.11957152932882309 -0.8568966388702393 -0.2128572165966034 0.0 0.0 0.0 0.0
1.037 -0.09510534256696701 -0.11488966643810272 -0.8559743165969849 -0.19068273901939392 0.0 0.0 0.0 0.0
1.038 -0.09387940913438797 -0.11132355034351349 -0.8649711012840271 -0.1613048017024994 0.0 0.0 0.0 0.0
1.039 -0.09265238046646118 -0.10693873465061188 -0.8675607442855835 -0.13451915979385376 0.0 0.0 0.0 0.0
1.04 -0.09256786108016968 -0.10276703536510468 -0.8752300143241882 -0.10269814729690552 0.0 0.0 0.0 0.0
1.041 -0.09067977964878082 -0.10060808807611465 -0.8724731802940369 -0.07777486741542816 0.0 0.0 0.0 0.0
1.042 -0.08975184708833694 -0.09504856914281845 -0.8793402314186096 -0.047141868621110916 0.0 0.0 0.0 0.0
1.043 -0.08854162693023682 -0.09115711599588394 -0.8751934766769409 -0.019392799586057663 0.0 0.0 0.0 0.0
1.044 -0.08485136181116104 -0.08752825111150742 -0.8786789178848267 0.008209289982914925 0.0 0.0 0.0 0.0
1.045 -0.0837654396891594 -0.0847635269165039 -0.8746575713157654 0.045035649091005325 0.0 0.0 0.0 0.0
1.046 -0.07989045977592468 -0.08187541365623474 -0.8697954416275024 0.0633331760764122 0.0 0.0 0.0 0.0
1.047 -0.07769017666578293 -0.07895238697528839 -0.8702384233474731 0.10174500942230225 0.0 0.0 0.0 0.0
1.048 -0.07503026723861694 -0.07523524761199951 -0.8657243847846985 0.12051452696323395 0.0 0.0 0.0 0.0
1.049 -0.07278476655483246 -0.0729624405503273 -0.8607187271118164 0.15936331450939178 0.0 0.0 0.0 0.0
1.05 -0.06811696290969849 -0.06979890912771225 -0.8554942607879639 0.1779908686876297 0.0 0.0 0.0 0.0
1.051 -0.06569106131792068 -0.06812027841806412 -0.8477391004562378 0.21419085562229156 0.0 0.0 0.0 0.0
1.052 -0.061036672443151474 -0.06567652523517609 -0.8397342562675476 0.2344893515110016 0.0 0.0 0.0 0.0
1.053 -0.057153455913066864 -0.06533725559711456 -0.8306377530097961 0.2688986361026764 0.0 0.0 0.0 0.0
1.054 -0.054365649819374084 -0.06320369243621826 -0.8231202960014343 0.29022330045700073 0.0 0.0 0.0 0.0
1.055 -0.0511913001537323 -0.06235288083553314 -0.8114752173423767 0.32331764698028564 0.0 0.0 0.0 0.0
1.056 -0.04517434164881706 -0.06020446494221687 -0.7996976971626282 0.3427082300186157 0.0 0.0 0.0 0.0
1.057 -0.04135199263691902 -0.06097746267914772 -0.788666844367981 0.3741917014122009 0.0 0.0 0.0 0.0
1.058 -0.037194523960351944 -0.059708673506975174 -0.777308464050293 0.3893663287162781 0.0 0.0 0.0 0.0
1.059 -0.03382152318954468 -0.0594080314040184 -0.7611677646636963 0.42777150869369507 0.0 0.0 0.0 0.0
1.06 -0.030930137261748314 -0.06007044017314911 -0.7463401556015015 0.443312406539917 0.0 0.0 0.0 0.0
1.061 -0.026108987629413605 -0.060250863432884216 -0.7322844862937927 0.4740186929702759 0.0 0.0 0.0 0.0
1.062 -0.02249193750321865 -0.06101282685995102 -0.7144539952278137 0.49250394105911255 0.0 0.0 0.0 0.0
1.063 -0.017278209328651428 -0.06295428425073624 -0.7001925706863403 0.5206243395805359 0.0 0.0 0.0 0.0
1.064 -0.013964503072202206 -0.06406030803918839 -0.6828364133834839 0.5364435911178589 0.0 0.0 0.0 0.0
1.065 -0.011474570259451866 -0.06528744846582413 -0.6644137501716614 0.5626841187477112 0.0 0.0 0.0 0.0
1.066 -0.007238016463816166 -0.06751841306686401 -0.6434707641601562 0.5810794830322266 0.0 0.0 0.0 0.0
1.067 -0.004058176651597023 -0.0700075775384903 -0.6271832585334778 0.606674313545227 0.0 0.0 0.0 0.0
1.068 -0.0016745012253522873 -0.07154295593500137 -0.6045088171958923 0.6237560510635376 0.0 0.0 0.0 0.0
1.069 0.0007345080375671387 -0.07415974140167236 -0.5829180479049683 0.6443374752998352 0.0 0.0 0.0 0.0
1.07 0.003205825574696064 -0.07796939462423325 -0.5595918297767639 0.6625525951385498 0.0 0.0 0.0 0.0
1.071 0.006958740763366222 -0.08106914162635803 -0.5409069657325745 0.6816442012786865 0.0 0.0 0.0 0.0
1.072 0.008601777255535126 -0.08283185213804245 -0.5127975344657898 0.6978265047073364 0.0 0.0 0.0 0.0
1.073 0.010715712793171406 -0.08676396310329437 -0.4942874014377594 0.7129734754562378 0.0 0.0 0.0 0.0
1.074 0.01141218189150095 -0.09013766050338745 -0.46693941950798035 0.7305833101272583 0.0 0.0 0.0 0.0
1.075 0.014328718185424805 -0.09336921572685242 -0.4429912567138672 0.7454976439476013 0.0 0.0 0.0 0.0
1.076 0.014769098721444607 -0.09774448722600937 -0.4182787537574768 0.7606797814369202 0.0 0.0 0.0 0.0
1.077 0.016605453565716743 -0.10000471770763397 -0.3965701162815094 0.7716265320777893 0.0 0.0 0.0 0.0
1.078 0.017057355493307114 -0.10466796159744263 -0.36490368843078613 0.7868621945381165 0.0 0.0 0.0 0.0
1.079 0.01787213422358036 -0.10724541544914246 -0.3434593081474304 0.7949213981628418 0.0 0.0 0.0 0.0
1.08 0.017131423577666283 -0.11057880520820618 -0.3134531080722809 0.8071231842041016 0.0 0.0 0.0 0.0
1.081 0.01803020015358925 -0.114689402282238 -0.2909357249736786 0.8152665495872498 0.0 0.0 0.0 0.0
1.082 0.016081327572464943 -0.11792872846126556 -0.254991739988327 0.8271132111549377 0.0 0.0 0.0 0.0
1.083 0.01652674190700054 -0.12167393416166306 -0.236047625541687 0.8319546580314636 0.0 0.0 0.0 0.0
1.084 0.015259787440299988 -0.12613080441951752 -0.19907042384147644 0.8429061770439148 0.0 0.0 0.0 0.0
1.085 0.01362694799900055 -0.1278817504644394 -0.17998768389225006 0.845587432384491 0.0 0.0 0.0 0.0
1.086 0.013137073256075382 -0.13278470933437347 -0.14310622215270996 0.8549817800521851 0.0 0.0 0.0 0.0
1.087 0.011215616948902607 -0.1357041448354721 -0.12462912499904633 0.8550081849098206 0.0 0.0 0.0 0.0
1.088 0.008911232464015484 -0.13734540343284607 -0.08662541210651398 0.860795259475708 0.0 0.0 0.0 0.0
1.089 0.006770104169845581 -0.1413000524044037 -0.06798703223466873 0.8607336282730103 0.0 0.0 0.0 0.0
1.09 0.0033698193728923798 -0.14316315948963165 -0.027997763827443123 0.8629840016365051 0.0 0.0 0.0 0.0
1.091 0.00252566859126091 -0.1457587033510208 -0.008294143714010715 0.861803412437439 0.0 0.0 0.0 0.0
1.092 -0.0010427627712488174 -0.14762847125530243 0.023980211466550827 0.863319456577301 0.0 0.0 0.0 0.0
1.093 -0.0035780761390924454 -0.15126627683639526 0.04865507036447525 0.8612074851989746 0.0 0.0 0.0 0.0
1.094 -0.006334533914923668 -0.15091462433338165 0.08006110787391663 0.8597915172576904 0.0 0.0 0.0 0.0
1.095 -0.010029677301645279 -0.15451708436012268 0.10757862031459808 0.8543894290924072 0.0 0.0 0.0 0.0
1.096 -0.013351121917366982 -0.15599869191646576 0.14075283706188202 0.8516727685928345 0.0 0.0 0.0 0.0
1.097 -0.01751030422747135 -0.15534363687038422 0.16537345945835114 0.8418188691139221 0.0 0.0 0.0 0.0
1.098 -0.019651636481285095 -0.15619462728500366 0.18824587762355804 0.8412706851959229 0.0 0.0 0.0 0.0
1.099 -0.024403421208262444 -0.15646623075008392 0.2224295735359192 0.8299394249916077 0.0 0.0 0.0 0.0
1.1 -0.026485688984394073 -0.15809927880764008 0.24976174533367157 0.8228211402893066 0.0 0.0 0.0 0.0
1.101 -0.031004726886749268 -0.15654675662517548 0.27665236592292786 0.8121514916419983 0.0 0.0 0.0 0.0
1.102 -0.033219438046216965 -0.15697523951530457 0.29997268319129944 0.8065842986106873 0.0 0.0 0.0 0.0
1.103 -0.03653862699866295 -0.1566356122493744 0.32613739371299744 0.7934210896492004 0.0 0.0 0.0 0.0
1.104 -0.04170665144920349 -0.1560642570257187 0.3524279296398163 0.78187495470047 0.0 0.0 0.0 0.0
1.105 -0.04545220732688904 -0.15476158261299133 0.3824009299278259 0.765583872795105 0.0 0.0 0.0 0.0
1.106 -0.04689592495560646 -0.15283238887786865 0.40116050839424133 0.7586517333984375 0.0 0.0 0.0 0.0
1.107 -0.05009336397051811 -0.1529640257358551 0.4312724769115448 0.7396391034126282 0.0 0.0 0.0 0.0
1.108 -0.05340678617358208 -0.1508830487728119 0.45054948329925537 0.7284871339797974 0.0 0.0 0.0 0.0
1.109 -0.05576197803020477 -0.14860856533050537 0.47902628779411316 0.7079370617866516 0.0 0.0 0.0 0.0
1.11 -0.05834417790174484 -0.1466788649559021 0.4967336058616638 0.6976545453071594 0.0 0.0 0.0 0.0
1.111 -0.06190255284309387 -0.14429013431072235 0.525983989238739 0.673998236656189 0.0 0.0 0.0 0.0
1.112 -0.06379250437021255 -0.1415860801935196 0.5408895611763 0.6606796979904175 0.0 0.0 0.0 0.0
1.113 -0.06602063030004501 -0.13863340020179749 0.566669762134552 0.6393809914588928 0.0 0.0 0.0 0.0
1.114 -0.06754986941814423 -0.13575509190559387 0.5818836688995361 0.6226944327354431 0.0 0.0 0.0 0.0
1.115 -0.07101728022098541 -0.13187634944915771 0.606653094291687 0.5959931015968323 0.0 0.0 0.0 0.0
1.116 -0.07095417380332947 -0.12945221364498138 0.6202845573425293 0.582845151424408 0.0 0.0 0.0 0.0
1.117 -0.07247594743967056 -0.12635467946529388 0.6459407806396484 0.5570653080940247 0.0 0.0 0.0 0.0
1.118 -0.0731416642665863 -0.12333858758211136 0.6561751365661621 0.5401620268821716 0.0 0.0 0.0 0.0
1.119 -0.07452938705682755 -0.11939865350723267 0.6811701655387878 0.5107601881027222 0.0 0.0 0.0 0.0
1.12 -0.07446000725030899 -0.11569233238697052 0.688954770565033 0.49487149715423584 0.0 0.0 0.0 0.0
1.121 -0.07681045681238174 -0.11281447857618332 0.7136549949645996 0.46242016553878784 0.0 0.0 0.0 0.0
1.122 -0.07595349848270416 -0.10836661607027054 0.7224981784820557 0.4419267475605011 0.0 0.0 0.0 0.0
1.123 -0.07704010605812073 -0.1046881228685379 0.7390965223312378 0.41583287715911865 0.0 0.0 0.0 0.0
1.124 -0.07410221546888351 -0.10180380195379257 0.7474718689918518 0.39763566851615906 0.0 0.0 0.0 0.0
1.125 -0.07522877305746078 -0.09879697114229202 0.766412615776062 0.3648999333381653 0.0 0.0 0.0 0.0
1.126 -0.07334619760513306 -0.09483113884925842 0.7711880207061768 0.34843742847442627 0.0 0.0 0.0 0.0
1.127 -0.0738891139626503 -0.09067058563232422 0.7844566702842712 0.31687214970588684 0.0 0.0 0.0 0.0
1.128 -0.07022107392549515 -0.08798994868993759 0.7907977104187012 0.29888877272605896 0.0 0.0 0.0 0.0
1.129 -0.06988750398159027 -0.0836142748594284 0.8022937178611755 0.2644893229007721 0.0 0.0 0.0 0.0
1.13 -0.06776633113622665 -0.08073321729898453 0.8060984015464783 0.24430128931999207 0.0 0.0 0.0 0.0
1.131 -0.0666133239865303 -0.0793929398059845 0.8216042518615723 0.20717830955982208 0.0 0.0 0.0 0.0
1.132 -0.0634249746799469 -0.07536941021680832 0.8192524313926697 0.18886616826057434 0.0 0.0 0.0 0.0
1.133 -0.06259790807962418 -0.0723918154835701 0.8299311399459839 0.15223847329616547 0.0 0.0 0.0 0.0
1.134 -0.05859633535146713 -0.07175891846418381 0.8328743577003479 0.13205403089523315 0.0 0.0 0.0 0.0
1.135 -0.05518543720245361 -0.06916169077157974 0.8395382761955261 0.10342958569526672 0.0 0.0 0.0 0.0
1.136 -0.05335823446512222 -0.06691484898328781 0.8390316963195801 0.08097771555185318 0.0 0.0 0.0 0.0
1.137 -0.04975564777851105 -0.06544994562864304 0.8435001969337463 0.056930966675281525 0.0 0.0 0.0 0.0
1.138 -0.04785855486989021 -0.06250063329935074 0.8412072658538818 0.019579727202653885 0.0 0.0 0.0 0.0
1.139 -0.04326244071125984 -0.06212424114346504 0.8426770567893982 -0.00285237655043602 0.0 0.0 0.0 0.0
1.14 -0.040281444787979126 -0.060905665159225464 0.8409669399261475 -0.03492960333824158 0.0 0.0 0.0 0.0
1.141 -0.03642046079039574 -0.060142382979393005 0.8412418961524963 -0.056453779339790344 0.0 0.0 0.0 0.0
1.142 -0.0337914414703846 -0.05881928279995918 0.8366425037384033 -0.09532678872346878 0.0 0.0 0.0 0.0
1.143 -0.029631471261382103 -0.05898456647992134 0.8357828855514526 -0.11159926652908325 0.0 0.0 0.0 0.0
1.144 -0.027921857312321663 -0.05765758454799652 0.8268342018127441 -0.1509665995836258 0.0 0.0 0.0 0.0
1.145 -0.02289753034710884 -0.05851372331380844 0.82459557056427 -0.1656007021665573 0.0 0.0 0.0 0.0
1.146 -0.02139674499630928 -0.057969409972429276 0.8156561851501465 -0.20378340780735016 0.0 0.0 0.0 0.0
1.147 -0.015842372551560402 -0.05986849218606949 0.8121029138565063 -0.21766385436058044 0.0 0.0 0.0 0.0
1.148 -0.012272960506379604 -0.06063823029398918 0.8006696105003357 -0.2554946839809418 0.0 0.0 0.0 0.0
1.149 -0.009407736361026764 -0.061170320957899094 0.793185293674469 -0.27596384286880493 0.0 0.0 0.0 0.0
1.15 -0.007802576757967472 -0.0620599202811718 0.7806884050369263 -0.3071504533290863 0.0 0.0 0.0 0.0
1.151 -0.0035847434774041176 -0.06313028186559677 0.7735456824302673 -0.3229655623435974 0.0 0.0 0.0 0.0
1.152 -0.0005645044147968292 -0.0647454783320427 0.7591601014137268 -0.35731664299964905 0.0 0.0 0.0 0.0
1.153 0.001609806902706623 -0.0685994103550911 0.7498140931129456 -0.37619826197624207 0.0 0.0 0.0 0.0
1.154 0.005150490440428257 -0.07057569921016693 0.7347491979598999 -0.40807726979255676 0.0 0.0 0.0 0.0
1.155 0.00702582485973835 -0.07128825038671494 0.721664547920227 -0.4244500696659088 0.0 0.0 0.0 0.0
1.156 0.009620021097362041 -0.07515940815210342 0.7075091004371643 -0.45569509267807007 0.0 0.0 0.0 0.0
1.157 0.012018166482448578 -0.07730406522750854 0.6942789554595947 -0.46890372037887573 0.0 0.0 0.0 0.0
1.158 0.012064054608345032 -0.07883573323488235 0.6724469661712646 -0.5013464093208313 0.0 0.0 0.0 0.0
1.159 0.013723932206630707 -0.08334195613861084 0.6571649312973022 -0.5179161429405212 0.0 0.0 0.0 0.0
1.16 0.01436878927052021 -0.08601546287536621 0.6388261914253235 -0.5464982390403748 0.0 0.0 0.0 0.0
1.161 0.015604616142809391 -0.08900590986013412 0.6216711401939392 -0.5594319105148315 0.0 0.0 0.0 0.0
1.162 0.016974642872810364 -0.09104377776384354 0.5970084071159363 -0.5875185132026672 0.0 0.0 0.0 0.0
1.163 0.018522832542657852 -0.09523118287324905 0.5854212045669556 -0.5996778011322021 0.0 0.0 0.0 0.0
1.164 0.01944344863295555 -0.09870719164609909 0.561184287071228 -0.6244251132011414 0.0 0.0 0.0 0.0
1.165 0.018292995169758797 -0.10102313756942749 0.5443872213363647 -0.6347250938415527 0.0 0.0 0.0 0.0
1.166 0.017728939652442932 -0.1040671318769455 0.5157678127288818 -0.6615375280380249 0.0 0.0 0.0 0.0
1.167 0.0188125167042017 -0.10635843873023987 0.49796563386917114 -0.6692160964012146 0.0 0.0 0.0 0.0
1.168 0.01664622500538826 -0.11042740195989609 0.4692358076572418 -0.6940497159957886 0.0 0.0 0.0 0.0
1.169 0.016354529187083244 -0.11309287697076797 0.4492523670196533 -0.7035287618637085 0.0 0.0 0.0 0.0
1.17 0.015248025767505169 -0.11596724390983582 0.42127153277397156 -0.7229626178741455 0.0 0.0 0.0 0.0
1.171 0.014625049196183681 -0.11828453093767166 0.4010070860385895 -0.7294055223464966 0.0 0.0 0.0 0.0
1.172 0.012588887475430965 -0.12084715068340302 0.3747701346874237 -0.7486984133720398 0.0 0.0 0.0 0.0
1.173 0.011328308843076229 -0.12489060312509537 0.3531484603881836 -0.753695547580719 0.0 0.0 0.0 0.0
1.174 0.009977140463888645 -0.12682245671749115 0.3240121901035309 -0.7688789367675781 0.0 0.0 0.0 0.0
1.175 0.006070515140891075 -0.12940910458564758 0.2997948229312897 -0.7780357003211975 0.0 0.0 0.0 0.0
1.176 0.0033271852880716324 -0.1309211552143097 0.27676793932914734 -0.7886751294136047 0.0 0.0 0.0 0.0
1.177 0.0030197976157069206 -0.13312698900699615 0.25249621272087097 -0.7918349504470825 0.0 0.0 0.0 0.0
1.178 8.623488247394562e-05 -0.13460591435432434 0.2138737142086029 -0.8047583103179932 0.0 0.0 0.0 0.0
1.179 -0.002352587878704071 -0.13609355688095093 0.1924547255039215 -0.8056514263153076 0.0 0.0 0.0 0.0
1.18 -0.005215533077716827 -0.136265367269516 0.16883832216262817 -0.8155944347381592 0.0 0.0 0.0 0.0
1.181 -0.009257215075194836 -0.13770225644111633 0.13358215987682343 -0.8179624080657959 0.0 0.0 0.0 0.0
1.182 -0.011472951620817184 -0.1388099044561386 0.11194499582052231 -0.8243745565414429 0.0 0.0 0.0 0.0
1.183 -0.01536336075514555 -0.14056727290153503 0.08515048027038574 -0.8267407417297363 0.0 0.0 0.0 0.0
1.184 -0.017830640077590942 -0.13955199718475342 0.06000598892569542 -0.8253062963485718 0.0 0.0 0.0 0.0
1.185 -0.02255556359887123 -0.13869409263134003 0.025100694969296455 -0.8254547715187073 0.0 0.0 0.0 0.0
1.186 -0.024109959602355957 -0.1385750025510788 0.005052188411355019 -0.8246560096740723 0.0 0.0 0.0 0.0
1.187 -0.027912722900509834 -0.13786762952804565 -0.03086678497493267 -0.8249385952949524 0.0 0.0 0.0 0.0
1.188 -0.030567092821002007 -0.13862091302871704 -0.046118345111608505 -0.8250060081481934 0.0 0.0 0.0 0.0
1.189 -0.03380550071597099 -0.13641127943992615 -0.08135025948286057 -0.820334792137146 0.0 0.0 0.0 0.0
1.19 -0.036607526242733 -0.13570325076580048 -0.10162857919931412 -0.8168560266494751 0.0 0.0 0.0 0.0
1.191 -0.04212792590260506 -0.13444772362709045 -0.14168936014175415 -0.8126530051231384 0.0 0.0 0.0 0.0
1.192 -0.04174870625138283 -0.13236404955387115 -0.15525513887405396 -0.8082726001739502 0.0 0.0 0.0 0.0
1.193 -0.04488016292452812 -0.13141582906246185 -0.19126920402050018 -0.8005943298339844 0.0 0.0 0.0 0.0
1.194 -0.04751452058553696 -0.12816889584064484 -0.20993837714195251 -0.7915483117103577 0.0 0.0 0.0 0.0
1.195 -0.05069020017981529 -0.12491849809885025 -0.2437596619129181 -0.7840648293495178 0.0 0.0 0.0 0.0
1.196 -0.052214767783880234 -0.1241798996925354 -0.26018285751342773 -0.7767207026481628 0.0 0.0 0.0 0.0
1.197 -0.055818237364292145 -0.12054463475942612 -0.29301345348358154 -0.7683252692222595 0.0 0.0 0.0 0.0
1.198 -0.05586498603224754 -0.1182391345500946 -0.31303906440734863 -0.7551746368408203 0.0 0.0 0.0 0.0
1.199 -0.05783979967236519 -0.11545830219984055 -0.3405419588088989 -0.7457199692726135 0.0 0.0 0.0 0.0
1.2 -0.0598357617855072 -0.11180877685546875 -0.35742679238319397 -0.73204106092453 0.0 0.0 0.0 0.0
1.201 -0.06120389699935913 -0.10722966492176056 -0.390225887298584 -0.7199306488037109 0.0 0.0 0.0 0.0
1.202 -0.0626269206404686 -0.10343904793262482 -0.41051921248435974 -0.7035333514213562 0.0 0.0 0.0 0.0
1.203 -0.06233031675219536 -0.10221260040998459 -0.43469032645225525 -0.6921671628952026 0.0 0.0 0.0 0.0
1.204 -0.06281541287899017 -0.09794264286756516 -0.4555496573448181 -0.6746424436569214 0.0 0.0 0.0 0.0
1.205 -0.06307172775268555 -0.09509877115488052 -0.4760018587112427 -0.6622095704078674 0.0 0.0 0.0 0.0
1.206 -0.06408058106899261 -0.09103742241859436 -0.4927055239677429 -0.6464481949806213 0.0 0.0 0.0 0.0
1.207 -0.0625208169221878 -0.08610950410366058 -0.5180281400680542 -0.6307910680770874 0.0 0.0 0.0 0.0
1.208 -0.062271807342767715 -0.0826774388551712 -0.5357908606529236 -0.608468770980835 0.0 0.0 0.0 0.0
1.209 -0.060847874730825424 -0.0802132785320282 -0.556030809879303 -0.5919678807258606 0.0 0.0 0.0 0.0
1.21 -0.06109362840652466 -0.07643594592809677 -0.5740809440612793 -0.5740956664085388 0.0 0.0 0.0 0.0
1.211 -0.058928828686475754 -0.07217562943696976 -0.5938214659690857 -0.5541769862174988 0.0 0.0 0.0 0.0
1.212 -0.058555468916893005 -0.06822385638952255 -0.6110883355140686 -0.5323818325996399 0.0 0.0 0.0 0.0
1.213 -0.05558803305029869 -0.0667140856385231 -0.6251258850097656 -0.517457902431488 0.0 0.0 0.0 0.0
1.214 -0.05452511087059975 -0.06275688111782074 -0.6457017064094543 -0.49240443110466003 0.0 0.0 0.0 0.0
1.215 -0.051180120557546616 -0.059689030051231384 -0.6600383520126343 -0.47462230920791626 0.0 0.0 0.0 0.0
1.216 -0.04863649979233742 -0.05611556023359299 -0.6744347810745239 -0.44341644644737244 0.0 0.0 0.0 0.0
1.217 -0.045659732073545456 -0.053781699389219284 -0.6867033839225769 -0.42740321159362793 0.0 0.0 0.0 0.0
1.218 -0.04249440133571625 -0.05036657676100731 -0.7015772461891174 -0.4008687734603882 0.0 0.0 0.0 0.0
1.219 -0.040465742349624634 -0.04928627982735634 -0.7137643098831177 -0.385410338640213 0.0 0.0 0.0 0.0
1.22 -0.03687482699751854 -0.04620092362165451 -0.7266936302185059 -0.3511604368686676 0.0 0.0 0.0 0.0
1.221 -0.03323361650109291 -0.04543880373239517 -0.7340127229690552 -0.338460236787796 0.0 0.0 0.0 0.0
1.222 -0.029762472957372665 -0.043295636773109436 -0.7496889233589172 -0.30432409048080444 0.0 0.0 0.0 0.0
1.223 -0.025710005313158035 -0.04157279059290886 -0.7525949478149414 -0.288997620344162 0.0 0.0 0.0 0.0
1.224 -0.02271318808197975 -0.04120854288339615 -0.7669915556907654 -0.2590978145599365 0.0 0.0 0.0 0.0
1.225 -0.01826375536620617 -0.040353912860155106 -0.7732395529747009 -0.24032525718212128 0.0 0.0 0.0 0.0
1.226 -0.014110217802226543 -0.03970985487103462 -0.7807740569114685 -0.2039564996957779 0.0 0.0 0.0 0.0
1.227 -0.009975924156606197 -0.03878723457455635 -0.7848352789878845 -0.18676069378852844 0.0 0.0 0.0 0.0
1.228 -0.006744798272848129 -0.03805061802268028 -0.7938781380653381 -0.14977286756038666 0.0 0.0 0.0 0.0
1.229 -0.0025824178010225296 -0.03881789371371269 -0.7957413792610168 -0.1365000158548355 0.0 0.0 0.0 0.0
1.23 0.00089276023209095 -0.039005346596241 -0.8014506697654724 -0.1037454605102539 0.0 0.0 0.0 0.0
1.231 0.00649898499250412 -0.04067635163664818 -0.8018260598182678 -0.08197621256113052 0.0 0.0 0.0 0.0
1.232 0.008741714991629124 -0.04120617359876633 -0.8060603141784668 -0.052206363528966904 0.0 0.0 0.0 0.0
1.233 0.012354462407529354 -0.0424288734793663 -0.8045668601989746 -0.027574416249990463 0.0 0.0 0.0 0.0
1.234 0.017900165170431137 -0.04265628382563591 -0.8092362880706787 0.001165955327451229 0.0 0.0 0.0 0.0
1.235 0.020553095266222954 -0.0462036170065403 -0.8040209412574768 0.026962481439113617 0.0 0.0 0.0 0.0
1.236 0.02377704717218876 -0.04788878932595253 -0.8060117363929749 0.05002032220363617 0.0 0.0 0.0 0.0
1.237 0.028154760599136353 -0.04973640292882919 -0.8009538650512695 0.08248068392276764 0.0 0.0 0.0 0.0
1.238 0.031037939712405205 -0.051716674119234085 -0.8003300428390503 0.1106092557311058 0.0 0.0 0.0 0.0
1.239 0.03468174859881401 -0.05487600713968277 -0.7939532399177551 0.13237719237804413 0.0 0.0 0.0 0.0
1.24 0.037611979991197586 -0.058604493737220764 -0.7911447286605835 0.160389244556427 0.0 0.0 0.0 0.0
1.241 0.0397353433072567 -0.06170095503330231 -0.7809937000274658 0.19120213389396667 0.0 0.0 0.0 0.0
1.242 0.04223265498876572 -0.06476177275180817 -0.7792055010795593 0.209183469414711 0.0 0.0 0.0 0.0
1.243 0.04320821166038513 -0.06942795217037201 -0.7690392732620239 0.23997743427753448 0.0 0.0 0.0 0.0
1.244 0.046260345727205276 -0.07223077863454819 -0.7623828053474426 0.25788241624832153 0.0 0.0 0.0 0.0
1.245 0.04621433466672897 -0.0763126090168953 -0.7499479651451111 0.29299041628837585 0.0 0.0 0.0 0.0
1.246 0.049213774502277374 -0.07908013463020325 -0.744097888469696 0.30826592445373535 0.0 0.0 0.0 0.0
1.247 0.049724362790584564 -0.08430954068899155 -0.729617714881897 0.34109053015708923 0.0 0.0 0.0 0.0
1.248 0.050389014184474945 -0.08779674023389816 -0.721498429775238 0.35515716671943665 0.0 0.0 0.0 0.0
1.249 0.05082530528306961 -0.09169352054595947 -0.7054138779640198 0.3880155682563782 0.0 0.0 0.0 0.0
1.25 0.051565736532211304 -0.0954534262418747 -0.6968182325363159 0.4036550223827362 0.0 0.0 0.0 0.0
1.251 0.049709249287843704 -0.10034208744764328 -0.6759934425354004 0.4373134672641754 0.0 0.0 0.0 0.0
1.252 0.050594061613082886 -0.10383420437574387 -0.6662042140960693 0.45039796829223633 0.0 0.0 0.0 0.0
1.253 0.049401432275772095 -0.10741903632879257 -0.6457885503768921 0.47709667682647705 0.0 0.0 0.0 0.0
1.254 0.04891642555594444 -0.11242066323757172 -0.6342041492462158 0.49324673414230347 0.0 0.0 0.0 0.0
1.255 0.04749421402812004 -0.11544791609048843 -0.6117914319038391 0.5197340250015259 0.0 0.0 0.0 0.0
1.256 0.04573368653655052 -0.11935260146856308 -0.6004706621170044 0.5315667390823364 0.0 0.0 0.0 0.0
1.257 0.04311640188097954 -0.12326168268918991 -0.5727460384368896 0.5619826912879944 0.0 0.0 0.0 0.0
1.258 0.04257878661155701 -0.1270272135734558 -0.5607782602310181 0.5712154507637024 0.0 0.0 0.0 0.0
1.259 0.039476945996284485 -0.13197489082813263 -0.5357325673103333 0.5970284342765808 0.0 0.0 0.0 0.0
1.26 0.037752773612737656 -0.13347335159778595 -0.523276150226593 0.60471111536026 0.0 0.0 0.0 0.0
1.261 0.03486618399620056 -0.13712026178836823 -0.4977065920829773 0.62934809923172 0.0 0.0 0.0 0.0
1.262 0.031046077609062195 -0.1383819878101349 -0.4780040979385376 0.6382942199707031 0.0 0.0 0.0 0.0
1.263 0.026338880881667137 -0.14221946895122528 -0.4511430859565735 0.6584018468856812 0.0 0.0 0.0 0.0
1.264 0.024401340633630753 -0.14387400448322296 -0.43394577503204346 0.6679248213768005 0.0 0.0 0.0 0.0
1.265 0.02102643810212612 -0.1457090526819229 -0.4079558253288269 0.6874735355377197 0.0 0.0 0.0 0.0
1.266 0.01685909554362297 -0.1490645706653595 -0.3882042467594147 0.6943497657775879 0.0 0.0 0.0 0.0
1.267 0.013335682451725006 -0.14923524856567383 -0.3616681396961212 0.7121390700340271 0.0 0.0 0.0 0.0
1.268 0.008960165083408356 -0.15021947026252747 -0.3389778435230255 0.7187715768814087 0.0 0.0 0.0 0.0
1.269 0.003841754049062729 -0.15158985555171967 -0.31211867928504944 0.732673168182373 0.0 0.0 0.0 0.0
1.27 0.0002497052773833275 -0.1520422101020813 -0.2927582263946533 0.7365329265594482 0.0 0.0 0.0 0.0
1.271 -0.00470614992082119 -0.15335963666439056 -0.26241394877433777 0.751064658164978 0.0 0.0 0.0 0.0
1.272 -0.007565909996628761 -0.15311932563781738 -0.2415870577096939 0.7549564838409424 0.0 0.0 0.0 0.0
1.273 -0.011585772037506104 -0.1512564718723297 -0.21455031633377075 0.7644184827804565 0.0 0.0 0.0 0.0
1.274 -0.015165794640779495 -0.15159612894058228 -0.19175918400287628 0.7672263383865356 0.0 0.0 0.0 0.0
1.275 -0.01951950043439865 -0.15055377781391144 -0.17017126083374023 0.7731264233589172 0.0 0.0 0.0 0.0
1.276 -0.025851817801594734 -0.14874930679798126 -0.13592150807380676 0.7786177396774292 0.0 0.0 0.0 0.0
1.277 -0.027869129553437233 -0.14763961732387543 -0.11542140692472458 0.7842816114425659 0.0 0.0 0.0 0.0
1.278 -0.03291323408484459 -0.14651241898536682 -0.08336621522903442 0.7843528389930725 0.0 0.0 0.0 0.0
1.279 -0.03537382185459137 -0.14401672780513763 -0.06454050540924072 0.7864199280738831 0.0 0.0 0.0 0.0
1.28 -0.03975924104452133 -0.14110714197158813 -0.03051244094967842 0.7870976328849792 0.0 0.0 0.0 0.0
1.281 -0.04237150773406029 -0.13876301050186157 -0.01643362082540989 0.7851558327674866 0.0 0.0 0.0 0.0
1.282 -0.04737240821123123 -0.136190265417099 0.023230204358696938 0.7860245108604431 0.0 0.0 0.0 0.0
1.283 -0.04949024319648743 -0.13305257260799408 0.03925042599439621 0.784091055393219 0.0 0.0 0.0 0.0
1.284 -0.05364127457141876 -0.1300538033246994 0.07553455233573914 0.7823702096939087 0.0 0.0 0.0 0.0
1.285 -0.05482253432273865 -0.12613211572170258 0.08711080998182297 0.7800107002258301 0.0 0.0 0.0 0.0
1.286 -0.058141112327575684 -0.12109977751970291 0.1212620884180069 0.7736779451370239 0.0 0.0 0.0 0.0
1.287 -0.05931873619556427 -0.11753237992525101 0.1424741894006729 0.7690899968147278 0.0 0.0 0.0 0.0
1.288 -0.061924856156110764 -0.11351446807384491 0.17252536118030548 0.7628572583198547 0.0 0.0 0.0 0.0
1.289 -0.061812788248062134 -0.10961270332336426 0.18745774030685425 0.7563656568527222 0.0 0.0 0.0 0.0
1.29 -0.06315630674362183 -0.10622032731771469 0.22177287936210632 0.751975953578949 0.0 0.0 0.0 0.0
1.291 -0.06483003497123718 -0.10129769146442413 0.2340635359287262 0.7422953844070435 0.0 0.0 0.0 0.0
1.292 -0.06661203503608704 -0.09758816659450531 0.271310955286026 0.7318291664123535 0.0 0.0 0.0 0.0
1.293 -0.06605441868305206 -0.09200826287269592 0.2864398956298828 0.7238186001777649 0.0 0.0 0.0 0.0
1.294 -0.06660502403974533 -0.08883971720933914 0.3179771602153778 0.7135717868804932 0.0 0.0 0.0 0.0
1.295 -0.06558075547218323 -0.08279704302549362 0.33142977952957153 0.7012256979942322 0.0 0.0 0.0 0.0
1.296 -0.06520594656467438 -0.0780237540602684 0.35919326543807983 0.6898478865623474 0.0 0.0 0.0 0.0
1.297 -0.06314042955636978 -0.07426188141107559 0.37450459599494934 0.6792512536048889 0.0 0.0 0.0 0.0
1.298 -0.06137315183877945 -0.06994641572237015 0.4040085971355438 0.6658223867416382 0.0 0.0 0.0 0.0
1.299 -0.06091342866420746 -0.06553418934345245 0.41896918416023254 0.6517643928527832 0.0 0.0 0.0 0.0
1.3 -0.058897264301776886 -0.06151862069964409 0.4443906247615814 0.6381758451461792 0.0 0.0 0.0 0.0
1.301 -0.05669214576482773 -0.05793097987771034 0.4598870873451233 0.6249904632568359 0.0 0.0 0.0 0.0
1.302 -0.05503175035119057 -0.05495023354887962 0.48721885681152344 0.6067323088645935 0.0 0.0 0.0 0.0
1.303 -0.051582351326942444 -0.050020769238471985 0.4982445240020752 0.5916461944580078 0.0 0.0 0.0 0.0
1.304 -0.048473723232746124 -0.047298774123191833 0.5261066555976868 0.5734285712242126 0.0 0.0 0.0 0.0
1.305 -0.04660096764564514 -0.04406686872243881 0.5375751852989197 0.5568091869354248 0.0 0.0 0.0 0.0
1.306 -0.042470552027225494 -0.03985784947872162 0.5536876320838928 0.5407881140708923 0.0 0.0 0.0 0.0
1.307 -0.039482731372117996 -0.03835742920637131 0.5736890435218811 0.5206111073493958 0.0 0.0 0.0 0.0
1.308 -0.03490205481648445 -0.035203106701374054 0.5921769738197327 0.5027536153793335 0.0 0.0 0.0 0.0
1.309 -0.03229181468486786 -0.03314179927110672 0.605553388595581 0.4816131591796875 0.0 0.0 0.0 0.0
1.31 -0.02825557440519333 -0.030545776709914207 0.6236218810081482 0.4595469832420349 0.0 0.0 0.0 0.0
1.311 -0.022734839469194412 -0.028667397797107697 0.6340875029563904 0.4402308762073517 0.0 0.0 0.0 0.0
1.312 -0.018459327518939972 -0.026563875377178192 0.6513590216636658 0.41914573311805725 0.0 0.0 0.0 0.0
1.313 -0.014884326606988907 -0.02608793042600155 0.662755012512207 0.3973976969718933 0.0 0.0 0.0 0.0
1.314 -0.00948390457779169 -0.026131847873330116 0.6790941953659058 0.375602126121521 0.0 0.0 0.0 0.0
1.315 -0.004777773283421993 -0.0244376752525568 0.6858851909637451 0.35372281074523926 0.0 0.0 0.0 0.0
1.316 -0.0005447166040539742 -0.025504112243652344 0.7026663422584534 0.33198821544647217 0.0 0.0 0.0 0.0
1.317 0.0032169856131076813 -0.02566898800432682 0.7096821665763855 0.3088357746601105 0.0 0.0 0.0 0.0
1.318 0.00794621929526329 -0.025184303522109985 0.7204869389533997 0.28277039527893066 0.0 0.0 0.0 0.0
1.319 0.013541332446038723 -0.025987086817622185 0.7266389727592468 0.258127897977829 0.0 0.0 0.0 0.0
1.32 0.017895089462399483 -0.027193430811166763 0.7362627387046814 0.24042606353759766 0.0 0.0 0.0 0.0
1.321 0.021746210753917694 -0.028709061443805695 0.7431920170783997 0.21556836366653442 0.0 0.0 0.0 0.0
1.322 0.026003960520029068 -0.03095904365181923 0.7496103048324585 0.19062863290309906 0.0 0.0 0.0 0.0
1.323 0.02938784472644329 -0.032034553587436676 0.7577128410339355 0.15625162422657013 0.0 0.0 0.0 0.0
1.324 0.03444594144821167 -0.03530045971274376 0.7603186964988708 0.14058074355125427 0.0 0.0 0.0 0.0
1.325 0.037454213947057724 -0.03863092511892319 0.7685196399688721 0.10512964427471161 0.0 0.0 0.0 0.0
1.326 0.04209776967763901 -0.04072783142328262 0.7682338356971741 0.0895393118262291 0.0 0.0 0.0 0.0
1.327 0.04446665570139885 -0.04427671059966087 0.7729995250701904 0.0515468567609787 0.0 0.0 0.0 0.0
1.328 0.04890667647123337 -0.04693175479769707 0.7708383798599243 0.04191897064447403 0.0 0.0 0.0 0.0
1.329 0.051931362599134445 -0.05172339454293251 0.7753217220306396 0.0035534007474780083 0.0 0.0 0.0 0.0
1.33 0.053946465253829956 -0.05513673648238182 0.773361325263977 -0.014943867921829224 0.0 0.0 0.0 0.0
1.331 0.05554366484284401 -0.05972848832607269 0.7746289372444153 -0.050094202160835266 0.0 0.0 0.0 0.0
1.332 0.058875273913145065 -0.062210842967033386 0.7676292657852173 -0.06447605788707733 0.0 0.0 0.0 0.0
1.333 0.059708211570978165 -0.06659361720085144 0.7660595774650574 -0.09844093024730682 0.0 0.0 0.0 0.0
1.334 0.06196761131286621 -0.07188685238361359 0.7624605894088745 -0.11754127591848373 0.0 0.0 0.0 0.0
1.335 0.061814773827791214 -0.07669790089130402 0.7593725323677063 -0.1524532586336136 0.0 0.0 0.0 0.0
1.336 0.06220507621765137 -0.0809078961610794 0.7513981461524963 -0.16731765866279602 0.0 0.0 0.0 0.0
1.337 0.0627313032746315 -0.08617598563432693 0.7484089136123657 -0.19758906960487366 0.0 0.0 0.0 0.0
1.338 0.06388752907514572 -0.08936596661806107 0.7370096445083618 -0.217361718416214 0.0 0.0 0.0 0.0
1.339 0.06258049607276917 -0.09500925242900848 0.7288213968276978 -0.25185081362724304 0.0 0.0 0.0 0.0
1.34 0.061772964894771576 -0.10085995495319366 0.720389187335968 -0.2714064419269562 0.0 0.0 0.0 0.0
1.341 0.06202908605337143 -0.10540405660867691 0.7126595377922058 -0.2956499755382538 0.0 0.0 0.0 0.0
1.342 0.05950659140944481 -0.10970033705234528 0.7005367279052734 -0.3150889277458191 0.0 0.0 0.0 0.0
1.343 0.059634726494550705 -0.11267054080963135 0.6913493275642395 -0.33495479822158813 0.0 0.0 0.0 0.0
1.344 0.05618603527545929 -0.11903727054595947 0.6782707571983337 -0.35986045002937317 0.0 0.0 0.0 0.0
1.345 0.05531543120741844 -0.12218552827835083 0.663810670375824 -0.38388311862945557 0.0 0.0 0.0 0.0
1.346 0.050640858709812164 -0.12683913111686707 0.6507302522659302 -0.40490585565567017 0.0 0.0 0.0 0.0
1.347 0.04917815700173378 -0.1306646168231964 0.6362479329109192 -0.4256237745285034 0.0 0.0 0.0 0.0
1.348 0.04392222687602043 -0.13397222757339478 0.6189539432525635 -0.4494785666465759 0.0 0.0 0.0 0.0
1.349 0.040617458522319794 -0.13686326146125793 0.6058459877967834 -0.4679979681968689 0.0 0.0 0.0 0.0
1.35 0.03585430979728699 -0.14014244079589844 0.5840694904327393 -0.4890161156654358 0.0 0.0 0.0 0.0
1.351 0.03407036513090134 -0.14369839429855347 0.5769338011741638 -0.4997975528240204 0.0 0.0 0.0 0.0
1.352 0.028477324172854424 -0.14617298543453217 0.554898202419281 -0.520592212677002 0.0 0.0 0.0 0.0
1.353 0.023747405037283897 -0.14809611439704895 0.5371556282043457 -0.5413051247596741 0.0 0.0 0.0 0.0
1.354 0.018803466111421585 -0.15031570196151733 0.5152499675750732 -0.5585278868675232 0.0 0.0 0.0 0.0
1.355 0.015407494269311428 -0.1520071178674698 0.5009998083114624 -0.5704254508018494 0.0 0.0 0.0 0.0
1.356 0.009473003447055817 -0.15313944220542908 0.47684773802757263 -0.5859300494194031 0.0 0.0 0.0 0.0
1.357 0.004961904138326645 -0.15324713289737701 0.45996618270874023 -0.5997946858406067 0.0 0.0 0.0 0.0
1.358 -0.0007643485441803932 -0.15391139686107635 0.432169109582901 -0.6185123324394226 0.0 0.0 0.0 0.0
1.359 -0.005674939602613449 -0.1542837768793106 0.41917675733566284 -0.6283324956893921 0.0 0.0 0.0 0.0
1.36 -0.011880166828632355 -0.15401038527488708 0.38915640115737915 -0.6434513926506042 0.0 0.0 0.0 0.0
1.361 -0.01644863747060299 -0.15378959476947784 0.37319713830947876 -0.6537629961967468 0.0 0.0 0.0 0.0
1.362 -0.022109607234597206 -0.15379492938518524 0.35033586621284485 -0.666905403137207 0.0 0.0 0.0 0.0
1.363 -0.02557108737528324 -0.15174636244773865 0.3335098326206207 -0.6722649931907654 0.0 0.0 0.0 0.0
1.364 -0.032696910202503204 -0.1497737616300583 0.3026238679885864 -0.6852598190307617 0.0 0.0 0.0 0.0
1.365 -0.03739745542407036 -0.1478162705898285 0.28271129727363586 -0.6925554871559143 0.0 0.0 0.0 0.0
1.366 -0.042061030864715576 -0.14511103928089142 0.25696083903312683 -0.7024683952331543 0.0 0.0 0.0 0.0
1.367 -0.04692571237683296 -0.14343687891960144 0.24457032978534698 -0.7047914862632751 0.0 0.0 0.0 0.0
1.368 -0.05108070746064186 -0.13939346373081207 0.2103002518415451 -0.7177268862724304 0.0 0.0 0.0 0.0
1.369 -0.057181160897016525 -0.13718701899051666 0.19058948755264282 -0.7190581560134888 0.0 0.0 0.0 0.0
1.37 -0.058989983052015305 -0.1330045461654663 0.16683733463287354 -0.727283775806427 0.0 0.0 0.0 0.0
1.371 -0.063291996717453 -0.12880779802799225 0.14607051014900208 -0.726814329624176 0.0 0.0 0.0 0.0
1.372 -0.06949712336063385 -0.1250646561384201 0.11636865884065628 -0.7366154193878174 0.0 0.0 0.0 0.0
1.373 -0.07077612727880478 -0.1206653043627739 0.0968136191368103 -0.7325032353401184 0.0 0.0 0.0 0.0
1.374 -0.07460271567106247 -0.11528689414262772 0.07045763731002808 -0.738408625125885 0.0 0.0 0.0 0.0
1.375 -0.07762309163808823 -0.11185559630393982 0.04775337129831314 -0.7391659617424011 0.0 0.0 0.0 0.0
1.376 -0.0793103575706482 -0.10667049884796143 0.02544427290558815 -0.7388704419136047 0.0 0.0 0.0 0.0
1.377 -0.08387637883424759 -0.10093962401151657 0.0010860580950975418 -0.739406406879425 0.0 0.0 0.0 0.0
1.378 -0.08395114541053772 -0.09540826082229614 -0.025924891233444214 -0.7382714748382568 0.0 0.0 0.0 0.0
1.379 -0.08709611743688583 -0.08967728167772293 -0.04866839200258255 -0.7378244996070862 0.0 0.0 0.0 0.0
1.38 -0.08756062388420105 -0.08396638184785843 -0.06951918452978134 -0.7324355244636536 0.0 0.0 0.0 0.0
1.381 -0.08953739702701569 -0.07833228260278702 -0.09653480350971222 -0.7311620712280273 0.0 0.0 0.0 0.0
1.382 -0.08953544497489929 -0.07315035909414291 -0.11568626016378403 -0.7294681668281555 0.0 0.0 0.0 0.0
1.383 -0.09096793085336685 -0.06653939932584763 -0.14527156949043274 -0.7207188606262207 0.0 0.0 0.0 0.0
1.384 -0.08904680609703064 -0.06205538660287857 -0.15136662125587463 -0.7196893095970154 0.0 0.0 0.0 0.0
1.385 -0.08983808755874634 -0.055396273732185364 -0.18884994089603424 -0.712236762046814 0.0 0.0 0.0 0.0
1.386 -0.08835315704345703 -0.0490715429186821 -0.20488707721233368 -0.7038467526435852 0.0 0.0 0.0 0.0
1.387 -0.08766112476587296 -0.04254546016454697 -0.23693925142288208 -0.6951310038566589 0.0 0.0 0.0 0.0
1.388 -0.08572831004858017 -0.03801470249891281 -0.24865974485874176 -0.6917988657951355 0.0 0.0 0.0 0.0
1.389 -0.08484439551830292 -0.03131110966205597 -0.2792322635650635 -0.6793468594551086 0.0 0.0 0.0 0.0
1.39 -0.08158248662948608 -0.02697732113301754 -0.2905833125114441 -0.6744004487991333 0.0 0.0 0.0 0.0
1.391 -0.07879359275102615 -0.02025585249066353 -0.32033571600914 -0.6599754095077515 0.0 0.0 0.0 0.0
1.392 -0.07558529078960419 -0.015347263775765896 -0.3287026882171631 -0.6533709168434143 0.0 0.0 0.0 0.0
1.393 -0.07325471937656403 -0.009327772073447704 -0.3648430109024048 -0.6359745264053345 0.0 0.0 0.0 0.0
1.394 -0.06988460570573807 -0.00574979092925787 -0.3717387616634369 -0.6294130086898804 0.0 0.0 0.0 0.0
1.395 -0.06678659468889236 -0.0007219696417450905 -0.40741026401519775 -0.6112455129623413 0.0 0.0 0.0 0.0
1.396 -0.06178659945726395 0.003951806575059891 -0.4099259674549103 -0.6064009666442871 0.0 0.0 0.0 0.0
1.397 -0.05833032727241516 0.008250732906162739 -0.4419688880443573 -0.5864033699035645 0.0 0.0 0.0 0.0
1.398 -0.053427908569574356 0.01079324446618557 -0.44954171776771545 -0.5809694528579712 0.0 0.0 0.0 0.0
1.399 -0.0473923459649086 0.015229332260787487 -0.4776419997215271 -0.5587646961212158 0.0 0.0 0.0 0.0
1.4 -0.04366868734359741 0.018635135143995285 -0.4870603680610657 -0.5457693934440613 0.0 0.0 0.0 0.0
1.401 -0.03913617506623268 0.02151835709810257 -0.5117837190628052 -0.5296542048454285 0.0 0.0 0.0 0.0
1.402 -0.032834094017744064 0.0233327504247427 -0.5238325595855713 -0.5165802836418152 0.0 0.0 0.0 0.0
1.403 -0.027040310204029083 0.02717590518295765 -0.5458353161811829 -0.49464622139930725 0.0 0.0 0.0 0.0
1.404 -0.022031042724847794 0.028813490644097328 -0.5558638572692871 -0.48033446073532104 0.0 0.0 0.0 0.0
1.405 -0.016126271337270737 0.029270030558109283 -0.5747637152671814 -0.45827746391296387 0.0 0.0 0.0 0.0
1.406 -0.010442622937262058 0.03151858225464821 -0.5836669206619263 -0.44385603070259094 0.0 0.0 0.0 0.0
1.407 -0.003991627134382725 0.03197036683559418 -0.6063357591629028 -0.4180600047111511 0.0 0.0 0.0 0.0
1.408 0.0014431094750761986 0.03224382549524307 -0.6156668066978455 -0.40140438079833984 0.0 0.0 0.0 0.0
1.409 0.006248314864933491 0.033783260732889175 -0.6331071257591248 -0.38054409623146057 0.0 0.0 0.0 0.0
1.41 0.012317209504544735 0.032476626336574554 -0.6381615996360779 -0.3664097487926483 0.0 0.0 0.0 0.0
1.411 0.019115466624498367 0.03268654644489288 -0.6564173698425293 -0.3395092189311981 0.0 0.0 0.0 0.0
1.412 0.023945702239871025 0.03151373565196991 -0.6645212769508362 -0.31818798184394836 0.0 0.0 0.0 0.0
1.413 0.029260264709591866 0.030551977455615997 -0.6718969941139221 -0.31168028712272644 0.0 0.0 0.0 0.0
1.414 0.03545236960053444 0.02833421342074871 -0.6841274499893188 -0.2746089696884155 0.0 0.0 0.0 0.0
1.415 0.040204402059316635 0.026989148929715157 -0.6945079565048218 -0.2583882212638855 0.0 0.0 0.0 0.0
1.416 0.045523397624492645 0.024214545264840126 -0.7024993896484375 -0.22803384065628052 0.0 0.0 0.0 0.0
1.417 0.05044332519173622 0.022768018767237663 -0.707746684551239 -0.21172095835208893 0.0 0.0 0.0 0.0
1.418 0.05549461394548416 0.01867625117301941 -0.7193021178245544 -0.17891672253608704 0.0 0.0 0.0 0.0
1.419 0.059988003224134445 0.016749443486332893 -0.7209219336509705 -0.16399280726909637 0.0 0.0 0.0 0.0
1.42 0.06379275023937225 0.012850839644670486 -0.7291139364242554 -0.13226476311683655 0.0 0.0 0.0 0.0
1.421 0.06889262795448303 0.00959046371281147 -0.729863703250885 -0.11637818813323975 0.0 0.0 0.0 0.0
1.422 0.07232363522052765 0.004037294536828995 -0.7366530299186707 -0.07984180003404617 0.0 0.0 0.0 0.0
1.423 0.07607431709766388 0.0014037368819117546 -0.7376841306686401 -0.07314140349626541 0.0 0.0 0.0 0.0
1.424 0.07826962321996689 -0.0026586633175611496 -0.7419204115867615 -0.03220374137163162 0.0 0.0 0.0 0.0
1.425 0.08115547150373459 -0.00731096975505352 -0.7409627437591553 -0.019068844616413116 0.0 0.0 0.0 0.0
1.426 0.08376659452915192 -0.012031485326588154 -0.7434192299842834 0.018917391076683998 0.0 0.0 0.0 0.0
1.427 0.08611342310905457 -0.01610218733549118 -0.7410755157470703 0.029951130971312523 0.0 0.0 0.0 0.0
1.428 0.08811608701944351 -0.020626116544008255 -0.7402927875518799 0.062338151037693024 0.0 0.0 0.0 0.0
1.429 0.08958011865615845 -0.02563326619565487 -0.7354719042778015 0.08078986406326294 0.0 0.0 0.0 0.0
1.43 0.09080542623996735 -0.03210602328181267 -0.7337261438369751 0.1128738597035408 0.0 0.0 0.0 0.0
1.431 0.09151995927095413 -0.03641863167285919 -0.7284465432167053 0.13051939010620117 0.0 0.0 0.0 0.0
1.432 0.0914643406867981 -0.040951795876026154 -0.7263652682304382 0.1582517772912979 0.0 0.0 0.0 0.0
1.433 0.09234476834535599 -0.045327380299568176 -0.7190325856208801 0.17695625126361847 0.0 0.0 0.0 0.0
1.434 0.09321555495262146 -0.0507214292883873 -0.7141237258911133 0.2102707326412201 0.0 0.0 0.0 0.0
1.435 0.09245436638593674 -0.05526213347911835 -0.7038235664367676 0.22781944274902344 0.0 0.0 0.0 0.0
1.436 0.09057597070932388 -0.060603540390729904 -0.6975268125534058 0.25375714898109436 0.0 0.0 0.0 0.0
1.437 0.08967959135770798 -0.06373004615306854 -0.6890633702278137 0.2698046565055847 0.0 0.0 0.0 0.0
1.438 0.08842029422521591 -0.07005422562360764 -0.6784631013870239 0.30268004536628723 0.0 0.0 0.0 0.0
1.439 0.08622720837593079 -0.07322784513235092 -0.6678248643875122 0.3195728361606598 0.0 0.0 0.0 0.0
1.44 0.08471354097127914 -0.07695832848548889 -0.6610360145568848 0.3389083743095398 0.0 0.0 0.0 0.0
1.441 0.0802936926484108 -0.08144430071115494 -0.6431690454483032 0.3639463484287262 0.0 0.0 0.0 0.0
1.442 0.07973158359527588 -0.08404934406280518 -0.6349751949310303 0.3868180811405182 0.0 0.0 0.0 0.0
1.443 0.07573063671588898 -0.08910682052373886 -0.6177909970283508 0.405143141746521 0.0 0.0 0.0 0.0
1.444 0.073257677257061 -0.09107070416212082 -0.6106499433517456 0.4191155433654785 0.0 0.0 0.0 0.0
1.445 0.06877756863832474 -0.09355705231428146 -0.589519202709198 0.4448513090610504 0.0 0.0 0.0 0.0
1.446 0.06542867422103882 -0.09712674468755722 -0.5757750272750854 0.4629696309566498 0.0 0.0 0.0 0.0
1.447 0.06085357069969177 -0.09860572218894958 -0.5552960634231567 0.4844498634338379 0.0 0.0 0.0 0.0
1.448 0.05816483497619629 -0.10078650712966919 -0.5454360246658325 0.49995866417884827 0.0 0.0 0.0 0.0
1.449 0.05483785644173622 -0.10296601057052612 -0.5230942368507385 0.5184834599494934 0.0 0.0 0.0 0.0
1.45 0.050314441323280334 -0.10321369767189026 -0.5117599368095398 0.5336209535598755 0.0 0.0 0.0 0.0
1.451 0.04648954048752785 -0.1046571284532547 -0.4868120551109314 0.5518999099731445 0.0 0.0 0.0 0.0
1.452 0.04260590299963951 -0.10591794550418854 -0.4757305979728699 0.5632503032684326 0.0 0.0 0.0 0.0
1.453 0.0373968705534935 -0.10685105621814728 -0.447746604681015 0.5849953293800354 0.0 0.0 0.0 0.0
1.454 0.03424923121929169 -0.10547986626625061 -0.4369889795780182 0.5934309363365173 0.0 0.0 0.0 0.0
1.455 0.029657049104571342 -0.10672476142644882 -0.4065617322921753 0.6130192279815674 0.0 0.0 0.0 0.0
1.456 0.025500522926449776 -0.10500159114599228 -0.3945784866809845 0.6218533515930176 0.0 0.0 0.0 0.0
1.457 0.02227524295449257 -0.10433340072631836 -0.366657018661499 0.6369861364364624 0.0 0.0 0.0 0.0
1.458 0.01855556294322014 -0.10275121033191681 -0.35660144686698914 0.6421581506729126 0.0 0.0 0.0 0.0
1.459 0.014341732487082481 -0.10131185501813889 -0.33385053277015686 0.6542577743530273 0.0 0.0 0.0 0.0
1.46 0.011177223175764084 -0.09890469163656235 -0.3128259778022766 0.6624562740325928 0.0 0.0 0.0 0.0
1.461 0.007611661218106747 -0.09857013076543808 -0.28254902362823486 0.6762746572494507 0.0 0.0 0.0 0.0
1.462 0.003936963155865669 -0.09578172862529755 -0.26310649514198303 0.6821082830429077 0.0 0.0 0.0 0.0
1.463 -4.155002534389496e-05 -0.09294067323207855 -0.23776958882808685 0.6922585368156433 0.0 0.0 0.0 0.0
1.464 -0.0024078264832496643 -0.08939935266971588 -0.2151993215084076 0.6972501873970032 0.0 0.0 0.0 0.0
1.465 -0.00515582412481308 -0.08734389394521713 -0.19284385442733765 0.7063114047050476 0.0 0.0 0.0 0.0
1.466 -0.0074079399928450584 -0.08313075453042984 -0.1679084151983261 0.710293710231781 0.0 0.0 0.0 0.0
1.467 -0.008888157084584236 -0.07995832711458206 -0.15027761459350586 0.7151085734367371 0.0 0.0 0.0 0.0
1.468 -0.010310660116374493 -0.07618440687656403 -0.11828424781560898 0.7177931070327759 0.0 0.0 0.0 0.0
1.469 -0.012002221308648586 -0.0725783184170723 -0.10240980237722397 0.7234923243522644 0.0 0.0 0.0 0.0
1.47 -0.013500346802175045 -0.06991156935691833 -0.07374324649572372 0.7261515855789185 0.0 0.0 0.0 0.0
1.471 -0.01418635156005621 -0.06619808077812195 -0.05460796877741814 0.726482629776001 0.0 0.0 0.0 0.0
1.472 -0.015227366238832474 -0.061643678694963455 -0.026830704882740974 0.7288608551025391 0.0 0.0 0.0 0.0
1.473 -0.016001474112272263 -0.057638347148895264 -0.004770554602146149 0.728699266910553 0.0 0.0 0.0 0.0
1.474 -0.016568906605243683 -0.0531885102391243 0.022214524447917938 0.7278608679771423 0.0 0.0 0.0 0.0
1.475 -0.015767596662044525 -0.05029672756791115 0.037413425743579865 0.7267844676971436 0.0 0.0 0.0 0.0
1.476 -0.016456464305520058 -0.04585644230246544 0.06955070793628693 0.7227385640144348 0.0 0.0 0.0 0.0
1.477 -0.014706026762723923 -0.042425498366355896 0.0841820240020752 0.723180890083313 0.0 0.0 0.0 0.0
1.478 -0.013174588792026043 -0.038331396877765656 0.11877425760030746 0.7186339497566223 0.0 0.0 0.0 0.0
1.479 -0.012030892074108124 -0.03468967229127884 0.13036417961120605 0.7150918245315552 0.0 0.0 0.0 0.0
1.48 -0.010803893208503723 -0.031295157968997955 0.1648319512605667 0.7093315720558167 0.0 0.0 0.0 0.0
1.481 -0.00848429836332798 -0.027925986796617508 0.17798186838626862 0.7050597071647644 0.0 0.0 0.0 0.0
1.482 -0.008078758604824543 -0.023900261148810387 0.21045853197574615 0.6961438655853271 0.0 0.0 0.0 0.0
1.483 -0.0045290179550647736 -0.021582767367362976 0.22184303402900696 0.6909072399139404 0.0 0.0 0.0 0.0
1.484 -0.0026183780282735825 -0.017934096977114677 0.2563589811325073 0.6826004981994629 0.0 0.0 0.0 0.0
1.485 0.0013561379164457321 -0.015280387364327908 0.26824885606765747 0.6761588454246521 0.0 0.0 0.0 0.0
1.486 0.004982774145901203 -0.012803101912140846 0.29888638854026794 0.6657219529151917 0.0 0.0 0.0 0.0
1.487 0.006885867565870285 -0.010230790823698044 0.31178250908851624 0.6555471420288086 0.0 0.0 0.0 0.0
1.488 0.010820298455655575 -0.008487144485116005 0.3460054397583008 0.641258716583252 0.0 0.0 0.0 0.0
1.489 0.014554491266608238 -0.0054065389558672905 0.3524363338947296 0.6338164210319519 0.0 0.0 0.0 0.0
1.49 0.016890505328774452 -0.0036115022376179695 0.37878158688545227 0.6210799217224121 0.0 0.0 0.0 0.0
1.491 0.021362455561757088 -0.002377636730670929 0.3964509665966034 0.607587456703186 0.0 0.0 0.0 0.0
1.492 0.025853808969259262 -0.0011079469695687294 0.4211728274822235 0.5925049781799316 0.0 0.0 0.0 0.0
1.493 0.029557064175605774 -0.0002371557056903839 0.42940762639045715 0.583860456943512 0.0 0.0 0.0 0.0
1.494 0.03355160355567932 0.00039902981370687485 0.4591858386993408 0.5655769109725952 0.0 0.0 0.0 0.0
1.495 0.03862619027495384 -0.0009544314816594124 0.47062239050865173 0.5548692941665649 0.0 0.0 0.0 0.0
1.496 0.04221240431070328 -0.0009584175422787666 0.49536973237991333 0.5341087579727173 0.0 0.0 0.0 0.0
1.497 0.04568645730614662 -0.0010239342227578163 0.5076448917388916 0.5201790928840637 0.0 0.0 0.0 0.0
1.498 0.051139410585165024 -0.0009943852201104164 0.5274630784988403 0.5022327303886414 0.0 0.0 0.0 0.0
1.499 0.05407622829079628 -0.0016224831342697144 0.5414090752601624 0.48230454325675964 0.0 0.0 0.0 0.0
1.5 0.058093152940273285 -0.002990598790347576 0.5594026446342468 0.4686196744441986 0.0 0.0 0.0 0.0
1.501 0.061552613973617554 -0.0043775420635938644 0.5732516050338745 0.4460318088531494 0.0 0.0 0.0 0.0
1.502 0.06496507674455643 -0.006015091203153133 0.5887904167175293 0.4286404252052307 0.0 0.0 0.0 0.0
1.503 0.06997478753328323 -0.008911514654755592 0.6031633019447327 0.4060228765010834 0.0 0.0 0.0 0.0
1.504 0.07343582063913345 -0.010681115090847015 0.6134618520736694 0.3929698169231415 0.0 0.0 0.0 0.0
1.505 0.07605499029159546 -0.012850333005189896 0.624909520149231 0.3728802502155304 0.0 0.0 0.0 0.0
1.506 0.07881848514080048 -0.016591506078839302 0.6361526846885681 0.35085850954055786 0.0 0.0 0.0 0.0
1.507 0.0825771912932396 -0.01982441358268261 0.6550195217132568 0.3232520520687103 0.0 0.0 0.0 0.0
1.508 0.0842977911233902 -0.022527722641825676 0.6571632623672485 0.3081926703453064 0.0 0.0 0.0 0.0
1.509 0.08609623461961746 -0.025295622646808624 0.6707061529159546 0.27878496050834656 0.0 0.0 0.0 0.0
1.51 0.08979456126689911 -0.02929491177201271 0.6767193078994751 0.2660839259624481 0.0 0.0 0.0 0.0
1.511 0.09021694958209991 -0.03321026265621185 0.689960241317749 0.23248817026615143 0.0 0.0 0.0 0.0
1.512 0.09275320172309875 -0.03703204169869423 0.6937271356582642 0.21647429466247559 0.0 0.0 0.0 0.0
1.513 0.09360986948013306 -0.04169989377260208 0.7060744166374207 0.1850746124982834 0.0 0.0 0.0 0.0
1.514 0.09423000365495682 -0.04483535885810852 0.7035724520683289 0.1706436574459076 0.0 0.0 0.0 0.0
1.515 0.09455997496843338 -0.04972664639353752 0.7150207757949829 0.13703016936779022 0.0 0.0 0.0 0.0
1.516 0.09612561762332916 -0.0535721629858017 0.7145527005195618 0.12334036827087402 0.0 0.0 0.0 0.0
1.517 0.09699731320142746 -0.05622383952140808 0.7204936146736145 0.09413739293813705 0.0 0.0 0.0 0.0
1.518 0.0958947092294693 -0.06040707603096962 0.7196544408798218 0.07275667786598206 0.0 0.0 0.0 0.0
1.519 0.09542438387870789 -0.06617464125156403 0.7265642285346985 0.044913582503795624 0.0 0.0 0.0 0.0
1.52 0.09440338611602783 -0.0689435750246048 0.7232180237770081 0.024750813841819763 0.0 0.0 0.0 0.0
1.521 0.09502100199460983 -0.07322855293750763 0.7267294526100159 0.002430642955005169 0.0 0.0 0.0 0.0
1.522 0.09269700944423676 -0.07823991030454636 0.723853588104248 -0.021147742867469788 0.0 0.0 0.0 0.0
1.523 0.09142109006643295 -0.08131767064332962 0.7221993207931519 -0.047929052263498306 0.0 0.0 0.0 0.0
1.524 0.08684058487415314 -0.08579258620738983 0.7183877825737 -0.06859757751226425 0.0 0.0 0.0 0.0
1.525 0.08743225038051605 -0.08823950588703156 0.7163977026939392 -0.09540706872940063 0.0 0.0 0.0 0.0
1.526 0.08452862501144409 -0.09181831777095795 0.7117474675178528 -0.11485961079597473 0.0 0.0 0.0 0.0
1.527 0.08145646005868912 -0.09584880620241165 0.7100698351860046 -0.14214134216308594 0.0 0.0 0.0 0.0
1.528 0.07861914485692978 -0.09794656187295914 0.6999396085739136 -0.16299355030059814 0.0 0.0 0.0 0.0
1.529 0.07547906041145325 -0.10020076483488083 0.6972454786300659 -0.18601468205451965 0.0 0.0 0.0 0.0
1.53 0.0708058774471283 -0.10363991558551788 0.686324954032898 -0.2115437537431717 0.0 0.0 0.0 0.0
1.531 0.06940537691116333 -0.10577043890953064 0.6831679344177246 -0.2292213886976242 0.0 0.0 0.0 0.0
1.532 0.06419021636247635 -0.10797334462404251 0.6691268682479858 -0.2576189637184143 0.0 0.0 0.0 0.0
1.533 0.06146020069718361 -0.1100856140255928 0.6652362942695618 -0.2741418182849884 0.0 0.0 0.0 0.0
1.534 0.055858127772808075 -0.11301791667938232 0.6531246304512024 -0.3030742108821869 0.0 0.0 0.0 0.0
1.535 0.05371197685599327 -0.11222690343856812 0.6460816264152527 -0.3139406442642212 0.0 0.0 0.0 0.0
1.536 0.04828518629074097 -0.11333538591861725 0.6316820383071899 -0.3319990932941437 0.0 0.0 0.0 0.0
1.537 0.04444820433855057 -0.1149754673242569 0.6254067420959473 -0.35611531138420105 0.0 0.0 0.0 0.0
1.538 0.040695250034332275 -0.11487570405006409 0.6066480278968811 -0.37825512886047363 0.0 0.0 0.0 0.0
1.539 0.0366157665848732 -0.11485407501459122 0.596006453037262 -0.3991878032684326 0.0 0.0 0.0 0.0
1.54 0.031893521547317505 -0.1151154413819313 0.5818408131599426 -0.4186905324459076 0.0 0.0 0.0 0.0
1.541 0.028287535533308983 -0.11506678909063339 0.5723814964294434 -0.43329906463623047 0.0 0.0 0.0 0.0
1.542 0.02245006337761879 -0.11352228373289108 0.5483814477920532 -0.46069198846817017 0.0 0.0 0.0 0.0
1.543 0.019445575773715973 -0.1127287819981575 0.5425530076026917 -0.47004231810569763 0.0 0.0 0.0 0.0
1.544 0.014220433309674263 -0.112410768866539 0.5249313712120056 -0.4900566637516022 0.0 0.0 0.0 0.0
1.545 0.01158154010772705 -0.10986046493053436 0.5085906386375427 -0.5047879219055176 0.0 0.0 0.0 0.0
1.546 0.007078454829752445 -0.10822836309671402 0.4887032210826874 -0.5224642753601074 0.0 0.0 0.0 0.0
1.547 0.003943153657019138 -0.10573872178792953 0.47686928510665894 -0.5324109196662903 0.0 0.0 0.0 0.0
1.548 -0.0006065387278795242 -0.10399933159351349 0.44863012433052063 -0.5550557971000671 0.0 0.0 0.0 0.0
1.549 -0.003830871544778347 -0.10095024853944778 0.4376051723957062 -0.5624539852142334 0.0 0.0 0.0 0.0
1.55 -0.006768763065338135 -0.0984111800789833 0.4143849015235901 -0.5817610621452332 0.0 0.0 0.0 0.0
1.551 -0.010358807630836964 -0.09458205848932266 0.40818873047828674 -0.5868184566497803 0.0 0.0 0.0 0.0
1.552 -0.012842659838497639 -0.09254343807697296 0.37529030442237854 -0.6096795201301575 0.0 0.0 0.0 0.0
1.553 -0.016079699620604515 -0.08797291666269302 0.3628644645214081 -0.6144523024559021 0.0 0.0 0.0 0.0
1.554 -0.017606208100914955 -0.08437169343233109 0.3347616493701935 -0.632060706615448 0.0 0.0 0.0 0.0
1.555 -0.019749633967876434 -0.08020710200071335 0.32350629568099976 -0.6334777474403381 0.0 0.0 0.0 0.0
1.556 -0.023320453241467476 -0.07828354090452194 0.2962071895599365 -0.6524450182914734 0.0 0.0 0.0 0.0
1.557 -0.023766884580254555 -0.07311049848794937 0.2823588252067566 -0.6559243202209473 0.0 0.0 0.0 0.0
1.558 -0.0262262262403965 -0.06895150989294052 0.25315606594085693 -0.6683510541915894 0.0 0.0 0.0 0.0
1.559 -0.027135899290442467 -0.06582614034414291 0.23697549104690552 -0.6730227470397949 0.0 0.0 0.0 0.0
1.56 -0.02895507402718067 -0.06025352329015732 0.20403526723384857 -0.6816165447235107 0.0 0.0 0.0 0.0
1.561 -0.028261415660381317 -0.05720752850174904 0.19146499037742615 -0.685276448726654 0.0 0.0 0.0 0.0
1.562 -0.02919059619307518 -0.05264024809002876 0.17065568268299103 -0.6961116790771484 0.0 0.0 0.0 0.0
1.563 -0.028121119365096092 -0.04774172604084015 0.14696769416332245 -0.6958847641944885 0.0 0.0 0.0 0.0
1.564 -0.028807638213038445 -0.04395773261785507 0.12377159297466278 -0.7067147493362427 0.0 0.0 0.0 0.0
1.565 -0.02818826213479042 -0.03906231373548508 0.09580948203802109 -0.7079773545265198 0.0 0.0 0.0 0.0
1.566 -0.027337294071912766 -0.03573903068900108 0.07656840980052948 -0.7136722207069397 0.0 0.0 0.0 0.0
1.567 -0.026398826390504837 -0.030971357598900795 0.0500616654753685 -0.7124682664871216 0.0 0.0 0.0 0.0
1.568 -0.02515518106520176 -0.027643928304314613 0.0355171337723732 -0.7182371616363525 0.0 0.0 0.0 0.0
1.569 -0.023969072848558426 -0.023495877161622047 0.0014741765335202217 -0.7179290056228638 0.0 0.0 0.0 0.0
1.57 -0.021791286766529083 -0.01950281299650669 -0.013590135611593723 -0.7172911763191223 0.0 0.0 0.0 0.0
1.571 -0.019000621512532234 -0.016158178448677063 -0.041641924530267715 -0.7137815356254578 0.0 0.0 0.0 0.0
1.572 -0.016997676342725754 -0.012683714739978313 -0.05842044577002525 -0.7092335820198059 0.0 0.0 0.0 0.0
1.573 -0.014802034012973309 -0.00995747558772564 -0.09028387069702148 -0.7148992419242859 0.0 0.0 0.0 0.0
1.574 -0.01212101150304079 -0.006831236183643341 -0.10869670659303665 -0.7120485901832581 0.0 0.0 0.0 0.0
1.575 -0.008834559470415115 -0.0026822155341506004 -0.1324058473110199 -0.70225590467453 0.0 0.0 0.0 0.0
1.576 -0.005600549280643463 -0.0008762581273913383 -0.1480378657579422 -0.7018104791641235 0.0 0.0 0.0 0.0
1.577 -0.0027384813874959946 0.002329685725271702 -0.18441396951675415 -0.6942593455314636 0.0 0.0 0.0 0.0
1.578 0.0007178438827395439 0.004122535698115826 -0.18822996318340302 -0.6905643343925476 0.0 0.0 0.0 0.0
1.579 0.0032669082283973694 0.0060982173308730125 -0.22610777616500854 -0.6820008158683777 0.0 0.0 0.0 0.0
1.58 0.006964457221329212 0.007828696630895138 -0.23954294621944427 -0.6757397055625916 0.0 0.0 0.0 0.0
1.581 0.012097788974642754 0.00879380851984024 -0.26930198073387146 -0.6671826839447021 0.0 0.0 0.0 0.0
1.582 0.014693029224872589 0.010540854185819626 -0.28868913650512695 -0.6591679453849792 0.0 0.0 0.0 0.0
1.583 0.01889631897211075 0.010457797907292843 -0.31363341212272644 -0.6489868760108948 0.0 0.0 0.0 0.0
1.584 0.022215213626623154 0.012752726674079895 -0.3234604597091675 -0.6470152139663696 0.0 0.0 0.0 0.0
1.585 0.026523742824792862 0.012112569063901901 -0.35540956258773804 -0.6295304298400879 0.0 0.0 0.0 0.0
1.586 0.029648633673787117 0.01289426814764738 -0.36611050367355347 -0.6198998689651489 0.0 0.0 0.0 0.0
1.587 0.03400753438472748 0.011798731051385403 -0.40234676003456116 -0.6005814075469971 0.0 0.0 0.0 0.0
1.588 0.036364343017339706 0.011478469707071781 -0.40816187858581543 -0.5945923924446106 0.0 0.0 0.0 0.0
1.589 0.041308511048555374 0.011028011329472065 -0.4383925497531891 -0.5745171308517456 0.0 0.0 0.0 0.0
1.59 0.04368335381150246 0.010082947090268135 -0.45215970277786255 -0.5623428225517273 0.0 0.0 0.0 0.0
1.591 0.04667847603559494 0.009758942760527134 -0.47228243947029114 -0.5483688712120056 0.0 0.0 0.0 0.0
1.592 0.049930181354284286 0.008003778755664825 -0.48356887698173523 -0.5347745418548584 0.0 0.0 0.0 0.0
1.593 0.054194215685129166 0.005665728822350502 -0.5053493976593018 -0.5176171660423279 0.0 0.0 0.0 0.0
1.594 0.056512251496315 0.00492588896304369 -0.5196225643157959 -0.4982917308807373 0.0 0.0 0.0 0.0
1.595 0.059785231947898865 0.0026934724301099777 -0.5434972643852234 -0.4792627692222595 0.0 0.0 0.0 0.0
1.596 0.06098759174346924 0.0006189318373799324 -0.5580393671989441 -0.46054381132125854 0.0 0.0 0.0 0.0
1.597 0.06380409747362137 -0.0012493375688791275 -0.5642571449279785 -0.453932523727417 0.0 0.0 0.0 0.0
1.598 0.06628182530403137 -0.004577086307108402 -0.5845575332641602 -0.42110612988471985 0.0 0.0 0.0 0.0
1.599 0.06814909726381302 -0.006449751555919647 -0.5969988107681274 -0.40784600377082825 0.0 0.0 0.0 0.0
1.6 0.06911434978246689 -0.009442093782126904 -0.6140989661216736 -0.3837448060512543 0.0 0.0 0.0 0.0
1.601 0.07078007608652115 -0.011594180017709732 -0.6229074001312256 -0.3673635423183441 0.0 0.0 0.0 0.0
1.602 0.07246097177267075 -0.016811376437544823 -0.634576141834259 -0.3419296145439148 0.0 0.0 0.0 0.0
1.603 0.07280831038951874 -0.017902590334415436 -0.6460089683532715 -0.32456812262535095 0.0 0.0 0.0 0.0
1.604 0.07460684329271317 -0.021262463182210922 -0.6549020409584045 -0.305747389793396 0.0 0.0 0.0 0.0
1.605 0.07414982467889786 -0.02300259657204151 -0.6684781312942505 -0.2820128798484802 0.0 0.0 0.0 0.0
1.606 0.07485005259513855 -0.02779744379222393 -0.6771093010902405 -0.2560984194278717 0.0 0.0 0.0 0.0
1.607 0.07475380599498749 -0.029303958639502525 -0.6827023029327393 -0.23545677959918976 0.0 0.0 0.0 0.0
1.608 0.07438180595636368 -0.03376740217208862 -0.6951161623001099 -0.20932058990001678 0.0 0.0 0.0 0.0
1.609 0.07452647387981415 -0.035630036145448685 -0.6951519250869751 -0.19188694655895233 0.0 0.0 0.0 0.0
1.61 0.07330188155174255 -0.03799629211425781 -0.7050328850746155 -0.1578938513994217 0.0 0.0 0.0 0.0
1.611 0.07156002521514893 -0.04066973552107811 -0.7103092670440674 -0.14058686792850494 0.0 0.0 0.0 0.0
1.612 0.07043283432722092 -0.044607795774936676 -0.7172891497612 -0.1134335920214653 0.0 0.0 0.0 0.0
1.613 0.07018005847930908 -0.04554280638694763 -0.714665412902832 -0.10037395358085632 0.0 0.0 0.0 0.0
1.614 0.0670379176735878 -0.04904291778802872 -0.7205976843833923 -0.07082707434892654 0.0 0.0 0.0 0.0
1.615 0.06586025655269623 -0.050492387264966965 -0.7215090394020081 -0.053688012063503265 0.0 0.0 0.0 0.0
1.616 0.06333040446043015 -0.053139686584472656 -0.7239422798156738 -0.019567759707570076 0.0 0.0 0.0 0.0
1.617 0.06097906455397606 -0.05400129407644272 -0.7204310297966003 -0.002749517560005188 0.0 0.0 0.0 0.0
1.618 0.06040941923856735 -0.056202132254838943 -0.7227354645729065 0.03181375190615654 0.0 0.0 0.0 0.0
1.619 0.0570516437292099 -0.056370124220848083 -0.7212200164794922 0.04195908084511757 0.0 0.0 0.0 0.0
1.62 0.054573968052864075 -0.05837022885680199 -0.7186630964279175 0.07677321135997772 0.0 0.0 0.0 0.0
1.621 0.05270766466856003 -0.05989681929349899 -0.714774489402771 0.08971764892339706 0.0 0.0 0.0 0.0
1.622 0.0503823384642601 -0.06192515790462494 -0.7123396992683411 0.12898412346839905 0.0 0.0 0.0 0.0
1.623 0.04741925746202469 -0.061306413263082504 -0.7078977823257446 0.13853910565376282 0.0 0.0 0.0 0.0
1.624 0.044408734887838364 -0.06240175664424896 -0.7025550603866577 0.1686398833990097 0.0 0.0 0.0 0.0
1.625 0.04122532904148102 -0.0614306777715683 -0.6956132650375366 0.1864558756351471 0.0 0.0 0.0 0.0
1.626 0.03808325529098511 -0.06275160610675812 -0.6897568106651306 0.21384695172309875 0.0 0.0 0.0 0.0
1.627 0.03493410721421242 -0.06166485697031021 -0.6820735931396484 0.23389355838298798 0.0 0.0 0.0 0.0
1.628 0.032793641090393066 -0.06133279204368591 -0.6747065186500549 0.25607937574386597 0.0 0.0 0.0 0.0
1.629 0.029369236901402473 -0.05911892279982567 -0.6653763055801392 0.2776871919631958 0.0 0.0 0.0 0.0
1.63 0.027201445773243904 -0.058014556765556335 -0.6606814861297607 0.2990122139453888 0.0 0.0 0.0 0.0
1.631 0.02448233775794506 -0.05751793459057808 -0.6441032886505127 0.3230869472026825 0.0 0.0 0.0 0.0
1.632 0.023949187248945236 -0.055717844516038895 -0.6431698203086853 0.3428291380405426 0.0 0.0 0.0 0.0
1.633 0.019729098305106163 -0.05400558561086655 -0.6239032745361328 0.35950616002082825 0.0 0.0 0.0 0.0
1.634 0.016735335811972618 -0.05305926874279976 -0.609169602394104 0.38933899998664856 0.0 0.0 0.0 0.0
1.635 0.015475050546228886 -0.050296202301979065 -0.5979350209236145 0.4003637135028839 0.0 0.0 0.0 0.0
1.636 0.01281032059341669 -0.047719474881887436 -0.5857434272766113 0.4248192310333252 0.0 0.0 0.0 0.0
1.637 0.010277550667524338 -0.045517388731241226 -0.5729005336761475 0.4392586052417755 0.0 0.0 0.0 0.0
1.638 0.00973404198884964 -0.04298997297883034 -0.5541000962257385 0.46252763271331787 0.0 0.0 0.0 0.0
1.639 0.006996799260377884 -0.040481533855199814 -0.5383855104446411 0.4775041937828064 0.0 0.0 0.0 0.0
1.64 0.006823606789112091 -0.03767111524939537 -0.5269295573234558 0.4921015202999115 0.0 0.0 0.0 0.0
1.641 0.005894177593290806 -0.035355087369680405 -0.5048244595527649 0.5145537853240967 0.0 0.0 0.0 0.0
1.642 0.00413777120411396 -0.03158044070005417 -0.4963761866092682 0.5279908180236816 0.0 0.0 0.0 0.0
1.643 0.0038104522973299026 -0.02845059521496296 -0.48124563694000244 0.5393940210342407 0.0 0.0 0.0 0.0
1.644 0.003523625433444977 -0.025909697636961937 -0.4662809669971466 0.553352952003479 0.0 0.0 0.0 0.0
1.645 0.0025285519659519196 -0.022567346692085266 -0.4321967363357544 0.5781932473182678 0.0 0.0 0.0 0.0
1.646 0.0028087785467505455 -0.019357899203896523 -0.42138388752937317 0.5839920043945312 0.0 0.0 0.0 0.0
1.647 0.0027118995785713196 -0.015566221438348293 -0.3905292749404907 0.6057639122009277 0.0 0.0 0.0 0.0
1.648 0.0050534894689917564 -0.012409083545207977 -0.3815457224845886 0.614014744758606 0.0 0.0 0.0 0.0
1.649 0.004840238019824028 -0.010617651976644993 -0.35252055525779724 0.6333326101303101 0.0 0.0 0.0 0.0
1.65 0.005712998099625111 -0.005779762752354145 -0.33974117040634155 0.6370627284049988 0.0 0.0 0.0 0.0
1.651 0.006704146042466164 -0.004278208129107952 -0.3128317892551422 0.6517170667648315 0.0 0.0 0.0 0.0
1.652 0.008066628128290176 -0.0008468637242913246 -0.30141788721084595 0.655120313167572 0.0 0.0 0.0 0.0
1.653 0.009425114840269089 0.00203576497733593 -0.2711605727672577 0.6712942123413086 0.0 0.0 0.0 0.0
1.654 0.01157167088240385 0.005518405698239803 -0.25266459584236145 0.6764577627182007 0.0 0.0 0.0 0.0
1.655 0.013616224750876427 0.00855441763997078 -0.22940094769001007 0.686910092830658 0.0 0.0 0.0 0.0
1.656 0.015905607491731644 0.009390771389007568 -0.21313510835170746 0.6924154758453369 0.0 0.0 0.0 0.0
1.657 0.018238361924886703 0.013175430707633495 -0.18454888463020325 0.7026658058166504 0.0 0.0 0.0 0.0
1.658 0.021970875561237335 0.014752364717423916 -0.16105329990386963 0.7052421569824219 0.0 0.0 0.0 0.0
1.659 0.024148577824234962 0.0168326273560524 -0.142023965716362 0.7134090065956116 0.0 0.0 0.0 0.0
1.66 0.02759498730301857 0.018756145611405373 -0.11373068392276764 0.7137858867645264 0.0 0.0 0.0 0.0
1.661 0.03022756427526474 0.02053198404610157 -0.08985483646392822 0.7190850377082825 0.0 0.0 0.0 0.0
1.662 0.032585691660642624 0.021355798467993736 -0.06735815107822418 0.7188699245452881 0.0 0.0 0.0 0.0
1.663 0.03585529699921608 0.021761951968073845 -0.04170556366443634 0.7247515320777893 0.0 0.0 0.0 0.0
1.664 0.03909984230995178 0.023151757195591927 -0.021696923300623894 0.7235950827598572 0.0 0.0 0.0 0.0
1.665 0.04275018349289894 0.02284429594874382 0.0010198596864938736 0.7244868278503418 0.0 0.0 0.0 0.0
1.666 0.04675542563199997 0.024115251377224922 0.029712118208408356 0.7232645750045776 0.0 0.0 0.0 0.0
1.667 0.04941784590482712 0.024033350870013237 0.0490889698266983 0.7249990105628967 0.0 0.0 0.0 0.0
1.668 0.05400021746754646 0.02327979914844036 0.07412691414356232 0.725054144859314 0.0 0.0 0.0 0.0
1.669 0.05660580098628998 0.023666970431804657 0.09373339265584946 0.722773551940918 0.0 0.0 0.0 0.0
1.67 0.059287529438734055 0.02270347625017166 0.13041071593761444 0.7152814865112305 0.0 0.0 0.0 0.0
1.671 0.06325624883174896 0.02202233113348484 0.14593133330345154 0.7139491438865662 0.0 0.0 0.0 0.0
1.672 0.06620004028081894 0.020371563732624054 0.17641973495483398 0.7059945464134216 0.0 0.0 0.0 0.0
1.673 0.06890413165092468 0.020343324169516563 0.18635781109333038 0.7038921117782593 0.0 0.0 0.0 0.0
1.674 0.07323236018419266 0.016967635601758957 0.2206658571958542 0.693027913570404 0.0 0.0 0.0 0.0
1.675 0.07524552196264267 0.01589542254805565 0.23520539700984955 0.6903050541877747 0.0 0.0 0.0 0.0
1.676 0.07765235006809235 0.013125097379088402 0.26831138134002686 0.6763947606086731 0.0 0.0 0.0 0.0
1.677 0.08099021762609482 0.011317618191242218 0.278338760137558 0.6741750240325928 0.0 0.0 0.0 0.0
1.678 0.08301934599876404 0.008580585941672325 0.311319500207901 0.6590762734413147 0.0 0.0 0.0 0.0
1.679 0.08538611978292465 0.006257311441004276 0.32205212116241455 0.6523674726486206 0.0 0.0 0.0 0.0
1.68 0.08872807770967484 -1.9623897969722748e-05 0.356507271528244 0.634001612663269 0.0 0.0 0.0 0.0
1.681 0.08915431052446365 0.001737099140882492 0.36593130230903625 0.6294633150100708 0.0 0.0 0.0 0.0
1.682 0.09053239226341248 -0.0018291184678673744 0.4005363881587982 0.6092153787612915 0.0 0.0 0.0 0.0
1.683 0.09186173975467682 -0.005761448293924332 0.413093239068985 0.5990584492683411 0.0 0.0 0.0 0.0
1.684 0.09412627667188644 -0.01017716433852911 0.43906834721565247 0.5858906507492065 0.0 0.0 0.0 0.0
1.685 0.09472143650054932 -0.011742658913135529 0.4474807679653168 0.5759878754615784 0.0 0.0 0.0 0.0
1.686 0.0946243405342102 -0.01611107587814331 0.4800319969654083 0.5513495206832886 0.0 0.0 0.0 0.0
1.687 0.09580264240503311 -0.018596014007925987 0.4842967092990875 0.5457180142402649 0.0 0.0 0.0 0.0
1.688 0.09643153101205826 -0.02368880622088909 0.5137564539909363 0.5221437811851501 0.0 0.0 0.0 0.0
1.689 0.09493018686771393 -0.027401262894272804 0.5238448977470398 0.5091508030891418 0.0 0.0 0.0 0.0
1.69 0.09405223280191422 -0.030855722725391388 0.5426045060157776 0.4919297993183136 0.0 0.0 0.0 0.0
1.691 0.09425078332424164 -0.03453260660171509 0.5558544397354126 0.47177204489707947 0.0 0.0 0.0 0.0
1.692 0.0930681973695755 -0.038227248936891556 0.5753262042999268 0.4479690194129944 0.0 0.0 0.0 0.0
1.693 0.09118771553039551 -0.04191879555583 0.5850083827972412 0.43569982051849365 0.0 0.0 0.0 0.0
1.694 0.08975165337324142 -0.04524990916252136 0.6051223278045654 0.41320937871932983 0.0 0.0 0.0 0.0
1.695 0.08821222186088562 -0.047810591757297516 0.6140677332878113 0.3951507806777954 0.0 0.0 0.0 0.0
1.696 0.08618106693029404 -0.051449812948703766 0.6287385821342468 0.3761705756187439 0.0 0.0 0.0 0.0
1.697 0.08383715897798538 -0.05373907834291458 0.6363385915756226 0.3506492078304291 0.0 0.0 0.0 0.0
1.698 0.08128926157951355 -0.05740571394562721 0.647140383720398 0.34051138162612915 0.0 0.0 0.0 0.0
1.699 0.07873415946960449 -0.05978156626224518 0.6612005233764648 0.3092917203903198 0.0 0.0 0.0 0.0
1.7 0.07578811049461365 -0.06159939616918564 0.6687273979187012 0.2933889329433441 0.0 0.0 0.0 0.0
1.701 0.07194122672080994 -0.06603378802537918 0.6811378002166748 0.26309463381767273 0.0 0.0 0.0 0.0
1.702 0.06905915588140488 -0.06649651378393173 0.6862218379974365 0.2467842847108841 0.0 0.0 0.0 0.0
1.703 0.06499621272087097 -0.06863639503717422 0.6962358355522156 0.21524043381214142 0.0 0.0 0.0 0.0
1.704 0.061834946274757385 -0.0698302835226059 0.700387716293335 0.20229467749595642 0.0 0.0 0.0 0.0
1.705 0.05802435427904129 -0.07120014727115631 0.7090514898300171 0.1713510900735855 0.0 0.0 0.0 0.0
1.706 0.05412798747420311 -0.07231944054365158 0.7126562595367432 0.15926189720630646 0.0 0.0 0.0 0.0
1.707 0.05105498060584068 -0.07349608838558197 0.7195086479187012 0.1253323256969452 0.0 0.0 0.0 0.0
1.708 0.04652051627635956 -0.0744078978896141 0.7225903868675232 0.1082223430275917 0.0 0.0 0.0 0.0
1.709 0.04122060537338257 -0.07547353208065033 0.7256389856338501 0.07420063763856888 0.0 0.0 0.0 0.0
1.71 0.03745190054178238 -0.0747239887714386 0.7263147830963135 0.05768797546625137 0.0 0.0 0.0 0.0
1.711 0.0329248420894146 -0.07506793737411499 0.729393720626831 0.02847711369395256 0.0 0.0 0.0 0.0
1.712 0.029464116320014 -0.07485447078943253 0.7294878959655762 0.01086632814258337 0.0 0.0 0.0 0.0
1.713 0.02457357570528984 -0.07312503457069397 0.7296968698501587 -0.02105807699263096 0.0 0.0 0.0 0.0
1.714 0.021872686222195625 -0.07267504185438156 0.7282803654670715 -0.03202364593744278 0.0 0.0 0.0 0.0
1.715 0.01742285117506981 -0.07112865895032883 0.7266838550567627 -0.06868816167116165 0.0 0.0 0.0 0.0
1.716 0.01303530391305685 -0.06981796771287918 0.7250885367393494 -0.07686683535575867 0.0 0.0 0.0 0.0
1.717 0.009113778360188007 -0.06928688287734985 0.72462397813797 -0.11627797782421112 0.0 0.0 0.0 0.0
1.718 0.005106233060359955 -0.0651460662484169 0.7153157591819763 -0.13090534508228302 0.0 0.0 0.0 0.0
1.719 0.001392098143696785 -0.06457409262657166 0.7138199210166931 -0.16723386943340302 0.0 0.0 0.0 0.0
1.72 -0.0013824496418237686 -0.06086169555783272 0.7076427936553955 -0.1767193228006363 0.0 0.0 0.0 0.0
1.721 -0.0059142932295799255 -0.05755920708179474 0.7006407976150513 -0.21206775307655334 0.0 0.0 0.0 0.0
1.722 -0.009302359074354172 -0.055550675839185715 0.6931292414665222 -0.22496409714221954 0.0 0.0 0.0 0.0
1.723 -0.012366695329546928 -0.05352477729320526 0.6879149675369263 -0.2554384469985962 0.0 0.0 0.0 0.0
1.724 -0.01482085045427084 -0.04863860458135605 0.6769201755523682 -0.26480382680892944 0.0 0.0 0.0 0.0
1.725 -0.018257101997733116 -0.04529031366109848 0.6668457388877869 -0.3026685118675232 0.0 0.0 0.0 0.0
1.726 -0.020190119743347168 -0.04264114797115326 0.6608630418777466 -0.31336653232574463 0.0 0.0 0.0 0.0
1.727 -0.02339939773082733 -0.03674313426017761 0.6469641327857971 -0.3432716131210327 0.0 0.0 0.0 0.0
1.728 -0.02290242165327072 -0.03353853523731232 0.6377734541893005 -0.3500683009624481 0.0 0.0 0.0 0.0
1.729 -0.02634906955063343 -0.03036198392510414 0.6274959444999695 -0.3824470043182373 0.0 0.0 0.0 0.0
1.73 -0.027795400470495224 -0.025219760835170746 0.6135664582252502 -0.39764612913131714 0.0 0.0 0.0 0.0
1.731 -0.02964291162788868 -0.021014511585235596 0.5985192656517029 -0.42696934938430786 0.0 0.0 0.0 0.0
1.732 -0.029224922880530357 -0.016920793801546097 0.5856606960296631 -0.43750834465026855 0.0 0.0 0.0 0.0
1.733 -0.03162907063961029 -0.012603814713656902 0.5745629668235779 -0.4609393775463104 0.0 0.0 0.0 0.0
1.734 -0.030708538368344307 -0.008906655944883823 0.5623494386672974 -0.470590740442276 0.0 0.0 0.0 0.0
1.735 -0.031145745888352394 -0.0032620467245578766 0.5365487337112427 -0.5000530481338501 0.0 0.0 0.0 0.0
1.736 -0.030849197879433632 0.0014767879620194435 0.5238459706306458 -0.5137304663658142 0.0 0.0 0.0 0.0
1.737 -0.031041348353028297 0.005394198931753635 0.5129725933074951 -0.5284153819084167 0.0 0.0 0.0 0.0
1.738 -0.02959207445383072 0.009697451256215572 0.4879103899002075 -0.5489137172698975 0.0 0.0 0.0 0.0
1.739 -0.029694708064198494 0.014005696401000023 0.47964850068092346 -0.5582408308982849 0.0 0.0 0.0 0.0
1.74 -0.02799276076257229 0.02009378746151924 0.44204527139663696 -0.5880005955696106 0.0 0.0 0.0 0.0
1.741 -0.026651356369256973 0.021905479952692986 0.4403970241546631 -0.5898798108100891 0.0 0.0 0.0 0.0
1.742 -0.025265449658036232 0.026907185092568398 0.4107634425163269 -0.6112663745880127 0.0 0.0 0.0 0.0
1.743 -0.02369561232626438 0.030304932966828346 0.39512619376182556 -0.6215184926986694 0.0 0.0 0.0 0.0
1.744 -0.021490883082151413 0.03449922427535057 0.3717222213745117 -0.6371056437492371 0.0 0.0 0.0 0.0
1.745 -0.0202285498380661 0.03740701451897621 0.35846567153930664 -0.6431902647018433 0.0 0.0 0.0 0.0
1.746 -0.01651088148355484 0.040117233991622925 0.33192819356918335 -0.6617659330368042 0.0 0.0 0.0 0.0
1.747 -0.01565411500632763 0.04367997497320175 0.3172902464866638 -0.6680131554603577 0.0 0.0 0.0 0.0
1.748 -0.012212599627673626 0.04802351072430611 0.2848329544067383 -0.6850408315658569 0.0 0.0 0.0 0.0
1.749 -0.009008635766804218 0.05019121989607811 0.2713574469089508 -0.6871025562286377 0.0 0.0 0.0 0.0
1.75 -0.006376881152391434 0.051540762186050415 0.23630812764167786 -0.7061153054237366 0.0 0.0 0.0 0.0
1.751 -0.00390541460365057 0.054345324635505676 0.22499293088912964 -0.7064379453659058 0.0 0.0 0.0 0.0
1.752 -0.0005328468978404999 0.05620166286826134 0.18755429983139038 -0.7152494192123413 0.0 0.0 0.0 0.0
1.753 0.0022325441241264343 0.05875346437096596 0.17813201248645782 -0.7198483347892761 0.0 0.0 0.0 0.0
1.754 0.006978023797273636 0.06014319509267807 0.14939790964126587 -0.7288908362388611 0.0 0.0 0.0 0.0
1.755 0.010143342427909374 0.06259239464998245 0.12174606323242188 -0.7326708436012268 0.0 0.0 0.0 0.0
1.756 0.013410722836852074 0.062242377549409866 0.10161244124174118 -0.7378941774368286 0.0 0.0 0.0 0.0
1.757 0.01651012897491455 0.06435900181531906 0.07501227408647537 -0.7379927635192871 0.0 0.0 0.0 0.0
1.758 0.019318804144859314 0.06465400010347366 0.055175069719552994 -0.7464011311531067 0.0 0.0 0.0 0.0
1.759 0.023003865033388138 0.06527342647314072 0.027719827368855476 -0.7447582483291626 0.0 0.0 0.0 0.0
1.76 0.027498582378029823 0.06503502279520035 0.0011090608313679695 -0.7448388338088989 0.0 0.0 0.0 0.0
1.761 0.029355987906455994 0.06540361046791077 -0.017992859706282616 -0.74405437707901 0.0 0.0 0.0 0.0
1.762 0.0328138992190361 0.0665668174624443 -0.0474468395113945 -0.7487919330596924 0.0 0.0 0.0 0.0
1.763 0.03663593530654907 0.06500928848981857 -0.07040825486183167 -0.7399023175239563 0.0 0.0 0.0 0.0
1.764 0.03895672783255577 0.06473588943481445 -0.10010597854852676 -0.7435390949249268 0.0 0.0 0.0 0.0
1.765 0.04271562024950981 0.06354391574859619 -0.12167345732450485 -0.7322966456413269 0.0 0.0 0.0 0.0
1.766 0.043992236256599426 0.06323917210102081 -0.14254707098007202 -0.7379122972488403 0.0 0.0 0.0 0.0
1.767 0.047331489622592926 0.060968246310949326 -0.17107057571411133 -0.7305793166160583 0.0 0.0 0.0 0.0
1.768 0.04967139661312103 0.06119077652692795 -0.1929703950881958 -0.7238097786903381 0.0 0.0 0.0 0.0
1.769 0.05257222801446915 0.05985454469919205 -0.22217480838298798 -0.7151519656181335 0.0 0.0 0.0 0.0
1.77 0.054163526743650436 0.05819733440876007 -0.23843000829219818 -0.710286021232605 0.0 0.0 0.0 0.0
1.771 0.05715033411979675 0.055707983672618866 -0.26564276218414307 -0.6987127065658569 0.0 0.0 0.0 0.0
1.772 0.057902418076992035 0.055081188678741455 -0.28665950894355774 -0.6939855813980103 0.0 0.0 0.0 0.0
1.773 0.05986544117331505 0.05190221220254898 -0.31890007853507996 -0.6826094388961792 0.0 0.0 0.0 0.0
1.774 0.06052533537149429 0.05065986514091492 -0.33132806420326233 -0.6766742467880249 0.0 0.0 0.0 0.0
1.775 0.06246723607182503 0.04878154769539833 -0.3597849905490875 -0.6580470204353333 0.0 0.0 0.0 0.0
1.776 0.06352981925010681 0.04542532563209534 -0.3783164918422699 -0.6497817635536194 0.0 0.0 0.0 0.0
1.777 0.06372157484292984 0.04351598396897316 -0.40482431650161743 -0.6364004015922546 0.0 0.0 0.0 0.0
1.778 0.0639483630657196 0.04296783357858658 -0.42079272866249084 -0.6258814930915833 0.0 0.0 0.0 0.0
1.779 0.06390053778886795 0.04039640724658966 -0.4504712224006653 -0.6047195196151733 0.0 0.0 0.0 0.0
1.78 0.06412046402692795 0.03952481970191002 -0.46477222442626953 -0.5960444808006287 0.0 0.0 0.0 0.0
1.781 0.0642142966389656 0.03600385785102844 -0.4861378073692322 -0.573832094669342 0.0 0.0 0.0 0.0
1.782 0.06455083936452866 0.03593668341636658 -0.49947792291641235 -0.5608543157577515 0.0 0.0 0.0 0.0
1.783 0.06389519572257996 0.03279624879360199 -0.5209363698959351 -0.5441681146621704 0.0 0.0 0.0 0.0
1.784 0.06326400488615036 0.03264012560248375 -0.533719003200531 -0.5297490954399109 0.0 0.0 0.0 0.0
1.785 0.06166502833366394 0.031075891107320786 -0.5661250948905945 -0.5034334063529968 0.0 0.0 0.0 0.0
1.786 0.06014343723654747 0.028957417234778404 -0.570660412311554 -0.4915606677532196 0.0 0.0 0.0 0.0
1.787 0.060287535190582275 0.027896279469132423 -0.5951502919197083 -0.4656081795692444 0.0 0.0 0.0 0.0
1.788 0.05883707478642464 0.02762572094798088 -0.5975373983383179 -0.4579208195209503 0.0 0.0 0.0 0.0
1.789 0.05675845965743065 0.025271521881222725 -0.624140739440918 -0.42978498339653015 0.0 0.0 0.0 0.0
1.79 0.05519867688417435 0.02414419688284397 -0.6305950284004211 -0.4134027659893036 0.0 0.0 0.0 0.0
1.791 0.05448462814092636 0.02523753046989441 -0.6492679119110107 -0.3843325972557068 0.0 0.0 0.0 0.0
1.792 0.052805449813604355 0.02361682429909706 -0.6562454104423523 -0.368050754070282 0.0 0.0 0.0 0.0
1.793 0.05043316259980202 0.02311873435974121 -0.6756872534751892 -0.3373955488204956 0.0 0.0 0.0 0.0
1.794 0.04884019121527672 0.0240382868796587 -0.6829040050506592 -0.3230365812778473 0.0 0.0 0.0 0.0
1.795 0.04725112393498421 0.024820955470204353 -0.7005029320716858 -0.2932214140892029 0.0 0.0 0.0 0.0
1.796 0.045213550329208374 0.024369914084672928 -0.7014568448066711 -0.2753945589065552 0.0 0.0 0.0 0.0
1.797 0.0433894582092762 0.02517244778573513 -0.7141622304916382 -0.24787716567516327 0.0 0.0 0.0 0.0
1.798 0.040657103061676025 0.02567026950418949 -0.722224235534668 -0.2265050709247589 0.0 0.0 0.0 0.0
1.799 0.039089661091566086 0.02783903479576111 -0.732728898525238 -0.20021964609622955 0.0 0.0 0.0 0.0
1.8 0.037403590977191925 0.028715915977954865 -0.7348576188087463 -0.1725156158208847 0.0 0.0 0.0 0.0
1.801 0.03596603497862816 0.02979113906621933 -0.7410237789154053 -0.15298521518707275 0.0 0.0 0.0 0.0
1.802 0.03475716710090637 0.03163335472345352 -0.743127167224884 -0.13153880834579468 0.0 0.0 0.0 0.0
1.803 0.03275628015398979 0.03302736580371857 -0.7526317238807678 -0.10708785057067871 0.0 0.0 0.0 0.0
1.804 0.0322604663670063 0.03526359796524048 -0.7506604790687561 -0.07880663126707077 0.0 0.0 0.0 0.0
1.805 0.031041841953992844 0.03726735711097717 -0.756582498550415 -0.05657530575990677 0.0 0.0 0.0 0.0
1.806 0.030357927083969116 0.04013800248503685 -0.7578088641166687 -0.02367553487420082 0.0 0.0 0.0 0.0
1.807 0.029209475964307785 0.04195304214954376 -0.7569959759712219 -0.006113744340837002 0.0 0.0 0.0 0.0
1.808 0.02853097952902317 0.04502541199326515 -0.7561789751052856 0.02598792500793934 0.0 0.0 0.0 0.0
1.809 0.027717938646674156 0.047352056950330734 -0.7605541348457336 0.0437793955206871 0.0 0.0 0.0 0.0
1.81 0.02755291573703289 0.04988390579819679 -0.7544182538986206 0.0756140872836113 0.0 0.0 0.0 0.0
1.811 0.02749134786427021 0.053774453699588776 -0.7523841857910156 0.09491018950939178 0.0 0.0 0.0 0.0
1.812 0.027658620849251747 0.055510010570287704 -0.7470629215240479 0.12756681442260742 0.0 0.0 0.0 0.0
1.813 0.02745460905134678 0.0596955344080925 -0.7454338669776917 0.1444977968931198 0.0 0.0 0.0 0.0
1.814 0.02952832356095314 0.06260918080806732 -0.7377764582633972 0.1779709756374359 0.0 0.0 0.0 0.0
1.815 0.02914939634501934 0.0648878812789917 -0.7366934418678284 0.1947447955608368 0.0 0.0 0.0 0.0
1.816 0.03146545588970184 0.06867710500955582 -0.722558319568634 0.2279796004295349 0.0 0.0 0.0 0.0
1.817 0.031141549348831177 0.07161860167980194 -0.7210999727249146 0.24009914696216583 0.0 0.0 0.0 0.0
1.818 0.033586565405130386 0.07511298358440399 -0.7089534401893616 0.2768170237541199 0.0 0.0 0.0 0.0
1.819 0.0343271940946579 0.07727063447237015 -0.704810380935669 0.2853226959705353 0.0 0.0 0.0 0.0
1.82 0.03822899982333183 0.08020620793104172 -0.6847878098487854 0.32881608605384827 0.0 0.0 0.0 0.0
1.821 0.03889462724328041 0.08254656940698624 -0.6832987666130066 0.3354426920413971 0.0 0.0 0.0 0.0
1.822 0.04217139258980751 0.08497074991464615 -0.6709122061729431 0.3641408383846283 0.0 0.0 0.0 0.0
1.823 0.04415033757686615 0.08761826902627945 -0.6608051061630249 0.38334009051322937 0.0 0.0 0.0 0.0
1.824 0.04586448147892952 0.0885678231716156 -0.6426539421081543 0.40751293301582336 0.0 0.0 0.0 0.0
1.825 0.04981473460793495 0.09242621064186096 -0.6321582794189453 0.41980472207069397 0.0 0.0 0.0 0.0
1.826 0.05360490828752518 0.09437952190637589 -0.6157970428466797 0.4531208872795105 0.0 0.0 0.0 0.0
1.827 0.05789206549525261 0.09578829258680344 -0.5962985157966614 0.4684408903121948 0.0 0.0 0.0 0.0
1.828 0.061760351061820984 0.09887279570102692 -0.5850711464881897 0.49016180634498596 0.0 0.0 0.0 0.0
1.829 0.06368361413478851 0.10009957104921341 -0.5718060731887817 0.5013535022735596 0.0 0.0 0.0 0.0
1.83 0.0691031664609909 0.09977052360773087 -0.5486995577812195 0.5297397375106812 0.0 0.0 0.0 0.0
1.831 0.07266583293676376 0.10368137806653976 -0.5411251783370972 0.5409844517707825 0.0 0.0 0.0 0.0
1.832 0.07634467631578445 0.10369712859392166 -0.5169184803962708 0.5661783814430237 0.0 0.0 0.0 0.0
1.833 0.08065517246723175 0.10305587202310562 -0.4977291226387024 0.5785259008407593 0.0 0.0 0.0 0.0
1.834 0.0858503207564354 0.10321760177612305 -0.47632935643196106 0.5982456803321838 0.0 0.0 0.0 0.0
1.835 0.08945086598396301 0.1031794473528862 -0.4595518112182617 0.6067913770675659 0.0 0.0 0.0 0.0
1.836 0.09333427250385284 0.1037939041852951 -0.4415772259235382 0.6296716332435608 0.0 0.0 0.0 0.0
1.837 0.09831443428993225 0.10182572901248932 -0.419778972864151 0.6374766230583191 0.0 0.0 0.0 0.0
1.838 0.10262808948755264 0.10192186385393143 -0.39566415548324585 0.6553032398223877 0.0 0.0 0.0 0.0
1.839 0.10617519915103912 0.09976829588413239 -0.3742406368255615 0.6641454696655273 0.0 0.0 0.0 0.0
1.84 0.11021368205547333 0.09976775199174881 -0.35645318031311035 0.6811074018478394 0.0 0.0 0.0 0.0
1.841 0.11407272517681122 0.09763692319393158 -0.3279828429222107 0.6900566220283508 0.0 0.0 0.0 0.0
1.842 0.11856883764266968 0.09493852406740189 -0.30838754773139954 0.6986838579177856 0.0 0.0 0.0 0.0
1.843 0.12396641820669174 0.09268048405647278 -0.27787137031555176 0.7086131572723389 0.0 0.0 0.0 0.0
1.844 0.12594732642173767 0.09110032767057419 -0.25978884100914 0.7216975688934326 0.0 0.0 0.0 0.0
1.845 0.13089881837368011 0.08730389177799225 -0.23574504256248474 0.7294572591781616 0.0 0.0 0.0 0.0
1.846 0.13339313864707947 0.08530989289283752 -0.21706190705299377 0.7332893013954163 0.0 0.0 0.0 0.0
1.847 0.1378643959760666 0.080202117562294 -0.18044434487819672 0.744544506072998 0.0 0.0 0.0 0.0
1.848 0.14101703464984894 0.07585078477859497 -0.15893609821796417 0.7432807683944702 0.0 0.0 0.0 0.0
1.849 0.14377541840076447 0.0714762732386589 -0.13362395763397217 0.7583521008491516 0.0 0.0 0.0 0.0
1.85 0.14614519476890564 0.06989825516939163 -0.11008482426404953 0.7597518563270569 0.0 0.0 0.0 0.0
1.851 0.1489596664905548 0.06501492857933044 -0.08208698034286499 0.7637947201728821 0.0 0.0 0.0 0.0
1.852 0.1512208729982376 0.06096970662474632 -0.06440413743257523 0.7674503922462463 0.0 0.0 0.0 0.0
1.853 0.1535797268152237 0.05609023943543434 -0.02951790578663349 0.7669848203659058 0.0 0.0 0.0 0.0
1.854 0.15475228428840637 0.05192435532808304 -0.012133666314184666 0.7683307528495789 0.0 0.0 0.0 0.0
1.855 0.15751418471336365 0.04662352427840233 0.02312786690890789 0.7695772051811218 0.0 0.0 0.0 0.0
1.856 0.15725986659526825 0.04436570033431053 0.033065181225538254 0.7669458985328674 0.0 0.0 0.0 0.0
1.857 0.15742246806621552 0.035912033170461655 0.07596436887979507 0.7650778889656067 0.0 0.0 0.0 0.0
1.858 0.15848520398139954 0.03279924392700195 0.09011510014533997 0.7658309936523438 0.0 0.0 0.0 0.0
1.859 0.1587456911802292 0.026860227808356285 0.12630534172058105 0.7604290246963501 0.0 0.0 0.0 0.0
1.86 0.15860384702682495 0.02312885969877243 0.14401307702064514 0.7540524005889893 0.0 0.0 0.0 0.0
1.861 0.15746411681175232 0.014165634289383888 0.17824053764343262 0.7453187704086304 0.0 0.0 0.0 0.0
1.862 0.15693055093288422 0.012288824655115604 0.1877041608095169 0.7467754483222961 0.0 0.0 0.0 0.0
1.863 0.1572307050228119 0.004778610542416573 0.22809892892837524 0.7409824132919312 0.0 0.0 0.0 0.0
1.864 0.15462055802345276 0.001567050814628601 0.24025335907936096 0.7335343360900879 0.0 0.0 0.0 0.0
1.865 0.1537257432937622 -0.00479105394333601 0.27721187472343445 0.7209521532058716 0.0 0.0 0.0 0.0
1.866 0.15021181106567383 -0.008700564503669739 0.28516513109207153 0.7169273495674133 0.0 0.0 0.0 0.0
1.867 0.14868824183940887 -0.01526612602174282 0.3253301978111267 0.7030922770500183 0.0 0.0 0.0 0.0
1.868 0.1443970948457718 -0.019488999620079994 0.3393700122833252 0.6933249235153198 0.0 0.0 0.0 0.0
1.869 0.1413436084985733 -0.0236774031072855 0.3703136444091797 0.6810137629508972 0.0 0.0 0.0 0.0
1.87 0.13809356093406677 -0.027835503220558167 0.3758447468280792 0.6764917969703674 0.0 0.0 0.0 0.0
1.871 0.13484708964824677 -0.03312849625945091 0.41729146242141724 0.6574939489364624 0.0 0.0 0.0 0.0
1.872 0.13207118213176727 -0.0335334837436676 0.4310969114303589 0.6392558813095093 0.0 0.0 0.0 0.0
1.873 0.1266745924949646 -0.04110022261738777 0.4643171429634094 0.6216617226600647 0.0 0.0 0.0 0.0
1.874 0.12213710695505142 -0.041604023426771164 0.4754575490951538 0.6110818982124329 0.0 0.0 0.0 0.0
1.875 0.1177702471613884 -0.0446869395673275 0.4984728693962097 0.594392716884613 0.0 0.0 0.0 0.0
1.876 0.11329570412635803 -0.04857870191335678 0.5141505002975464 0.5758233666419983 0.0 0.0 0.0 0.0
1.877 0.1079128086566925 -0.0501708947122097 0.5384441614151001 0.5625287890434265 0.0 0.0 0.0 0.0
1.878 0.10292880237102509 -0.050632089376449585 0.5455756783485413 0.5468418002128601 0.0 0.0 0.0 0.0
1.879 0.09809461236000061 -0.054050832986831665 0.576601505279541 0.5290914177894592 0.0 0.0 0.0 0.0
1.88 0.09201104193925858 -0.056303970515728 0.5920919179916382 0.5002844333648682 0.0 0.0 0.0 0.0
1.881 0.08717755228281021 -0.05638037621974945 0.6053066253662109 0.48648732900619507 0.0 0.0 0.0 0.0
1.882 0.08057790994644165 -0.05771220847964287 0.6236068606376648 0.46173834800720215 0.0 0.0 0.0 0.0
1.883 0.07613026350736618 -0.057420507073402405 0.6366055607795715 0.44693994522094727 0.0 0.0 0.0 0.0
1.884 0.06987960636615753 -0.05906776711344719 0.6558815240859985 0.41889914870262146 0.0 0.0 0.0 0.0
1.885 0.06615415215492249 -0.05693427100777626 0.6652234196662903 0.40652188658714294 0.0 0.0 0.0 0.0
1.886 0.060490868985652924 -0.05741934850811958 0.682900607585907 0.3718620836734772 0.0 0.0 0.0 0.0
1.887 0.05452559515833855 -0.056440871208906174 0.6901023387908936 0.36047032475471497 0.0 0.0 0.0 0.0
1.888 0.05005752667784691 -0.055314287543296814 0.7102811932563782 0.32909339666366577 0.0 0.0 0.0 0.0
1.889 0.04398874193429947 -0.05256253108382225 0.7136335372924805 0.30792132019996643 0.0 0.0 0.0 0.0
1.89 0.037451185286045074 -0.0519726499915123 0.729219377040863 0.28126275539398193 0.0 0.0 0.0 0.0
1.891 0.03332928940653801 -0.05037763714790344 0.7347374558448792 0.26108911633491516 0.0 0.0 0.0 0.0
1.892 0.0294327512383461 -0.04601546749472618 0.7449550032615662 0.2322666347026825 0.0 0.0 0.0 0.0
1.893 0.023872271180152893 -0.04374812915921211 0.7504704594612122 0.21979257464408875 0.0 0.0 0.0 0.0
1.894 0.019551021978259087 -0.04080731049180031 0.7636850476264954 0.17559431493282318 0.0 0.0 0.0 0.0
1.895 0.01618323102593422 -0.03817224130034447 0.7641650438308716 0.16865769028663635 0.0 0.0 0.0 0.0
1.896 0.012068523094058037 -0.03552209213376045 0.7768709063529968 0.1365966796875 0.0 0.0 0.0 0.0
1.897 0.006763774901628494 -0.030295412987470627 0.7728444933891296 0.11640710383653641 0.0 0.0 0.0 0.0
1.898 0.002537023276090622 -0.0267498642206192 0.7787977457046509 0.07329384982585907 0.0 0.0 0.0 0.0
1.899 0.0005343267694115639 -0.022305503487586975 0.7791039943695068 0.06429135799407959 0.0 0.0 0.0 0.0
1.9 -0.003732996992766857 -0.01880718767642975 0.7842864394187927 0.02303670533001423 0.0 0.0 0.0 0.0
1.901 -0.005856757052242756 -0.015314890071749687 0.7859345078468323 0.005009278655052185 0.0 0.0 0.0 0.0
1.902 -0.008833865635097027 -0.009739049710333347 0.7838115096092224 -0.02760414220392704 0.0 0.0 0.0 0.0
1.903 -0.00913036148995161 -0.004987180233001709 0.7810181379318237 -0.04237312823534012 0.0 0.0 0.0 0.0
1.904 -0.01097896508872509 -0.0007161339744925499 0.7818893790245056 -0.07080955058336258 0.0 0.0 0.0 0.0
1.905 -0.013717678375542164 0.0051606763154268265 0.7752270102500916 -0.10095182061195374 0.0 0.0 0.0 0.0
1.906 -0.013949654065072536 0.009161059744656086 0.7763739228248596 -0.1267693191766739 0.0 0.0 0.0 0.0
1.907 -0.015798604115843773 0.014364544302225113 0.7674948573112488 -0.14819645881652832 0.0 0.0 0.0 0.0
1.908 -0.017412859946489334 0.019340770319104195 0.7650249004364014 -0.17989911139011383 0.0 0.0 0.0 0.0
1.909 -0.017554642632603645 0.023411139845848083 0.7558581233024597 -0.2054429054260254 0.0 0.0 0.0 0.0
1.91 -0.017870895564556122 0.027403276413679123 0.7559487819671631 -0.2311006635427475 0.0 0.0 0.0 0.0
1.911 -0.01618553325533867 0.03238940238952637 0.7430479526519775 -0.26057398319244385 0.0 0.0 0.0 0.0
1.912 -0.01692751608788967 0.036889828741550446 0.7387560606002808 -0.28014102578163147 0.0 0.0 0.0 0.0
1.913 -0.014968792907893658 0.04133381322026253 0.7241531610488892 -0.30297812819480896 0.0 0.0 0.0 0.0
1.914 -0.013881788589060307 0.046386752277612686 0.7149538397789001 -0.3299911618232727 0.0 0.0 0.0 0.0
1.915 -0.01344678457826376 0.051178112626075745 0.7015708088874817 -0.3529447615146637 0.0 0.0 0.0 0.0
1.916 -0.011480746790766716 0.05446276813745499 0.6955312490463257 -0.3778892457485199 0.0 0.0 0.0 0.0
1.917 -0.008732001297175884 0.059164684265851974 0.6771715879440308 -0.3955172598361969 0.0 0.0 0.0 0.0
1.918 -0.008707644417881966 0.06263275444507599 0.6697468161582947 -0.4233066439628601 0.0 0.0 0.0 0.0
1.919 -0.004520582966506481 0.06566730886697769 0.640937328338623 -0.4548686742782593 0.0 0.0 0.0 0.0
1.92 -0.0029316022992134094 0.06918918341398239 0.6346587538719177 -0.46079063415527344 0.0 0.0 0.0 0.0
1.921 -0.00024355947971343994 0.07289523631334305 0.6132554411888123 -0.49023741483688354 0.0 0.0 0.0 0.0
1.922 0.0009324802085757256 0.0748138278722763 0.6021379232406616 -0.5049993395805359 0.0 0.0 0.0 0.0
1.923 0.004685905762016773 0.0765562579035759 0.5779714584350586 -0.5352447628974915 0.0 0.0 0.0 0.0
1.924 0.008687769062817097 0.07989425212144852 0.5680170059204102 -0.5447583794593811 0.0 0.0 0.0 0.0
1.925 0.009571474976837635 0.0818728357553482 0.5395261645317078 -0.5745750665664673 0.0 0.0 0.0 0.0
1.926 0.014431854709982872 0.08287539333105087 0.5343011021614075 -0.5830166339874268 0.0 0.0 0.0 0.0
1.927 0.017013702541589737 0.08462175726890564 0.5005897879600525 -0.6079126000404358 0.0 0.0 0.0 0.0
1.928 0.020215267315506935 0.08548527210950851 0.49289625883102417 -0.6145714521408081 0.0 0.0 0.0 0.0
1.929 0.024744872003793716 0.08717387169599533 0.4673979878425598 -0.6378081440925598 0.0 0.0 0.0 0.0
1.93 0.026102520525455475 0.08776841312646866 0.4501070976257324 -0.646935224533081 0.0 0.0 0.0 0.0
1.931 0.028444558382034302 0.08819075673818588 0.4192845821380615 -0.6718619465827942 0.0 0.0 0.0 0.0
1.932 0.03296826034784317 0.08811061829328537 0.4039232134819031 -0.6741930246353149 0.0 0.0 0.0 0.0
1.933 0.034770846366882324 0.08830074220895767 0.37549084424972534 -0.6987749934196472 0.0 0.0 0.0 0.0
1.934 0.03803513944149017 0.08785541355609894 0.353885680437088 -0.7071683406829834 0.0 0.0 0.0 0.0
1.935 0.04037346690893173 0.08854922652244568 0.3260250985622406 -0.719080924987793 0.0 0.0 0.0 0.0
1.936 0.043789733201265335 0.08691493421792984 0.30365318059921265 -0.7248796820640564 0.0 0.0 0.0 0.0
1.937 0.04583663120865822 0.08587508648633957 0.2806929647922516 -0.7424092888832092 0.0 0.0 0.0 0.0
1.938 0.04737276956439018 0.08400026708841324 0.2532638609409332 -0.7452780604362488 0.0 0.0 0.0 0.0
1.939 0.049143075942993164 0.08428283035755157 0.23124921321868896 -0.7544679045677185 0.0 0.0 0.0 0.0
1.94 0.05278410762548447 0.08160562068223953 0.20262350142002106 -0.7616150975227356 0.0 0.0 0.0 0.0
1.941 0.05290267616510391 0.08085691928863525 0.18027548491954803 -0.7692336440086365 0.0 0.0 0.0 0.0
1.942 0.055775344371795654 0.07817595452070236 0.14572830498218536 -0.7803109884262085 0.0 0.0 0.0 0.0
1.943 0.055114224553108215 0.07633797824382782 0.12850964069366455 -0.7812396287918091 0.0 0.0 0.0 0.0
1.944 0.05625517666339874 0.07506534457206726 0.09273365885019302 -0.7845246195793152 0.0 0.0 0.0 0.0
1.945 0.0568489134311676 0.0728660598397255 0.07381923496723175 -0.7895284295082092 0.0 0.0 0.0 0.0
1.946 0.05904065817594528 0.06957770138978958 0.035972025245428085 -0.7905588150024414 0.0 0.0 0.0 0.0
1.947 0.058608487248420715 0.06871610134840012 0.023061390966176987 -0.791519045829773 0.0 0.0 0.0 0.0
1.948 0.05659520626068115 0.0667986124753952 -0.020633896812796593 -0.7881476879119873 0.0 0.0 0.0 0.0
1.949 0.05600316822528839 0.06409947574138641 -0.03226429596543312 -0.7914556860923767 0.0 0.0 0.0 0.0
1.95 0.05694272741675377 0.06095783784985542 -0.06902892142534256 -0.7906813621520996 0.0 0.0 0.0 0.0
1.951 0.05521835386753082 0.06018335372209549 -0.0883382111787796 -0.7867191433906555 0.0 0.0 0.0 0.0
1.952 0.05552762746810913 0.05853792279958725 -0.12340272217988968 -0.7805203795433044 0.0 0.0 0.0 0.0
1.953 0.0523197315633297 0.05715908110141754 -0.13886021077632904 -0.7771624326705933 0.0 0.0 0.0 0.0
1.954 0.0523940771818161 0.054226722568273544 -0.18077386915683746 -0.7668989300727844 0.0 0.0 0.0 0.0
1.955 0.048478297889232635 0.05422680452466011 -0.18990999460220337 -0.7623690962791443 0.0 0.0 0.0 0.0
1.956 0.04791999235749245 0.04971148818731308 -0.23367974162101746 -0.7482323050498962 0.0 0.0 0.0 0.0
1.957 0.045076556503772736 0.050222642719745636 -0.24519579112529755 -0.752859354019165 0.0 0.0 0.0 0.0
1.958 0.043123409152030945 0.05033467337489128 -0.28514620661735535 -0.7356789708137512 0.0 0.0 0.0 0.0
1.959 0.03978888690471649 0.04937200993299484 -0.29054921865463257 -0.7318697571754456 0.0 0.0 0.0 0.0
1.96 0.038234539330005646 0.04755253717303276 -0.32961544394493103 -0.7143369913101196 0.0 0.0 0.0 0.0
1.961 0.03444458171725273 0.04884268715977669 -0.3403776288032532 -0.7065333724021912 0.0 0.0 0.0 0.0
1.962 0.030820447951555252 0.04894116893410683 -0.3837975859642029 -0.6876872777938843 0.0 0.0 0.0 0.0
1.963 0.028126735240221024 0.04869650676846504 -0.38767898082733154 -0.6794654130935669 0.0 0.0 0.0 0.0
1.964 0.023882661014795303 0.048124056309461594 -0.4193868637084961 -0.6680589914321899 0.0 0.0 0.0 0.0
1.965 0.020800312981009483 0.04960084706544876 -0.4468727707862854 -0.6449873447418213 0.0 0.0 0.0 0.0
1.966 0.01636655628681183 0.05080360919237137 -0.46290144324302673 -0.6316205263137817 0.0 0.0 0.0 0.0
1.967 0.014410363510251045 0.05242688208818436 -0.4873300790786743 -0.6108056902885437 0.0 0.0 0.0 0.0
1.968 0.010540230199694633 0.054249513894319534 -0.5033749341964722 -0.6090753674507141 0.0 0.0 0.0 0.0
1.969 0.007071631029248238 0.05531557649374008 -0.5345926880836487 -0.5721603631973267 0.0 0.0 0.0 0.0
1.97 0.003097677603363991 0.05753316730260849 -0.5400798320770264 -0.5697710514068604 0.0 0.0 0.0 0.0
1.971 0.0018579093739390373 0.06107867509126663 -0.5618423223495483 -0.5415821075439453 0.0 0.0 0.0 0.0
1.972 -0.003352023661136627 0.06370194256305695 -0.5746967792510986 -0.5252102613449097 0.0 0.0 0.0 0.0
1.973 -0.004349445924162865 0.06607647240161896 -0.5989148020744324 -0.5035132765769958 0.0 0.0 0.0 0.0
1.974 -0.008221354335546494 0.07070596516132355 -0.6047660708427429 -0.4873966872692108 0.0 0.0 0.0 0.0
1.975 -0.009333840571343899 0.07378086447715759 -0.6349311470985413 -0.45508116483688354 0.0 0.0 0.0 0.0
1.976 -0.013251006603240967 0.07841663807630539 -0.6374743580818176 -0.44360947608947754 0.0 0.0 0.0 0.0
1.977 -0.016350548714399338 0.08191853761672974 -0.6626977920532227 -0.41583847999572754 0.0 0.0 0.0 0.0
1.978 -0.01795877516269684 0.0856180265545845 -0.6651120185852051 -0.40306004881858826 0.0 0.0 0.0 0.0
1.979 -0.02022664062678814 0.09027634561061859 -0.6871852874755859 -0.36307328939437866 0.0 0.0 0.0 0.0
1.98 -0.022083910182118416 0.09567705541849136 -0.6909612417221069 -0.34556299448013306 0.0 0.0 0.0 0.0
1.981 -0.022283989936113358 0.1008913666009903 -0.7090542912483215 -0.31597810983657837 0.0 0.0 0.0 0.0
1.982 -0.023721368983387947 0.1057012677192688 -0.7105316519737244 -0.3030216693878174 0.0 0.0 0.0 0.0
1.983 -0.023061810061335564 0.1122421845793724 -0.7269092798233032 -0.26948606967926025 0.0 0.0 0.0 0.0
1.984 -0.025208381935954094 0.11890021711587906 -0.7289717197418213 -0.2546197474002838 0.0 0.0 0.0 0.0
1.985 -0.02603495493531227 0.12404606491327286 -0.7421087026596069 -0.21792639791965485 0.0 0.0 0.0 0.0
1.986 -0.023942356929183006 0.12962456047534943 -0.7434350848197937 -0.201907679438591 0.0 0.0 0.0 0.0
1.987 -0.0222945399582386 0.13376586139202118 -0.7513808608055115 -0.16631564497947693 0.0 0.0 0.0 0.0
1.988 -0.022096214815974236 0.1400786191225052 -0.750913679599762 -0.15274666249752045 0.0 0.0 0.0 0.0
1.989 -0.021805420517921448 0.14526063203811646 -0.7625263333320618 -0.12035001814365387 0.0 0.0 0.0 0.0
1.99 -0.018714124336838722 0.15211443603038788 -0.75953608751297 -0.09883300215005875 0.0 0.0 0.0 0.0
1.991 -0.01726493239402771 0.15883412957191467 -0.7675873637199402 -0.07171469181776047 0.0 0.0 0.0 0.0
1.992 -0.014307300560176373 0.16322723031044006 -0.7642661333084106 -0.05051501467823982 0.0 0.0 0.0 0.0
1.993 -0.011694176122546196 0.1685314178466797 -0.7686100602149963 -0.016644369810819626 0.0 0.0 0.0 0.0
1.994 -0.007680595852434635 0.17478932440280914 -0.7639485001564026 0.011227858252823353 0.0 0.0 0.0 0.0
1.995 -0.006102976389229298 0.1785256713628769 -0.7617794275283813 0.03232373669743538 0.0 0.0 0.0 0.0
1.996 -2.0473264157772064e-05 0.1845889389514923 -0.7603936195373535 0.06331774592399597 0.0 0.0 0.0 0.0
1.997 0.0014403527602553368 0.18926431238651276 -0.7611931562423706 0.07926696538925171 0.0 0.0 0.0 0.0
1.998 0.004337458871304989 0.1944143921136856 -0.7553125619888306 0.09640996158123016 0.0 0.0 0.0 0.0
1.999 0.012009424157440662 0.1988467425107956 -0.749423086643219 0.1290261447429657 0.0 0.0 0.0 0.0
2.0 0.01779329963028431 0.20319226384162903 -0.7450160384178162 0.15779563784599304 0.0 0.0 0.0 0.0
2.001 0.024822210893034935 0.2023354470729828 -0.7361502647399902 0.17539936304092407 0.0 0.0 0.0 0.0
2.002 0.03197955712676048 0.20734581351280212 -0.7253081202507019 0.20869114995002747 0.0 0.0 0.0 0.0
2.003 0.03489622473716736 0.208888977766037 -0.7199490666389465 0.21537278592586517 0.0 0.0 0.0 0.0
2.004 0.043094709515571594 0.2141018956899643 -0.7125757336616516 0.25526589155197144 0.0 0.0 0.0 0.0
2.005 0.04527628421783447 0.21594326198101044 -0.7064341306686401 0.2637447714805603 0.0 0.0 0.0 0.0
2.006 0.05562428757548332 0.21813328564167023 -0.6933202147483826 0.2998809218406677 0.0 0.0 0.0 0.0
2.007 0.05858398228883743 0.22077526152133942 -0.6866762042045593 0.30742019414901733 0.0 0.0 0.0 0.0
2.008 0.06774254143238068 0.22171007096767426 -0.6716544032096863 0.3464031219482422 0.0 0.0 0.0 0.0
2.009 0.07355637848377228 0.22333920001983643 -0.6628285050392151 0.35487866401672363 0.0 0.0 0.0 0.0
2.01 0.08126865327358246 0.2257063239812851 -0.6449957489967346 0.39195361733436584 0.0 0.0 0.0 0.0
2.011 0.08682474493980408 0.22534944117069244 -0.6375980973243713 0.3988417387008667 0.0 0.0 0.0 0.0
2.012 0.09567827731370926 0.22668878734111786 -0.6206328868865967 0.4278688132762909 0.0 0.0 0.0 0.0
2.013 0.09882856905460358 0.22704124450683594 -0.6075575947761536 0.43891841173171997 0.0 0.0 0.0 0.0
2.014 0.10625588893890381 0.22455789148807526 -0.5912160873413086 0.4640214145183563 0.0 0.0 0.0 0.0
2.015 0.11260411888360977 0.2252122014760971 -0.5793309211730957 0.4772513508796692 0.0 0.0 0.0 0.0
2.016 0.12010262906551361 0.22478143870830536 -0.5614383816719055 0.5013753771781921 0.0 0.0 0.0 0.0
2.017 0.1263338029384613 0.22266432642936707 -0.5479406118392944 0.5151031017303467 0.0 0.0 0.0 0.0
2.018 0.13398206233978271 0.22233013808727264 -0.5257440805435181 0.5384166836738586 0.0 0.0 0.0 0.0
2.019 0.14026926457881927 0.21917742490768433 -0.5103856921195984 0.5486348271369934 0.0 0.0 0.0 0.0
2.02 0.14793582260608673 0.2148347795009613 -0.48945626616477966 0.5690056085586548 0.0 0.0 0.0 0.0
2.021 0.1545048952102661 0.21233373880386353 -0.4723174273967743 0.581853985786438 0.0 0.0 0.0 0.0
2.022 0.16038769483566284 0.2090238630771637 -0.4486892521381378 0.6025930643081665 0.0 0.0 0.0 0.0
2.023 0.16666492819786072 0.20527273416519165 -0.4269023835659027 0.6134169101715088 0.0 0.0 0.0 0.0
2.024 0.17110244929790497 0.20337139070034027 -0.4141133427619934 0.6318953633308411 0.0 0.0 0.0 0.0
2.025 0.17746706306934357 0.19653429090976715 -0.3898065984249115 0.6413905024528503 0.0 0.0 0.0 0.0
2.026 0.18208274245262146 0.19409210979938507 -0.36950528621673584 0.6580542922019958 0.0 0.0 0.0 0.0
2.027 0.18946696817874908 0.18776461482048035 -0.35105669498443604 0.6636994481086731 0.0 0.0 0.0 0.0
2.028 0.19195003807544708 0.18502376973628998 -0.3254680335521698 0.6838304400444031 0.0 0.0 0.0 0.0
2.029 0.19550658762454987 0.17785237729549408 -0.3056669533252716 0.6842641830444336 0.0 0.0 0.0 0.0
2.03 0.20184873044490814 0.17231819033622742 -0.28170812129974365 0.6983335614204407 0.0 0.0 0.0 0.0
2.031 0.20568734407424927 0.16583678126335144 -0.2582537531852722 0.7076395750045776 0.0 0.0 0.0 0.0
2.032 0.20834095776081085 0.1609705537557602 -0.24070413410663605 0.7197744846343994 0.0 0.0 0.0 0.0
2.033 0.21101728081703186 0.15427027642726898 -0.21477550268173218 0.7239184975624084 0.0 0.0 0.0 0.0
2.034 0.21437115967273712 0.14830583333969116 -0.19396772980690002 0.7315585613250732 0.0 0.0 0.0 0.0
2.035 0.22006802260875702 0.13803572952747345 -0.1528964638710022 0.7391175627708435 0.0 0.0 0.0 0.0
2.036 0.2185135930776596 0.1341109573841095 -0.14690366387367249 0.7395899891853333 0.0 0.0 0.0 0.0
2.037 0.22295337915420532 0.12487680464982986 -0.10678938031196594 0.7511569261550903 0.0 0.0 0.0 0.0
2.038 0.22223471105098724 0.11921171844005585 -0.09565204381942749 0.7466084957122803 0.0 0.0 0.0 0.0
2.039 0.22335462272167206 0.11053799837827682 -0.06423814594745636 0.7543431520462036 0.0 0.0 0.0 0.0
2.04 0.22316257655620575 0.10486844182014465 -0.048370782285928726 0.7536866664886475 0.0 0.0 0.0 0.0
2.041 0.2243363857269287 0.09522952139377594 -0.003442053683102131 0.7592281699180603 0.0 0.0 0.0 0.0
2.042 0.22247764468193054 0.08962748944759369 0.011760879307985306 0.7570359110832214 0.0 0.0 0.0 0.0
2.043 0.22332613170146942 0.08143506944179535 0.04553397372364998 0.7564594745635986 0.0 0.0 0.0 0.0
2.044 0.22191394865512848 0.07480372488498688 0.05706021934747696 0.7550890445709229 0.0 0.0 0.0 0.0
2.045 0.22168098390102386 0.06862129271030426 0.09266780316829681 0.7562192678451538 0.0 0.0 0.0 0.0
2.046 0.2182762622833252 0.06280643492937088 0.10623766481876373 0.7512192726135254 0.0 0.0 0.0 0.0
2.047 0.21651537716388702 0.05458786338567734 0.14549890160560608 0.748892068862915 0.0 0.0 0.0 0.0
2.048 0.21127797663211823 0.04818936809897423 0.15976907312870026 0.741054356098175 0.0 0.0 0.0 0.0
2.049 0.2108323723077774 0.0414976142346859 0.19439350068569183 0.7397342920303345 0.0 0.0 0.0 0.0
2.05 0.20464198291301727 0.03789559379220009 0.20238851010799408 0.7293296456336975 0.0 0.0 0.0 0.0
2.051 0.2012724131345749 0.03110549785196781 0.24093595147132874 0.7222362756729126 0.0 0.0 0.0 0.0
2.052 0.19875726103782654 0.025496941059827805 0.2580181062221527 0.7197883725166321 0.0 0.0 0.0 0.0
2.053 0.19441702961921692 0.02048434130847454 0.2892163097858429 0.7103390693664551 0.0 0.0 0.0 0.0
2.054 0.18701164424419403 0.015690624713897705 0.2999149262905121 0.6980443596839905 0.0 0.0 0.0 0.0
2.055 0.1832495629787445 0.009746150113642216 0.3414733409881592 0.6871591210365295 0.0 0.0 0.0 0.0
2.056 0.17777131497859955 0.005798373371362686 0.35190722346305847 0.6728853583335876 0.0 0.0 0.0 0.0
2.057 0.17315609753131866 0.00037194229662418365 0.390079140663147 0.6590322852134705 0.0 0.0 0.0 0.0
2.058 0.16721802949905396 -0.0007085595279932022 0.39474621415138245 0.6525826454162598 0.0 0.0 0.0 0.0
2.059 0.16135743260383606 -0.005377653054893017 0.43199777603149414 0.6353755593299866 0.0 0.0 0.0 0.0
2.06 0.15508146584033966 -0.009120570495724678 0.4420890510082245 0.6242411732673645 0.0 0.0 0.0 0.0
2.061 0.14844301342964172 -0.009532653726637363 0.4719502329826355 0.603131890296936 0.0 0.0 0.0 0.0
2.062 0.14200524985790253 -0.011827798560261726 0.4836941957473755 0.5936723351478577 0.0 0.0 0.0 0.0
2.063 0.13698536157608032 -0.015188510529696941 0.5119327902793884 0.5758621096611023 0.0 0.0 0.0 0.0
2.064 0.1291414499282837 -0.01615952141582966 0.5287386178970337 0.5509316325187683 0.0 0.0 0.0 0.0
2.065 0.12453127652406693 -0.01598900370299816 0.5453410744667053 0.5377994179725647 0.0 0.0 0.0 0.0
2.066 0.11666163802146912 -0.01713581569492817 0.5627201199531555 0.5190917253494263 0.0 0.0 0.0 0.0
2.067 0.11174710094928741 -0.0168679840862751 0.5825761556625366 0.49943235516548157 0.0 0.0 0.0 0.0
2.068 0.1044163927435875 -0.017167123034596443 0.5993075370788574 0.47484779357910156 0.0 0.0 0.0 0.0
2.069 0.09885703027248383 -0.01635775901377201 0.6139781475067139 0.460470974445343 0.0 0.0 0.0 0.0
2.07 0.0921621322631836 -0.01703471876680851 0.6305919289588928 0.43374791741371155 0.0 0.0 0.0 0.0
2.071 0.08595019578933716 -0.013532697223126888 0.6435572504997253 0.41771313548088074 0.0 0.0 0.0 0.0
2.072 0.07996375113725662 -0.013928436674177647 0.6619914770126343 0.3886214792728424 0.0 0.0 0.0 0.0
2.073 0.07594854384660721 -0.010591758415102959 0.6713159680366516 0.3765084445476532 0.0 0.0 0.0 0.0
2.074 0.06916878372430801 -0.009115759283304214 0.6872509717941284 0.3407183289527893 0.0 0.0 0.0 0.0
2.075 0.06465815007686615 -0.006367539055645466 0.6928141713142395 0.32763147354125977 0.0 0.0 0.0 0.0
2.076 0.05882180854678154 -0.004393834620714188 0.71015864610672 0.2941185534000397 0.0 0.0 0.0 0.0
2.077 0.05459829047322273 -0.0007525905966758728 0.7149357199668884 0.2817097306251526 0.0 0.0 0.0 0.0
2.078 0.04964219406247139 0.002891741693019867 0.7247324585914612 0.24534058570861816 0.0 0.0 0.0 0.0
2.079 0.04480205103754997 0.007335054688155651 0.7261613011360168 0.24109749495983124 0.0 0.0 0.0 0.0
2.08 0.042189665138721466 0.0081986328586936 0.7438560128211975 0.19544334709644318 0.0 0.0 0.0 0.0
2.081 0.03757544979453087 0.013477335684001446 0.740982174873352 0.18358562886714935 0.0 0.0 0.0 0.0
2.082 0.03394831344485283 0.017920488491654396 0.753159761428833 0.14306466281414032 0.0 0.0 0.0 0.0
2.083 0.031903963536024094 0.02053147181868553 0.7552338242530823 0.12743420898914337 0.0 0.0 0.0 0.0
2.084 0.02737395092844963 0.025050805881619453 0.7617031335830688 0.08971024304628372 0.0 0.0 0.0 0.0
2.085 0.025838587433099747 0.029281379655003548 0.7625929117202759 0.06874141842126846 0.0 0.0 0.0 0.0
2.086 0.02380097471177578 0.032990265637636185 0.7680220603942871 0.04225165769457817 0.0 0.0 0.0 0.0
2.087 0.022865381091833115 0.037330567836761475 0.7641069889068604 0.021797433495521545 0.0 0.0 0.0 0.0
2.088 0.02040565386414528 0.042691223323345184 0.7663640379905701 -0.01220481377094984 0.0 0.0 0.0 0.0
2.089 0.019486697390675545 0.046366747468709946 0.7651647925376892 -0.031246377155184746 0.0 0.0 0.0 0.0
2.09 0.018677670508623123 0.050539251416921616 0.7625882625579834 -0.0630192831158638 0.0 0.0 0.0 0.0
2.091 0.016839884221553802 0.055291056632995605 0.760169506072998 -0.0863635465502739 0.0 0.0 0.0 0.0
2.092 0.01741793565452099 0.060521334409713745 0.755895733833313 -0.11417553573846817 0.0 0.0 0.0 0.0
2.093 0.017127403989434242 0.063028484582901 0.7510562539100647 -0.13576363027095795 0.0 0.0 0.0 0.0
2.094 0.0166772473603487 0.06701771169900894 0.7476931214332581 -0.15936021506786346 0.0 0.0 0.0 0.0
2.095 0.016782769933342934 0.07065135985612869 0.7386618256568909 -0.19088344275951385 0.0 0.0 0.0 0.0
2.096 0.01667691580951214 0.07465691864490509 0.7355914115905762 -0.21068117022514343 0.0 0.0 0.0 0.0
2.097 0.017815254628658295 0.07872939109802246 0.720295786857605 -0.24311114847660065 0.0 0.0 0.0 0.0
2.098 0.01782982423901558 0.08180646598339081 0.7183619737625122 -0.2623139023780823 0.0 0.0 0.0 0.0
2.099 0.018824378028512 0.08486046642065048 0.7009826898574829 -0.29274633526802063 0.0 0.0 0.0 0.0
2.1 0.020341387018561363 0.08706265687942505 0.6952933073043823 -0.3033270537853241 0.0 0.0 0.0 0.0
2.101 0.022244470193982124 0.08993489295244217 0.6821687817573547 -0.3366636335849762 0.0 0.0 0.0 0.0
2.102 0.021787790581583977 0.09299309551715851 0.6753735542297363 -0.34702908992767334 0.0 0.0 0.0 0.0
2.103 0.025593921542167664 0.09609521180391312 0.6558781266212463 -0.3827351927757263 0.0 0.0 0.0 0.0
2.104 0.02503242902457714 0.09850283712148666 0.6476658582687378 -0.3934324383735657 0.0 0.0 0.0 0.0
2.105 0.02786955051124096 0.09997875243425369 0.6246548891067505 -0.42824092507362366 0.0 0.0 0.0 0.0
2.106 0.028482628986239433 0.10163799673318863 0.6198751926422119 -0.44511130452156067 0.0 0.0 0.0 0.0
2.107 0.031349655240774155 0.10289046168327332 0.5926059484481812 -0.4703575372695923 0.0 0.0 0.0 0.0
2.108 0.03182496875524521 0.10429301112890244 0.5896354913711548 -0.4807191789150238 0.0 0.0 0.0 0.0
2.109 0.03492432460188866 0.10537338256835938 0.5627989172935486 -0.5101393461227417 0.0 0.0 0.0 0.0
2.11 0.03496507555246353 0.1069105714559555 0.5549980998039246 -0.520626962184906 0.0 0.0 0.0 0.0
2.111 0.03794450685381889 0.10724955797195435 0.5261602401733398 -0.5421279072761536 0.0 0.0 0.0 0.0
2.112 0.03821804001927376 0.10833317041397095 0.511361837387085 -0.5499441027641296 0.0 0.0 0.0 0.0
2.113 0.03966079279780388 0.10829852521419525 0.48548081517219543 -0.5801410675048828 0.0 0.0 0.0 0.0
2.114 0.040895018726587296 0.10876378417015076 0.47280746698379517 -0.5866448879241943 0.0 0.0 0.0 0.0
2.115 0.04263485595583916 0.10774903744459152 0.4496775269508362 -0.6056515574455261 0.0 0.0 0.0 0.0
2.116 0.04187178239226341 0.10823773592710495 0.43426889181137085 -0.6143407821655273 0.0 0.0 0.0 0.0
2.117 0.04509463161230087 0.10839211940765381 0.4025556743144989 -0.635280430316925 0.0 0.0 0.0 0.0
2.118 0.04442831501364708 0.10770060867071152 0.38662344217300415 -0.64214026927948 0.0 0.0 0.0 0.0
2.119 0.045926544815301895 0.1068950966000557 0.36554428935050964 -0.6592716574668884 0.0 0.0 0.0 0.0
2.12 0.04570470005273819 0.10699061304330826 0.3511854112148285 -0.667401909828186 0.0 0.0 0.0 0.0
2.121 0.047612264752388 0.10612694174051285 0.3115925192832947 -0.6827057003974915 0.0 0.0 0.0 0.0
2.122 0.045637454837560654 0.10521268099546432 0.30096474289894104 -0.6864105463027954 0.0 0.0 0.0 0.0
2.123 0.04761907458305359 0.10493707656860352 0.2645677328109741 -0.7024838924407959 0.0 0.0 0.0 0.0
2.124 0.04426570609211922 0.10501708835363388 0.25674059987068176 -0.7092516422271729 0.0 0.0 0.0 0.0
2.125 0.04362263157963753 0.10584186017513275 0.23112520575523376 -0.7154523134231567 0.0 0.0 0.0 0.0
2.126 0.04457603022456169 0.10269162803888321 0.20032259821891785 -0.7193908095359802 0.0 0.0 0.0 0.0
2.127 0.04421701282262802 0.10164741426706314 0.16928784549236298 -0.7302696704864502 0.0 0.0 0.0 0.0
2.128 0.04295790195465088 0.10221734642982483 0.15591003000736237 -0.7281200885772705 0.0 0.0 0.0 0.0
2.129 0.04229310527443886 0.10226592421531677 0.11917207390069962 -0.7382693886756897 0.0 0.0 0.0 0.0
2.13 0.0403100959956646 0.10139298439025879 0.09778725355863571 -0.7405880689620972 0.0 0.0 0.0 0.0
2.131 0.038516733795404434 0.09962224215269089 0.07048492878675461 -0.7428682446479797 0.0 0.0 0.0 0.0
2.132 0.03770679980516434 0.10116139054298401 0.04715956002473831 -0.7410151958465576 0.0 0.0 0.0 0.0
2.133 0.034036122262477875 0.10031535476446152 0.024789661169052124 -0.7459107041358948 0.0 0.0 0.0 0.0
2.134 0.03319043666124344 0.10124143213033676 -0.009014468640089035 -0.7480964064598083 0.0 0.0 0.0 0.0
2.135 0.030436359345912933 0.10157069563865662 -0.03140832856297493 -0.7452904582023621 0.0 0.0 0.0 0.0
2.136 0.030255654826760292 0.10269676893949509 -0.06251409649848938 -0.7392516136169434 0.0 0.0 0.0 0.0
2.137 0.025858771055936813 0.10317074507474899 -0.07901950925588608 -0.7401738166809082 0.0 0.0 0.0 0.0
2.138 0.02630227990448475 0.10382358729839325 -0.1128867119550705 -0.7295274138450623 0.0 0.0 0.0 0.0
2.139 0.02202182449400425 0.10505203902721405 -0.1308998316526413 -0.7269327044487 0.0 0.0 0.0 0.0
2.14 0.020664362236857414 0.10552516579627991 -0.15823674201965332 -0.7182340621948242 0.0 0.0 0.0 0.0
2.141 0.016832120716571808 0.10765378177165985 -0.178355872631073 -0.7195069789886475 0.0 0.0 0.0 0.0
2.142 0.016076793894171715 0.10911951959133148 -0.20908628404140472 -0.7100300788879395 0.0 0.0 0.0 0.0
2.143 0.011191792786121368 0.11157460510730743 -0.2273336946964264 -0.7006120085716248 0.0 0.0 0.0 0.0
2.144 0.012631739489734173 0.11344308406114578 -0.25912612676620483 -0.6881358027458191 0.0 0.0 0.0 0.0
2.145 0.00768645666539669 0.11582573503255844 -0.27103906869888306 -0.6824563145637512 0.0 0.0 0.0 0.0
2.146 0.005780504085123539 0.11920992285013199 -0.3067559599876404 -0.6668965220451355 0.0 0.0 0.0 0.0
2.147 0.0018976368010044098 0.12176164984703064 -0.3096121847629547 -0.6620192527770996 0.0 0.0 0.0 0.0
2.148 0.0009792139753699303 0.12490396201610565 -0.3479122817516327 -0.6400236487388611 0.0 0.0 0.0 0.0
2.149 -0.0015779100358486176 0.12681132555007935 -0.3569861948490143 -0.637590765953064 0.0 0.0 0.0 0.0
2.15 -0.0026357676833868027 0.13192032277584076 -0.3857554495334625 -0.6192626357078552 0.0 0.0 0.0 0.0
2.151 -0.00617017038166523 0.13373476266860962 -0.3946615755558014 -0.612218976020813 0.0 0.0 0.0 0.0
2.152 -0.004435991868376732 0.1383708268404007 -0.4404541254043579 -0.5834104418754578 0.0 0.0 0.0 0.0
2.153 -0.009236547164618969 0.1426578164100647 -0.4312780499458313 -0.5813927054405212 0.0 0.0 0.0 0.0
2.154 -0.008510546758770943 0.14666500687599182 -0.4682846665382385 -0.557888388633728 0.0 0.0 0.0 0.0
2.155 -0.009255238808691502 0.15194740891456604 -0.47796210646629333 -0.5449098348617554 0.0 0.0 0.0 0.0
2.156 -0.011012946255505085 0.15516528487205505 -0.500726044178009 -0.5252712965011597 0.0 0.0 0.0 0.0
2.157 -0.011891520582139492 0.16038154065608978 -0.5099323987960815 -0.5116978883743286 0.0 0.0 0.0 0.0
2.158 -0.011732058599591255 0.16448983550071716 -0.5365306735038757 -0.48667818307876587 0.0 0.0 0.0 0.0
2.159 -0.012339998036623001 0.16942252218723297 -0.5391160845756531 -0.4767058193683624 0.0 0.0 0.0 0.0
2.16 -0.010528299026191235 0.17540612816810608 -0.5643109083175659 -0.45016929507255554 0.0 0.0 0.0 0.0
2.161 -0.01060157734900713 0.1795431673526764 -0.5694595575332642 -0.4337572455406189 0.0 0.0 0.0 0.0
2.162 -0.00993830431252718 0.18532270193099976 -0.5894654989242554 -0.41274797916412354 0.0 0.0 0.0 0.0
2.163 -0.008172636851668358 0.19047130644321442 -0.5985926389694214 -0.3908684253692627 0.0 0.0 0.0 0.0
2.164 -0.00684037059545517 0.19353312253952026 -0.6130896806716919 -0.36923089623451233 0.0 0.0 0.0 0.0
2.165 -0.0057503171265125275 0.200392484664917 -0.62326979637146 -0.35136479139328003 0.0 0.0 0.0 0.0
2.166 -0.004696205258369446 0.2041483372449875 -0.6328659653663635 -0.3267095386981964 0.0 0.0 0.0 0.0
2.167 -0.002211790531873703 0.2101428508758545 -0.6425225734710693 -0.3044528663158417 0.0 0.0 0.0 0.0
2.168 -0.0007735965773463249 0.21505817770957947 -0.6530724167823792 -0.28844645619392395 0.0 0.0 0.0 0.0
2.169 0.003652031533420086 0.21925164759159088 -0.6569623351097107 -0.2597551643848419 0.0 0.0 0.0 0.0
2.17 0.00589522160589695 0.22365762293338776 -0.6658170819282532 -0.23923078179359436 0.0 0.0 0.0 0.0
2.171 0.006957353092730045 0.2304028868675232 -0.6708412170410156 -0.22692084312438965 0.0 0.0 0.0 0.0
2.172 0.009031271561980247 0.23260770738124847 -0.6725881099700928 -0.20393231511116028 0.0 0.0 0.0 0.0
2.173 0.01836688630282879 0.2368071973323822 -0.6822602152824402 -0.16840627789497375 0.0 0.0 0.0 0.0
2.174 0.019986627623438835 0.24085427820682526 -0.6849777698516846 -0.15423665940761566 0.0 0.0 0.0 0.0
2.175 0.026528609916567802 0.2444700002670288 -0.6940445303916931 -0.11749894917011261 0.0 0.0 0.0 0.0
2.176 0.027713734656572342 0.24784024059772491 -0.6924195885658264 -0.11730456352233887 0.0 0.0 0.0 0.0
2.177 0.03478725254535675 0.25245949625968933 -0.6975437998771667 -0.07787691801786423 0.0 0.0 0.0 0.0
2.178 0.03775576874613762 0.2535399794578552 -0.694608211517334 -0.06450776010751724 0.0 0.0 0.0 0.0
2.179 0.04377333074808121 0.2578737437725067 -0.6992412209510803 -0.028542842715978622 0.0 0.0 0.0 0.0
2.18 0.04747508466243744 0.2599496841430664 -0.6955123543739319 -0.02037637121975422 0.0 0.0 0.0 0.0
2.181 0.05541962385177612 0.26354512572288513 -0.6993475556373596 0.015115086920559406 0.0 0.0 0.0 0.0
2.182 0.05956780165433884 0.26421353220939636 -0.6925337314605713 0.03122871369123459 0.0 0.0 0.0 0.0
2.183 0.06558102369308472 0.26684898138046265 -0.694126307964325 0.059383928775787354 0.0 0.0 0.0 0.0
2.184 0.07245737314224243 0.2682853043079376 -0.6890304684638977 0.07517140358686447 0.0 0.0 0.0 0.0
2.185 0.07828310132026672 0.26959240436553955 -0.6881862878799438 0.100222647190094 0.0 0.0 0.0 0.0
2.186 0.08390294760465622 0.2700366675853729 -0.679840087890625 0.12054907530546188 0.0 0.0 0.0 0.0
2.187 0.08692768216133118 0.27223315834999084 -0.6788744926452637 0.14345505833625793 0.0 0.0 0.0 0.0
2.188 0.09525584429502487 0.2706810235977173 -0.6708123683929443 0.16332858800888062 0.0 0.0 0.0 0.0
2.189 0.10042016208171844 0.2714153230190277 -0.6655858755111694 0.191219761967659 0.0 0.0 0.0 0.0
2.19 0.1087583377957344 0.2699875831604004 -0.6560683250427246 0.21060922741889954 0.0 0.0 0.0 0.0
2.191 0.11416830867528915 0.27015379071235657 -0.6495048403739929 0.2340651899576187 0.0 0.0 0.0 0.0
2.192 0.11915448307991028 0.26822367310523987 -0.6361533403396606 0.25616616010665894 0.0 0.0 0.0 0.0
2.193 0.12086617946624756 0.26888811588287354 -0.6350734233856201 0.26441699266433716 0.0 0.0 0.0 0.0
2.194 0.1319676786661148 0.26515763998031616 -0.6181585192680359 0.2941834628582001 0.0 0.0 0.0 0.0
2.195 0.1334843635559082 0.26650556921958923 -0.6148332953453064 0.3074205219745636 0.0 0.0 0.0 0.0
2.196 0.1440856158733368 0.2612540125846863 -0.5990731120109558 0.33653494715690613 0.0 0.0 0.0 0.0
2.197 0.1453840583562851 0.2609653174877167 -0.5934774279594421 0.34785351157188416 0.0 0.0 0.0 0.0
2.198 0.15272857248783112 0.25648385286331177 -0.578607976436615 0.3658665418624878 0.0 0.0 0.0 0.0
2.199 0.15419121086597443 0.25534990429878235 -0.5660949945449829 0.38457831740379333 0.0 0.0 0.0 0.0
2.2 0.16340388357639313 0.2515000104904175 -0.5475795269012451 0.409589946269989 0.0 0.0 0.0 0.0
2.201 0.16256025433540344 0.2512172758579254 -0.5486230850219727 0.41523197293281555 0.0 0.0 0.0 0.0
2.202 0.17007239162921906 0.245137020945549 -0.5248721837997437 0.4389241933822632 0.0 0.0 0.0 0.0
2.203 0.172538161277771 0.243149995803833 -0.5117933750152588 0.45595794916152954 0.0 0.0 0.0 0.0
2.204 0.17964507639408112 0.2356204092502594 -0.4891250431537628 0.476832777261734 0.0 0.0 0.0 0.0
2.205 0.1809052973985672 0.23458188772201538 -0.48387640714645386 0.4841051697731018 0.0 0.0 0.0 0.0
2.206 0.18582363426685333 0.22800177335739136 -0.4613894522190094 0.5021211504936218 0.0 0.0 0.0 0.0
2.207 0.18667186796665192 0.2251301407814026 -0.4508616030216217 0.5154227018356323 0.0 0.0 0.0 0.0
2.208 0.19284306466579437 0.2177373617887497 -0.4284975826740265 0.5335814952850342 0.0 0.0 0.0 0.0
2.209 0.1929548680782318 0.21642114222049713 -0.4169684946537018 0.5418785214424133 0.0 0.0 0.0 0.0
2.21 0.1982719898223877 0.20927748084068298 -0.3885660767555237 0.5620377659797668 0.0 0.0 0.0 0.0
2.211 0.19765719771385193 0.20597201585769653 -0.38242459297180176 0.5654415488243103 0.0 0.0 0.0 0.0
2.212 0.20236164331436157 0.1996774524450302 -0.3501974940299988 0.5873547196388245 0.0 0.0 0.0 0.0
2.213 0.20170378684997559 0.19624701142311096 -0.34433215856552124 0.5917778015136719 0.0 0.0 0.0 0.0
2.214 0.20393842458724976 0.18961268663406372 -0.31217366456985474 0.6096664667129517 0.0 0.0 0.0 0.0
2.215 0.20235684514045715 0.18633835017681122 -0.30474522709846497 0.6121813058853149 0.0 0.0 0.0 0.0
2.216 0.20469006896018982 0.17934267222881317 -0.2696642279624939 0.6272135972976685 0.0 0.0 0.0 0.0
2.217 0.20479004085063934 0.17612166702747345 -0.26467445492744446 0.6305646300315857 0.0 0.0 0.0 0.0
2.218 0.2048150599002838 0.17081722617149353 -0.23431122303009033 0.6436470746994019 0.0 0.0 0.0 0.0
2.219 0.2046343982219696 0.16458100080490112 -0.21862909197807312 0.6482973098754883 0.0 0.0 0.0 0.0
2.22 0.20474717020988464 0.16174842417240143 -0.18686561286449432 0.6590877771377563 0.0 0.0 0.0 0.0
2.221 0.2044227421283722 0.1552352011203766 -0.17230816185474396 0.6612610816955566 0.0 0.0 0.0 0.0
2.222 0.20401674509048462 0.15099650621414185 -0.14523866772651672 0.6714979410171509 0.0 0.0 0.0 0.0
2.223 0.20255549252033234 0.14535963535308838 -0.12514673173427582 0.6713468432426453 0.0 0.0 0.0 0.0
2.224 0.20207835733890533 0.1422651708126068 -0.1040702685713768 0.6808779239654541 0.0 0.0 0.0 0.0
2.225 0.20022092759609222 0.1371251344680786 -0.07835786789655685 0.6791406273841858 0.0 0.0 0.0 0.0
2.226 0.19556908309459686 0.13629250228405 -0.06918475031852722 0.6829248070716858 0.0 0.0 0.0 0.0
2.227 0.1956910938024521 0.1283334642648697 -0.0295211523771286 0.6836192011833191 0.0 0.0 0.0 0.0
2.228 0.1914372444152832 0.12879936397075653 -0.022706523537635803 0.6861667037010193 0.0 0.0 0.0 0.0
2.229 0.19101615250110626 0.12170565128326416 0.012511033564805984 0.6843631267547607 0.0 0.0 0.0 0.0
2.23 0.18765589594841003 0.119688481092453 0.031735070049762726 0.6861291527748108 0.0 0.0 0.0 0.0
2.231 0.1856991946697235 0.11437524110078812 0.07143673300743103 0.6807957291603088 0.0 0.0 0.0 0.0
2.232 0.1815166026353836 0.11507585644721985 0.06669893860816956 0.6804438829421997 0.0 0.0 0.0 0.0
2.233 0.1803586184978485 0.10941815376281738 0.10845622420310974 0.6779089570045471 0.0 0.0 0.0 0.0
2.234 0.17544318735599518 0.11023680865764618 0.11643323302268982 0.6755535006523132 0.0 0.0 0.0 0.0
2.235 0.17373402416706085 0.10550009459257126 0.15584757924079895 0.6695749163627625 0.0 0.0 0.0 0.0
2.236 0.1705826222896576 0.10626058280467987 0.16708871722221375 0.6670554876327515 0.0 0.0 0.0 0.0
2.237 0.16745316982269287 0.10237814486026764 0.20094700157642365 0.657804012298584 0.0 0.0 0.0 0.0
2.238 0.16263045370578766 0.10358793288469315 0.20709551870822906 0.653995156288147 0.0 0.0 0.0 0.0
2.239 0.16133825480937958 0.10037324577569962 0.24477934837341309 0.6401338577270508 0.0 0.0 0.0 0.0
2.24 0.15690495073795319 0.10121152549982071 0.2446662187576294 0.6386578679084778 0.0 0.0 0.0 0.0
2.241 0.15586158633232117 0.09938932955265045 0.28419411182403564 0.6253261566162109 0.0 0.0 0.0 0.0
2.242 0.15130634605884552 0.09864237159490585 0.2935533821582794 0.6170557737350464 0.0 0.0 0.0 0.0
2.243 0.14973706007003784 0.09673513472080231 0.33092179894447327 0.6023539900779724 0.0 0.0 0.0 0.0
2.244 0.1451053023338318 0.09949197620153427 0.3345593214035034 0.5988009572029114 0.0 0.0 0.0 0.0
2.245 0.14506833255290985 0.0982423648238182 0.36667728424072266 0.5796601176261902 0.0 0.0 0.0 0.0
2.246 0.14084240794181824 0.09940414875745773 0.3745279014110565 0.5714589357376099 0.0 0.0 0.0 0.0
2.247 0.1391136348247528 0.09745355695486069 0.40679627656936646 0.5519101023674011 0.0 0.0 0.0 0.0
2.248 0.13501133024692535 0.0996948778629303 0.41313424706459045 0.5441541075706482 0.0 0.0 0.0 0.0
2.249 0.13559271395206451 0.10067784786224365 0.4399884045124054 0.5259511470794678 0.0 0.0 0.0 0.0
2.25 0.13196241855621338 0.1005394235253334 0.45034149289131165 0.513283371925354 0.0 0.0 0.0 0.0
2.251 0.13162380456924438 0.10121383517980576 0.47460949420928955 0.4941437542438507 0.0 0.0 0.0 0.0
2.252 0.1284300833940506 0.1030673012137413 0.4772358536720276 0.4834747910499573 0.0 0.0 0.0 0.0
2.253 0.12677152454853058 0.10364176332950592 0.5046445727348328 0.457413911819458 0.0 0.0 0.0 0.0
2.254 0.1250194013118744 0.10362204164266586 0.5130117535591125 0.444294273853302 0.0 0.0 0.0 0.0
2.255 0.12407199293375015 0.10698787868022919 0.5315147638320923 0.4257107675075531 0.0 0.0 0.0 0.0
2.256 0.12355458736419678 0.10721587389707565 0.5354833602905273 0.4181937873363495 0.0 0.0 0.0 0.0
2.257 0.12386702001094818 0.10592694580554962 0.5637642741203308 0.38393092155456543 0.0 0.0 0.0 0.0
2.258 0.12263400852680206 0.10875111073255539 0.5651792287826538 0.37232211232185364 0.0 0.0 0.0 0.0
2.259 0.12160523235797882 0.10901853442192078 0.5879049897193909 0.3460372984409332 0.0 0.0 0.0 0.0
2.26 0.12152070552110672 0.1100378930568695 0.5891860127449036 0.33103814721107483 0.0 0.0 0.0 0.0
2.261 0.12075015157461166 0.11144085973501205 0.602583110332489 0.30485817790031433 0.0 0.0 0.0 0.0
2.262 0.12021267414093018 0.11125604063272476 0.610081136226654 0.29027318954467773 0.0 0.0 0.0 0.0
2.263 0.11998190730810165 0.1131000891327858 0.6164247393608093 0.27890750765800476 0.0 0.0 0.0 0.0
2.264 0.12182807177305222 0.11280301213264465 0.6283215880393982 0.24522124230861664 0.0 0.0 0.0 0.0
2.265 0.12009906768798828 0.11405227333307266 0.6371839642524719 0.22922354936599731 0.0 0.0 0.0 0.0
2.266 0.12211006879806519 0.11308220773935318 0.6424494981765747 0.19583667814731598 0.0 0.0 0.0 0.0
2.267 0.12170570343732834 0.11448187381029129 0.6478173732757568 0.18662551045417786 0.0 0.0 0.0 0.0
2.268 0.12379343062639236 0.11280659586191177 0.6552567481994629 0.15702998638153076 0.0 0.0 0.0 0.0
2.269 0.12098751217126846 0.1144748404622078 0.6549593210220337 0.15187321603298187 0.0 0.0 0.0 0.0
2.27 0.12510176002979279 0.11116064339876175 0.6644619703292847 0.10481582581996918 0.0 0.0 0.0 0.0
2.271 0.1237177848815918 0.11173713952302933 0.6628215312957764 0.09915231913328171 0.0 0.0 0.0 0.0
2.272 0.12489708513021469 0.11225616186857224 0.6668878793716431 0.0632205381989479 0.0 0.0 0.0 0.0
2.273 0.12394576519727707 0.11148017644882202 0.6668714284896851 0.055282771587371826 0.0 0.0 0.0 0.0
2.274 0.12514156103134155 0.10922553390264511 0.6699026823043823 0.017644381150603294 0.0 0.0 0.0 0.0
2.275 0.12571772933006287 0.1082189530134201 0.6665500402450562 0.004516050219535828 0.0 0.0 0.0 0.0
2.276 0.12530963122844696 0.10749658942222595 0.6682625412940979 -0.023615403100848198 0.0 0.0 0.0 0.0
2.277 0.126777783036232 0.1054006814956665 0.6643183827400208 -0.037198614329099655 0.0 0.0 0.0 0.0
2.278 0.12544916570186615 0.10470865666866302 0.6643336415290833 -0.06842127442359924 0.0 0.0 0.0 0.0
2.279 0.12596791982650757 0.1029796227812767 0.6569466590881348 -0.07823259383440018 0.0 0.0 0.0 0.0
2.28 0.12717333436012268 0.10056818276643753 0.6574966907501221 -0.10629839450120926 0.0 0.0 0.0 0.0
2.281 0.12528081238269806 0.09918622672557831 0.6482331156730652 -0.12178444117307663 0.0 0.0 0.0 0.0
2.282 0.1255398392677307 0.09656348824501038 0.6444417834281921 -0.15490759909152985 0.0 0.0 0.0 0.0
2.283 0.1252106875181198 0.09446138888597488 0.6377781629562378 -0.16942188143730164 0.0 0.0 0.0 0.0
2.284 0.12362281233072281 0.09162403643131256 0.6337546110153198 -0.19710677862167358 0.0 0.0 0.0 0.0
2.285 0.12314613908529282 0.09074058383703232 0.6273401975631714 -0.2085525244474411 0.0 0.0 0.0 0.0
2.286 0.12090001255273819 0.08824552595615387 0.619942307472229 -0.23568299412727356 0.0 0.0 0.0 0.0
2.287 0.12067403644323349 0.08304546773433685 0.6060704588890076 -0.25442391633987427 0.0 0.0 0.0 0.0
2.288 0.11907931417226791 0.08217640221118927 0.6009823679924011 -0.27697959542274475 0.0 0.0 0.0 0.0
2.289 0.1172964945435524 0.07939325273036957 0.5859330892562866 -0.2939261198043823 0.0 0.0 0.0 0.0
2.29 0.11395018547773361 0.07762470841407776 0.5809517502784729 -0.31239137053489685 0.0 0.0 0.0 0.0
2.291 0.11218124628067017 0.07343548536300659 0.5665022730827332 -0.3329630494117737 0.0 0.0 0.0 0.0
2.292 0.109514020383358 0.07221943140029907 0.561771035194397 -0.3404652178287506 0.0 0.0 0.0 0.0
2.293 0.10744298994541168 0.06833998113870621 0.5403795838356018 -0.37401846051216125 0.0 0.0 0.0 0.0
2.294 0.10361922532320023 0.06669438630342484 0.5340208411216736 -0.38612842559814453 0.0 0.0 0.0 0.0
2.295 0.10157420486211777 0.06377539783716202 0.5178384780883789 -0.4049818217754364 0.0 0.0 0.0 0.0
2.296 0.09696800261735916 0.06308373808860779 0.5038965344429016 -0.4218021035194397 0.0 0.0 0.0 0.0
2.297 0.0943453311920166 0.059213194996118546 0.4775833487510681 -0.4427572190761566 0.0 0.0 0.0 0.0
2.298 0.08900102972984314 0.05807281285524368 0.4774176776409149 -0.4461706578731537 0.0 0.0 0.0 0.0
2.299 0.08525175601243973 0.05621302127838135 0.45458337664604187 -0.47014716267585754 0.0 0.0 0.0 0.0
2.3 0.08033137023448944 0.05581517890095711 0.442909836769104 -0.47578418254852295 0.0 0.0 0.0 0.0
2.301 0.07698643207550049 0.0539049357175827 0.41844356060028076 -0.49800390005111694 0.0 0.0 0.0 0.0
2.302 0.07057363539934158 0.053467053920030594 0.4129018485546112 -0.5030701160430908 0.0 0.0 0.0 0.0
2.303 0.06700614839792252 0.05151010677218437 0.3833354413509369 -0.5254957675933838 0.0 0.0 0.0 0.0
2.304 0.06132427975535393 0.05222751200199127 0.37482646107673645 -0.5280400514602661 0.0 0.0 0.0 0.0
2.305 0.05567358806729317 0.051253821700811386 0.347086101770401 -0.5469445586204529 0.0 0.0 0.0 0.0
2.306 0.05014551803469658 0.05207346752285957 0.33990734815597534 -0.5519872307777405 0.0 0.0 0.0 0.0
2.307 0.04608176648616791 0.05156334117054939 0.30965355038642883 -0.5725655555725098 0.0 0.0 0.0 0.0
2.308 0.03870949149131775 0.05323519557714462 0.2967609167098999 -0.5698137283325195 0.0 0.0 0.0 0.0
2.309 0.03332935646176338 0.05450228601694107 0.28665152192115784 -0.5799285769462585 0.0 0.0 0.0 0.0
2.31 0.027162188664078712 0.05596828833222389 0.2562202215194702 -0.5895548462867737 0.0 0.0 0.0 0.0
2.311 0.022278716787695885 0.056914374232292175 0.2305428385734558 -0.6012722253799438 0.0 0.0 0.0 0.0
2.312 0.015089403837919235 0.05949072167277336 0.21845167875289917 -0.6038522720336914 0.0 0.0 0.0 0.0
2.313 0.011085715144872665 0.06137624755501747 0.19059358537197113 -0.612457275390625 0.0 0.0 0.0 0.0
2.314 0.005684047006070614 0.06505746394395828 0.1728191077709198 -0.6126950979232788 0.0 0.0 0.0 0.0
2.315 -0.0012241248041391373 0.06845209747552872 0.14804603159427643 -0.6242004632949829 0.0 0.0 0.0 0.0
2.316 -0.005027240142226219 0.07108820229768753 0.1328098326921463 -0.6268131732940674 0.0 0.0 0.0 0.0
2.317 -0.012198757380247116 0.0755460113286972 0.10686255246400833 -0.630326509475708 0.0 0.0 0.0 0.0
2.318 -0.015116729773581028 0.07980061322450638 0.08887013047933578 -0.6263007521629333 0.0 0.0 0.0 0.0
2.319 -0.02207331359386444 0.08396187424659729 0.06302529573440552 -0.6343147158622742 0.0 0.0 0.0 0.0
2.32 -0.024847520515322685 0.0889328345656395 0.03741147369146347 -0.6310448050498962 0.0 0.0 0.0 0.0
2.321 -0.03083542361855507 0.09457899630069733 0.021127311512827873 -0.6341446042060852 0.0 0.0 0.0 0.0
2.322 -0.0349726527929306 0.09969664365053177 0.0008925143629312515 -0.6309937238693237 0.0 0.0 0.0 0.0
2.323 -0.03822854161262512 0.10486350953578949 -0.022495169192552567 -0.628182590007782 0.0 0.0 0.0 0.0
2.324 -0.04184041544795036 0.1122940331697464 -0.04650869220495224 -0.6244929432868958 0.0 0.0 0.0 0.0
2.325 -0.04694044589996338 0.11685112863779068 -0.054772552102804184 -0.6254470944404602 0.0 0.0 0.0 0.0
2.326 -0.04799473285675049 0.12431485205888748 -0.08112947642803192 -0.6173873543739319 0.0 0.0 0.0 0.0
2.327 -0.05137456953525543 0.13027507066726685 -0.10066849738359451 -0.6132386922836304 0.0 0.0 0.0 0.0
2.328 -0.052538398653268814 0.13742975890636444 -0.12743353843688965 -0.6110226511955261 0.0 0.0 0.0 0.0
2.329 -0.05747119337320328 0.14360499382019043 -0.13525910675525665 -0.6089909672737122 0.0 0.0 0.0 0.0
2.33 -0.05845792219042778 0.15058600902557373 -0.15990367531776428 -0.6006105542182922 0.0 0.0 0.0 0.0
2.331 -0.05942095071077347 0.1583751142024994 -0.17369569838047028 -0.5905761122703552 0.0 0.0 0.0 0.0
2.332 -0.059555552899837494 0.16541790962219238 -0.20591792464256287 -0.5837942957878113 0.0 0.0 0.0 0.0
2.333 -0.06141957268118858 0.1726730316877365 -0.21071472764015198 -0.5785348415374756 0.0 0.0 0.0 0.0
2.334 -0.059934914112091064 0.18021628260612488 -0.24032200872898102 -0.5649169683456421 0.0 0.0 0.0 0.0
2.335 -0.06147365644574165 0.18723346292972565 -0.2449273020029068 -0.5599767565727234 0.0 0.0 0.0 0.0
2.336 -0.057760585099458694 0.19631852209568024 -0.27678191661834717 -0.5466695427894592 0.0 0.0 0.0 0.0
2.337 -0.06086334213614464 0.20191705226898193 -0.28082892298698425 -0.5425828695297241 0.0 0.0 0.0 0.0
2.338 -0.05740748718380928 0.21070142090320587 -0.30978715419769287 -0.5251762270927429 0.0 0.0 0.0 0.0
2.339 -0.05793130770325661 0.21593910455703735 -0.3112112283706665 -0.5194630026817322 0.0 0.0 0.0 0.0
2.34 -0.052688468247652054 0.22562938928604126 -0.340178519487381 -0.506019115447998 0.0 0.0 0.0 0.0
2.341 -0.05321282148361206 0.23104959726333618 -0.3406967520713806 -0.49948880076408386 0.0 0.0 0.0 0.0
2.342 -0.047907501459121704 0.23905278742313385 -0.37165430188179016 -0.47754421830177307 0.0 0.0 0.0 0.0
2.343 -0.04743064194917679 0.24470791220664978 -0.3724251985549927 -0.4711270332336426 0.0 0.0 0.0 0.0
2.344 -0.03953296318650246 0.25140076875686646 -0.3962046205997467 -0.4534740447998047 0.0 0.0 0.0 0.0
2.345 -0.040282487869262695 0.257236123085022 -0.39885908365249634 -0.44554105401039124 0.0 0.0 0.0 0.0
2.346 -0.034058552235364914 0.2640259265899658 -0.4242743253707886 -0.4239824116230011 0.0 0.0 0.0 0.0
2.347 -0.030058514326810837 0.269575834274292 -0.4244927763938904 -0.4172445833683014 0.0 0.0 0.0 0.0
2.348 -0.02452000230550766 0.27518191933631897 -0.44721898436546326 -0.39611488580703735 0.0 0.0 0.0 0.0
2.349 -0.02133387140929699 0.27949991822242737 -0.4502545893192291 -0.38864219188690186 0.0 0.0 0.0 0.0
2.35 -0.01695866324007511 0.28691402077674866 -0.4671249985694885 -0.370439350605011 0.0 0.0 0.0 0.0
2.351 -0.010215852409601212 0.2900417447090149 -0.47231194376945496 -0.358089804649353 0.0 0.0 0.0 0.0
2.352 -0.00507962703704834 0.29445838928222656 -0.4818195402622223 -0.34355491399765015 0.0 0.0 0.0 0.0
2.353 0.002454652450978756 0.29937294125556946 -0.49310919642448425 -0.32512471079826355 0.0 0.0 0.0 0.0
2.354 0.006662054918706417 0.3036457896232605 -0.5059973001480103 -0.3086462914943695 0.0 0.0 0.0 0.0
2.355 0.010673741810023785 0.30692803859710693 -0.5057846903800964 -0.30175286531448364 0.0 0.0 0.0 0.0
2.356 0.018574101850390434 0.3098181486129761 -0.5212908387184143 -0.27804726362228394 0.0 0.0 0.0 0.0
2.357 0.029365478083491325 0.3122106194496155 -0.5305121541023254 -0.25257858633995056 0.0 0.0 0.0 0.0
2.358 0.028925947844982147 0.31635186076164246 -0.5328398942947388 -0.25104087591171265 0.0 0.0 0.0 0.0
2.359 0.041270893067121506 0.31742027401924133 -0.5408790707588196 -0.2235313206911087 0.0 0.0 0.0 0.0
2.36 0.04122817516326904 0.3190611004829407 -0.5428776144981384 -0.21517382562160492 0.0 0.0 0.0 0.0
2.361 0.055677611380815506 0.3209856152534485 -0.5549483895301819 -0.18373073637485504 0.0 0.0 0.0 0.0
2.362 0.05726552754640579 0.32227611541748047 -0.5564800500869751 -0.18234311044216156 0.0 0.0 0.0 0.0
2.363 0.07030858844518661 0.32198071479797363 -0.5639907121658325 -0.151997372508049 0.0 0.0 0.0 0.0
2.364 0.07398836314678192 0.3209474980831146 -0.5668458342552185 -0.14458362758159637 0.0 0.0 0.0 0.0
2.365 0.08412515372037888 0.3220929503440857 -0.57323157787323 -0.11663201451301575 0.0 0.0 0.0 0.0
2.366 0.08537597209215164 0.32296356558799744 -0.5722053647041321 -0.1123870313167572 0.0 0.0 0.0 0.0
2.367 0.09718780219554901 0.3227294683456421 -0.5785160660743713 -0.0790518969297409 0.0 0.0 0.0 0.0
2.368 0.09894278645515442 0.32201582193374634 -0.5778468251228333 -0.07279650121927261 0.0 0.0 0.0 0.0
2.369 0.1095043271780014 0.3202853202819824 -0.5818595290184021 -0.045676328241825104 0.0 0.0 0.0 0.0
2.37 0.114005446434021 0.31881803274154663 -0.5810343027114868 -0.0384819470345974 0.0 0.0 0.0 0.0
2.371 0.12206830829381943 0.315548300743103 -0.5842924118041992 -0.008307864889502525 0.0 0.0 0.0 0.0
2.372 0.12377612292766571 0.31413981318473816 -0.5822300910949707 -0.004303463734686375 0.0 0.0 0.0 0.0
2.373 0.13243530690670013 0.3122275173664093 -0.5843642950057983 0.02365637756884098 0.0 0.0 0.0 0.0
2.374 0.13642944395542145 0.30813080072402954 -0.5805241465568542 0.03315415978431702 0.0 0.0 0.0 0.0
2.375 0.14401207864284515 0.3052058219909668 -0.5815984606742859 0.06098296120762825 0.0 0.0 0.0 0.0
2.376 0.14968185126781464 0.30061063170433044 -0.5781989097595215 0.06688151508569717 0.0 0.0 0.0 0.0
2.377 0.15153349936008453 0.2987760901451111 -0.5780431628227234 0.09190274029970169 0.0 0.0 0.0 0.0
2.378 0.16035285592079163 0.29366812109947205 -0.5746932625770569 0.1062716469168663 0.0 0.0 0.0 0.0
2.379 0.16404369473457336 0.29028967022895813 -0.5705971717834473 0.13045638799667358 0.0 0.0 0.0 0.0
2.38 0.16908681392669678 0.28506559133529663 -0.5678240656852722 0.14154404401779175 0.0 0.0 0.0 0.0
2.381 0.16899092495441437 0.2838510572910309 -0.5656657218933105 0.1590084582567215 0.0 0.0 0.0 0.0
2.382 0.1778075248003006 0.2742408215999603 -0.5563557744026184 0.17900782823562622 0.0 0.0 0.0 0.0
2.383 0.1775626838207245 0.27340590953826904 -0.5539467334747314 0.1965910941362381 0.0 0.0 0.0 0.0
2.384 0.18287132680416107 0.2666018009185791 -0.5474457740783691 0.2129773199558258 0.0 0.0 0.0 0.0
2.385 0.18394878506660461 0.2622842788696289 -0.5409587025642395 0.2328958660364151 0.0 0.0 0.0 0.0
2.386 0.1874496191740036 0.25639015436172485 -0.5333260893821716 0.24659129977226257 0.0 0.0 0.0 0.0
2.387 0.1895035356283188 0.2535354495048523 -0.5293476581573486 0.2667492926120758 0.0 0.0 0.0 0.0
2.388 0.19061490893363953 0.24719204008579254 -0.5197067260742188 0.2800789773464203 0.0 0.0 0.0 0.0
2.389 0.1917809098958969 0.24187830090522766 -0.5107511878013611 0.3000424802303314 0.0 0.0 0.0 0.0
2.39 0.1949552744626999 0.23503941297531128 -0.5020442605018616 0.3143734931945801 0.0 0.0 0.0 0.0
2.391 0.19538669288158417 0.23126862943172455 -0.49235236644744873 0.33167868852615356 0.0 0.0 0.0 0.0
2.392 0.19717149436473846 0.224549800157547 -0.47779515385627747 0.35200050473213196 0.0 0.0 0.0 0.0
2.393 0.1935759037733078 0.22223663330078125 -0.4753652811050415 0.3592238128185272 0.0 0.0 0.0 0.0
2.394 0.19809690117835999 0.21296574175357819 -0.4546683132648468 0.38155514001846313 0.0 0.0 0.0 0.0
2.395 0.19426511228084564 0.21170498430728912 -0.4515531063079834 0.3924383521080017 0.0 0.0 0.0 0.0
2.396 0.1971879005432129 0.20295341312885284 -0.4305223226547241 0.4140162169933319 0.0 0.0 0.0 0.0
2.397 0.1930379718542099 0.2011812925338745 -0.42281749844551086 0.42086172103881836 0.0 0.0 0.0 0.0
2.398 0.19434945285320282 0.1936776340007782 -0.4028409719467163 0.4410344958305359 0.0 0.0 0.0 0.0
2.399 0.18989555537700653 0.1922658383846283 -0.39927759766578674 0.44731849431991577 0.0 0.0 0.0 0.0
2.4 0.19288179278373718 0.18492178618907928 -0.37288975715637207 0.46935799717903137 0.0 0.0 0.0 0.0
2.401 0.18694892525672913 0.18316030502319336 -0.37964603304862976 0.4647074341773987 0.0 0.0 0.0 0.0
2.402 0.1876017153263092 0.17636848986148834 -0.34623488783836365 0.49460139870643616 0.0 0.0 0.0 0.0
2.403 0.18232643604278564 0.17469936609268188 -0.3360106647014618 0.4964013993740082 0.0 0.0 0.0 0.0
2.404 0.18326979875564575 0.16871240735054016 -0.31031548976898193 0.5186737775802612 0.0 0.0 0.0 0.0
2.405 0.177890807390213 0.16729649901390076 -0.30362212657928467 0.5198874473571777 0.0 0.0 0.0 0.0
2.406 0.1776428371667862 0.16409800946712494 -0.2793729901313782 0.5377238392829895 0.0 0.0 0.0 0.0
2.407 0.17272253334522247 0.1625746488571167 -0.27117830514907837 0.5390945076942444 0.0 0.0 0.0 0.0
2.408 0.1703019142150879 0.1584562361240387 -0.24478141963481903 0.5539594292640686 0.0 0.0 0.0 0.0
2.409 0.1680368185043335 0.1551935225725174 -0.22573642432689667 0.5603600144386292 0.0 0.0 0.0 0.0
2.41 0.1637902855873108 0.15694758296012878 -0.21062083542346954 0.5701496601104736 0.0 0.0 0.0 0.0
2.411 0.16031931340694427 0.15252284705638885 -0.1955161690711975 0.573470413684845 0.0 0.0 0.0 0.0
2.412 0.15966804325580597 0.1505841761827469 -0.16534283757209778 0.5832915306091309 0.0 0.0 0.0 0.0
2.413 0.15479975938796997 0.150888592004776 -0.1583428978919983 0.5853369832038879 0.0 0.0 0.0 0.0
2.414 0.1512347012758255 0.15047115087509155 -0.1358715444803238 0.5933032631874084 0.0 0.0 0.0 0.0
2.415 0.14809632301330566 0.14821544289588928 -0.11255396902561188 0.5955088138580322 0.0 0.0 0.0 0.0
2.416 0.1443130373954773 0.1485542207956314 -0.09491677582263947 0.6005818843841553 0.0 0.0 0.0 0.0
2.417 0.1435786485671997 0.1472311019897461 -0.072318896651268 0.6029320359230042 0.0 0.0 0.0 0.0
2.418 0.1386478841304779 0.14890581369400024 -0.05378313362598419 0.6065225601196289 0.0 0.0 0.0 0.0
2.419 0.13766399025917053 0.14759665727615356 -0.03254711627960205 0.6051525473594666 0.0 0.0 0.0 0.0
2.42 0.13333836197853088 0.14966760575771332 -0.015482103452086449 0.6097005009651184 0.0 0.0 0.0 0.0
2.421 0.1328185796737671 0.14873644709587097 0.010732606053352356 0.6070268750190735 0.0 0.0 0.0 0.0
2.422 0.12785664200782776 0.15136271715164185 0.021398399025201797 0.608548641204834 0.0 0.0 0.0 0.0
2.423 0.12916170060634613 0.1493329107761383 0.05244481936097145 0.6054494976997375 0.0 0.0 0.0 0.0
2.424 0.125064417719841 0.15240977704524994 0.060382965952157974 0.6071823835372925 0.0 0.0 0.0 0.0
2.425 0.12513406574726105 0.15230773389339447 0.09016072005033493 0.6008495092391968 0.0 0.0 0.0 0.0
2.426 0.12192612886428833 0.15480782091617584 0.10166268795728683 0.5999985337257385 0.0 0.0 0.0 0.0
2.427 0.12235202640295029 0.15497703850269318 0.1298208236694336 0.5938209891319275 0.0 0.0 0.0 0.0
2.428 0.1194949820637703 0.1565815657377243 0.1435117870569229 0.5887051224708557 0.0 0.0 0.0 0.0
2.429 0.1216653361916542 0.15666699409484863 0.16976137459278107 0.5822678804397583 0.0 0.0 0.0 0.0
2.43 0.1177566647529602 0.15953023731708527 0.18310004472732544 0.5794880390167236 0.0 0.0 0.0 0.0
2.431 0.11942682415246964 0.15889962017536163 0.21109841763973236 0.5687112212181091 0.0 0.0 0.0 0.0
2.432 0.11617138981819153 0.16174456477165222 0.21578554809093475 0.5654723644256592 0.0 0.0 0.0 0.0
2.433 0.1189572811126709 0.1616014540195465 0.24719828367233276 0.5536974668502808 0.0 0.0 0.0 0.0
2.434 0.11699273437261581 0.16387538611888885 0.2525298297405243 0.5503997206687927 0.0 0.0 0.0 0.0
2.435 0.11907029896974564 0.16187725961208344 0.2836097180843353 0.5344994068145752 0.0 0.0 0.0 0.0
2.436 0.11680559813976288 0.16576682031154633 0.2895852327346802 0.5290914177894592 0.0 0.0 0.0 0.0
2.437 0.12139411270618439 0.16387012600898743 0.31950944662094116 0.5140119194984436 0.0 0.0 0.0 0.0
2.438 0.11995771527290344 0.16551610827445984 0.32473984360694885 0.508920431137085 0.0 0.0 0.0 0.0
2.439 0.12191834300756454 0.1664307564496994 0.35184362530708313 0.49138733744621277 0.0 0.0 0.0 0.0
2.44 0.12006170302629471 0.1684810221195221 0.3522757589817047 0.48970407247543335 0.0 0.0 0.0 0.0
2.441 0.12363836914300919 0.16688421368598938 0.3828667402267456 0.4664018750190735 0.0 0.0 0.0 0.0
2.442 0.11992380023002625 0.16827701032161713 0.3796943128108978 0.46763351559638977 0.0 0.0 0.0 0.0
2.443 0.12785448133945465 0.16562771797180176 0.417661190032959 0.4376220405101776 0.0 0.0 0.0 0.0
2.444 0.12560723721981049 0.16607847809791565 0.41422587633132935 0.43759676814079285 0.0 0.0 0.0 0.0
2.445 0.12844067811965942 0.16424618661403656 0.44161978363990784 0.4102456569671631 0.0 0.0 0.0 0.0
2.446 0.12616197764873505 0.16561651229858398 0.43828538060188293 0.4100600779056549 0.0 0.0 0.0 0.0
2.447 0.12795796990394592 0.1651691496372223 0.44517403841018677 0.4065835177898407 0.0 0.0 0.0 0.0
2.448 0.13008750975131989 0.16358724236488342 0.4714548885822296 0.37441033124923706 0.0 0.0 0.0 0.0
2.449 0.13269340991973877 0.16217853128910065 0.48511165380477905 0.3589232861995697 0.0 0.0 0.0 0.0
2.45 0.13403207063674927 0.1585671603679657 0.4917988181114197 0.3440185487270355 0.0 0.0 0.0 0.0
2.451 0.1355070173740387 0.15668004751205444 0.5047869086265564 0.3289353549480438 0.0 0.0 0.0 0.0
2.452 0.13582368195056915 0.15488530695438385 0.5147767066955566 0.30527201294898987 0.0 0.0 0.0 0.0
2.453 0.13547934591770172 0.1550198793411255 0.5226214528083801 0.2957398593425751 0.0 0.0 0.0 0.0
2.454 0.1393887996673584 0.14962182939052582 0.5343555808067322 0.27171310782432556 0.0 0.0 0.0 0.0
2.455 0.13694463670253754 0.14948415756225586 0.5417662858963013 0.2633792459964752 0.0 0.0 0.0 0.0
2.456 0.13811372220516205 0.14530116319656372 0.5517483949661255 0.23887161910533905 0.0 0.0 0.0 0.0
2.457 0.13695503771305084 0.14349235594272614 0.5583428740501404 0.2269308865070343 0.0 0.0 0.0 0.0
2.458 0.13932137191295624 0.13804729282855988 0.5665306448936462 0.1974739134311676 0.0 0.0 0.0 0.0
2.459 0.13698065280914307 0.13730961084365845 0.5699650645256042 0.19164451956748962 0.0 0.0 0.0 0.0
2.46 0.1390141099691391 0.1330842822790146 0.5821688175201416 0.1584252566099167 0.0 0.0 0.0 0.0
2.461 0.13624624907970428 0.12980009615421295 0.5810558199882507 0.15547800064086914 0.0 0.0 0.0 0.0
2.462 0.13768526911735535 0.1260763555765152 0.589057445526123 0.1220904216170311 0.0 0.0 0.0 0.0
2.463 0.13341230154037476 0.12477193027734756 0.5894759297370911 0.11980081349611282 0.0 0.0 0.0 0.0
2.464 0.13492238521575928 0.11841609328985214 0.5966794490814209 0.08882898837327957 0.0 0.0 0.0 0.0
2.465 0.13135452568531036 0.11544550955295563 0.5955612063407898 0.07801508158445358 0.0 0.0 0.0 0.0
2.466 0.13088540732860565 0.11166208982467651 0.6014482378959656 0.0520530566573143 0.0 0.0 0.0 0.0
2.467 0.12762315571308136 0.10796136409044266 0.6012394428253174 0.04153885692358017 0.0 0.0 0.0 0.0
2.468 0.12685078382492065 0.10318288207054138 0.6039152145385742 0.008863774128258228 0.0 0.0 0.0 0.0
2.469 0.12273894995450974 0.10128048807382584 0.6022196412086487 -0.0030267182737588882 0.0 0.0 0.0 0.0
2.47 0.11954066157341003 0.09717410802841187 0.6004605889320374 -0.034716058522462845 0.0 0.0 0.0 0.0
2.471 0.11462297290563583 0.09341049194335938 0.6007140278816223 -0.03974030911922455 0.0 0.0 0.0 0.0
2.472 0.11264942586421967 0.0901731476187706 0.5979878306388855 -0.06831828504800797 0.0 0.0 0.0 0.0
2.473 0.10912925004959106 0.08686495572328568 0.5979564189910889 -0.079538494348526 0.0 0.0 0.0 0.0
2.474 0.10545459389686584 0.08351735770702362 0.5947070717811584 -0.11054565757513046 0.0 0.0 0.0 0.0
2.475 0.09893108159303665 0.07966780662536621 0.5888131856918335 -0.12271875143051147 0.0 0.0 0.0 0.0
2.476 0.09484083205461502 0.07866764068603516 0.5901882648468018 -0.1407875269651413 0.0 0.0 0.0 0.0
2.477 0.08955653756856918 0.07454095780849457 0.5809686779975891 -0.16447457671165466 0.0 0.0 0.0 0.0
2.478 0.08363644033670425 0.07431919127702713 0.5709055662155151 -0.19036458432674408 0.0 0.0 0.0 0.0
2.479 0.07735954970121384 0.07135424017906189 0.5706747174263 -0.19182854890823364 0.0 0.0 0.0 0.0
2.48 0.07318039238452911 0.07075291872024536 0.5589601397514343 -0.22524717450141907 0.0 0.0 0.0 0.0
2.481 0.06609604507684708 0.0688369944691658 0.551668643951416 -0.235995814204216 0.0 0.0 0.0 0.0
2.482 0.06033233180642128 0.06725499033927917 0.5503119826316833 -0.2556415796279907 0.0 0.0 0.0 0.0
2.483 0.05347695201635361 0.06645672023296356 0.5380900502204895 -0.27170151472091675 0.0 0.0 0.0 0.0
2.484 0.04903716221451759 0.06606345623731613 0.52287757396698 -0.29856228828430176 0.0 0.0 0.0 0.0
2.485 0.04073350876569748 0.06731795519590378 0.51507169008255 -0.3062640130519867 0.0 0.0 0.0 0.0
2.486 0.033660124987363815 0.06781766563653946 0.5034681558609009 -0.3315763771533966 0.0 0.0 0.0 0.0
2.487 0.0287306047976017 0.06773010641336441 0.4950171113014221 -0.33867964148521423 0.0 0.0 0.0 0.0
2.488 0.02043062448501587 0.06851611286401749 0.485601544380188 -0.3601006269454956 0.0 0.0 0.0 0.0
2.489 0.013273876160383224 0.07103078067302704 0.4706558883190155 -0.37203046679496765 0.0 0.0 0.0 0.0
2.49 0.0073258280754089355 0.07343100011348724 0.4525066614151001 -0.39284658432006836 0.0 0.0 0.0 0.0
2.491 0.0002649575471878052 0.07579344511032104 0.44180575013160706 -0.4027680456638336 0.0 0.0 0.0 0.0
2.492 -0.006728973239660263 0.07839182764291763 0.42655667662620544 -0.4263053238391876 0.0 0.0 0.0 0.0
2.493 -0.012638367712497711 0.08138048648834229 0.4194351136684418 -0.4300704598426819 0.0 0.0 0.0 0.0
2.494 -0.020018508657813072 0.08477006107568741 0.39986830949783325 -0.4474915564060211 0.0 0.0 0.0 0.0
2.495 -0.024214543402194977 0.08881550282239914 0.3785814046859741 -0.4607134759426117 0.0 0.0 0.0 0.0
2.496 -0.03140188381075859 0.09311221539974213 0.3808278441429138 -0.4601953625679016 0.0 0.0 0.0 0.0
2.497 -0.037752147763967514 0.09745017439126968 0.3484196662902832 -0.48424214124679565 0.0 0.0 0.0 0.0
2.498 -0.043753791600465775 0.10257044434547424 0.33836036920547485 -0.489329993724823 0.0 0.0 0.0 0.0
2.499 -0.04940345138311386 0.1089990958571434 0.3113386631011963 -0.5054069757461548 0.0 0.0 0.0 0.0
2.5 -0.055012721568346024 0.11252254247665405 0.3051706552505493 -0.5090817809104919 0.0 0.0 0.0 0.0
2.501 -0.05783356353640556 0.12111890316009521 0.2732413709163666 -0.5260083079338074 0.0 0.0 0.0 0.0
2.502 -0.06269145011901855 0.12480361759662628 0.2731892764568329 -0.5242940187454224 0.0 0.0 0.0 0.0
2.503 -0.06667137145996094 0.13267208635807037 0.2400149255990982 -0.5391767621040344 0.0 0.0 0.0 0.0
2.504 -0.07372239977121353 0.13763779401779175 0.23878051340579987 -0.5404499173164368 0.0 0.0 0.0 0.0
2.505 -0.07489407062530518 0.14490142464637756 0.21168719232082367 -0.5519450306892395 0.0 0.0 0.0 0.0
2.506 -0.08043316006660461 0.15112657845020294 0.20154933631420135 -0.5536348819732666 0.0 0.0 0.0 0.0
2.507 -0.08225726336240768 0.16090849041938782 0.1685793548822403 -0.5640730261802673 0.0 0.0 0.0 0.0
2.508 -0.08692391961812973 0.163514643907547 0.16255776584148407 -0.5611740946769714 0.0 0.0 0.0 0.0
2.509 -0.08520518988370895 0.17555640637874603 0.13675127923488617 -0.5698330402374268 0.0 0.0 0.0 0.0
2.51 -0.08715199679136276 0.18199379742145538 0.12033630907535553 -0.5699262022972107 0.0 0.0 0.0 0.0
2.511 -0.08974462747573853 0.18947838246822357 0.0970667228102684 -0.5771917104721069 0.0 0.0 0.0 0.0
2.512 -0.0914359912276268 0.19744743406772614 0.0850311815738678 -0.5765863656997681 0.0 0.0 0.0 0.0
2.513 -0.09232857823371887 0.20560738444328308 0.06028594821691513 -0.5832773447036743 0.0 0.0 0.0 0.0
2.514 -0.09214111417531967 0.21149054169654846 0.0543234758079052 -0.5747162103652954 0.0 0.0 0.0 0.0
2.515 -0.09018431603908539 0.21995392441749573 0.02487257495522499 -0.5799412727355957 0.0 0.0 0.0 0.0
2.516 -0.08959772437810898 0.22762146592140198 0.01149122603237629 -0.578607439994812 0.0 0.0 0.0 0.0
2.517 -0.0895395502448082 0.23566721379756927 -0.014336904510855675 -0.5801162719726562 0.0 0.0 0.0 0.0
2.518 -0.08709776401519775 0.24303096532821655 -0.025500664487481117 -0.5727543234825134 0.0 0.0 0.0 0.0
2.519 -0.08924993127584457 0.25049951672554016 -0.04430225118994713 -0.5767059922218323 0.0 0.0 0.0 0.0
2.52 -0.08389975130558014 0.25762903690338135 -0.061324071139097214 -0.5721213221549988 0.0 0.0 0.0 0.0
2.521 -0.08519356697797775 0.26578813791275024 -0.07932045310735703 -0.5736443996429443 0.0 0.0 0.0 0.0
2.522 -0.07812441885471344 0.2729990482330322 -0.09988491237163544 -0.5636777281761169 0.0 0.0 0.0 0.0
2.523 -0.07379606366157532 0.2807072103023529 -0.11611362546682358 -0.5642616748809814 0.0 0.0 0.0 0.0
2.524 -0.0708463191986084 0.28574830293655396 -0.13434307277202606 -0.5570651292800903 0.0 0.0 0.0 0.0
2.525 -0.0720473974943161 0.2917921245098114 -0.1450376808643341 -0.5545654892921448 0.0 0.0 0.0 0.0
2.526 -0.06798577308654785 0.29713597893714905 -0.16902358829975128 -0.5443402528762817 0.0 0.0 0.0 0.0
2.527 -0.06549061834812164 0.3037082254886627 -0.17678037285804749 -0.5466877222061157 0.0 0.0 0.0 0.0
2.528 -0.05406803637742996 0.3113863170146942 -0.20454749464988708 -0.53127121925354 0.0 0.0 0.0 0.0
2.529 -0.056237827986478806 0.31589287519454956 -0.20794789493083954 -0.5358544588088989 0.0 0.0 0.0 0.0
2.53 -0.04513002932071686 0.3218798041343689 -0.23594625294208527 -0.517983078956604 0.0 0.0 0.0 0.0
2.531 -0.046362895518541336 0.32550495862960815 -0.2381596714258194 -0.5178870558738708 0.0 0.0 0.0 0.0
2.532 -0.039798058569431305 0.33220580220222473 -0.2532879412174225 -0.5113253593444824 0.0 0.0 0.0 0.0
2.533 -0.03264912962913513 0.335554838180542 -0.2755061089992523 -0.5015485882759094 0.0 0.0 0.0 0.0
2.534 -0.026088664308190346 0.3403571546077728 -0.29214900732040405 -0.48677492141723633 0.0 0.0 0.0 0.0
2.535 -0.01891803927719593 0.34356603026390076 -0.3012825846672058 -0.48555266857147217 0.0 0.0 0.0 0.0
2.536 -0.014847703278064728 0.34701767563819885 -0.32238897681236267 -0.4709289073944092 0.0 0.0 0.0 0.0
2.537 -0.01049228198826313 0.3505498766899109 -0.3331998288631439 -0.4664287269115448 0.0 0.0 0.0 0.0
2.538 -0.0012370012700557709 0.35127943754196167 -0.34987056255340576 -0.4505433738231659 0.0 0.0 0.0 0.0
2.539 0.009752933867275715 0.35506850481033325 -0.36461341381073 -0.4381684362888336 0.0 0.0 0.0 0.0
2.54 0.012604746967554092 0.35901904106140137 -0.3799988627433777 -0.42622047662734985 0.0 0.0 0.0 0.0
2.541 0.01617002673447132 0.360622763633728 -0.3856433928012848 -0.4208099842071533 0.0 0.0 0.0 0.0
2.542 0.026991700753569603 0.36431604623794556 -0.40732651948928833 -0.4042867422103882 0.0 0.0 0.0 0.0
2.543 0.026921477168798447 0.362221360206604 -0.40622419118881226 -0.3988109827041626 0.0 0.0 0.0 0.0
2.544 0.03342536464333534 0.3660154640674591 -0.4306016266345978 -0.37605172395706177 0.0 0.0 0.0 0.0
2.545 0.039638079702854156 0.3640940487384796 -0.4309544563293457 -0.3768276870250702 0.0 0.0 0.0 0.0
2.546 0.04870027303695679 0.36491742730140686 -0.4520861506462097 -0.3560006022453308 0.0 0.0 0.0 0.0
2.547 0.04945432394742966 0.3661281168460846 -0.4593464732170105 -0.3474501371383667 0.0 0.0 0.0 0.0
2.548 0.05952216312289238 0.3660900294780731 -0.47683876752853394 -0.32553520798683167 0.0 0.0 0.0 0.0
2.549 0.06549015641212463 0.3642823100090027 -0.47929486632347107 -0.3194256126880646 0.0 0.0 0.0 0.0
2.55 0.068222776055336 0.36580783128738403 -0.4948243796825409 -0.29884758591651917 0.0 0.0 0.0 0.0
2.551 0.0756264179944992 0.3627883791923523 -0.4975219964981079 -0.29170140624046326 0.0 0.0 0.0 0.0
2.552 0.08413315564393997 0.36185556650161743 -0.5148128867149353 -0.2712011933326721 0.0 0.0 0.0 0.0
2.553 0.0853075236082077 0.3604297935962677 -0.513298749923706 -0.26602810621261597 0.0 0.0 0.0 0.0
2.554 0.09286396205425262 0.3596159517765045 -0.530895471572876 -0.24379493296146393 0.0 0.0 0.0 0.0
2.555 0.0993359386920929 0.3571522831916809 -0.5368292927742004 -0.2322070449590683 0.0 0.0 0.0 0.0
2.556 0.11014409363269806 0.35116299986839294 -0.545864462852478 -0.21316489577293396 0.0 0.0 0.0 0.0
2.557 0.11188149452209473 0.3519969880580902 -0.5511881113052368 -0.19848394393920898 0.0 0.0 0.0 0.0
2.558 0.11508018523454666 0.34925881028175354 -0.5604119300842285 -0.18013399839401245 0.0 0.0 0.0 0.0
2.559 0.12507149577140808 0.34332704544067383 -0.566817581653595 -0.1618826985359192 0.0 0.0 0.0 0.0
2.56 0.12033640593290329 0.34447070956230164 -0.5743048787117004 -0.14930202066898346 0.0 0.0 0.0 0.0
2.561 0.12777143716812134 0.3397480845451355 -0.577597439289093 -0.1294788420200348 0.0 0.0 0.0 0.0
2.562 0.13337600231170654 0.3381129503250122 -0.5879417657852173 -0.10537788271903992 0.0 0.0 0.0 0.0
2.563 0.1372990608215332 0.3344309628009796 -0.5900618433952332 -0.08481907099485397 0.0 0.0 0.0 0.0
2.564 0.13814124464988708 0.33151698112487793 -0.5940080881118774 -0.07766406983137131 0.0 0.0 0.0 0.0
2.565 0.14024950563907623 0.3268056809902191 -0.5945342779159546 -0.05805718153715134 0.0 0.0 0.0 0.0
2.566 0.14217685163021088 0.3247748017311096 -0.6008099913597107 -0.03821365535259247 0.0 0.0 0.0 0.0
2.567 0.15237891674041748 0.317260205745697 -0.6010823249816895 -0.0054345279932022095 0.0 0.0 0.0 0.0
2.568 0.14356699585914612 0.31760671734809875 -0.6076667904853821 -0.008208280429244041 0.0 0.0 0.0 0.0
2.569 0.15231065452098846 0.3126925826072693 -0.6059571504592896 0.027942543849349022 0.0 0.0 0.0 0.0
2.57 0.1514490693807602 0.3084981441497803 -0.6085565686225891 0.03877228498458862 0.0 0.0 0.0 0.0
2.571 0.15080015361309052 0.3063954710960388 -0.6060218811035156 0.06073621287941933 0.0 0.0 0.0 0.0
2.572 0.1524529755115509 0.3003822863101959 -0.6064954996109009 0.07735142111778259 0.0 0.0 0.0 0.0
2.573 0.16045641899108887 0.2957042455673218 -0.6037629842758179 0.10964325070381165 0.0 0.0 0.0 0.0
2.574 0.15433663129806519 0.29445895552635193 -0.6030724048614502 0.11738303303718567 0.0 0.0 0.0 0.0
2.575 0.15801391005516052 0.28833064436912537 -0.5985186100006104 0.14449918270111084 0.0 0.0 0.0 0.0
2.576 0.15600821375846863 0.2874816656112671 -0.6005404591560364 0.15905772149562836 0.0 0.0 0.0 0.0
2.577 0.16280679404735565 0.28228166699409485 -0.5907997488975525 0.19596819579601288 0.0 0.0 0.0 0.0
2.578 0.16009896993637085 0.27983009815216064 -0.5873865485191345 0.1948816031217575 0.0 0.0 0.0 0.0
2.579 0.15833061933517456 0.2772397994995117 -0.5814302563667297 0.22476178407669067 0.0 0.0 0.0 0.0
2.58 0.16019345819950104 0.2704383134841919 -0.5747321248054504 0.2419167309999466 0.0 0.0 0.0 0.0
2.581 0.1602468639612198 0.26924964785575867 -0.5653576850891113 0.2696005702018738 0.0 0.0 0.0 0.0
2.582 0.1565435230731964 0.26667195558547974 -0.5610492825508118 0.27896633744239807 0.0 0.0 0.0 0.0
2.583 0.1571967452764511 0.2667637765407562 -0.5520681738853455 0.30934789776802063 0.0 0.0 0.0 0.0
2.584 0.1548997312784195 0.26284024119377136 -0.5459581017494202 0.31328484416007996 0.0 0.0 0.0 0.0
2.585 0.16096417605876923 0.2560729384422302 -0.5283172726631165 0.3464466631412506 0.0 0.0 0.0 0.0
2.586 0.1571521759033203 0.2562409043312073 -0.5191075205802917 0.3608953058719635 0.0 0.0 0.0 0.0
2.587 0.15305741131305695 0.2544054388999939 -0.5098909139633179 0.37725767493247986 0.0 0.0 0.0 0.0
2.588 0.1507953554391861 0.25258585810661316 -0.49982568621635437 0.38686662912368774 0.0 0.0 0.0 0.0
2.589 0.14717456698417664 0.2538439929485321 -0.489228755235672 0.4085038900375366 0.0 0.0 0.0 0.0
2.59 0.15169183909893036 0.25163114070892334 -0.4675655663013458 0.4303854703903198 0.0 0.0 0.0 0.0
2.591 0.14719808101654053 0.248257577419281 -0.4596748948097229 0.44174498319625854 0.0 0.0 0.0 0.0
2.592 0.14491449296474457 0.24827894568443298 -0.43759244680404663 0.4667171537876129 0.0 0.0 0.0 0.0
2.593 0.14547942578792572 0.24728022515773773 -0.4270910620689392 0.4755608141422272 0.0 0.0 0.0 0.0
2.594 0.14681507647037506 0.24604737758636475 -0.41458356380462646 0.49065425992012024 0.0 0.0 0.0 0.0
2.595 0.13854765892028809 0.24983718991279602 -0.4006067216396332 0.5036727786064148 0.0 0.0 0.0 0.0
2.596 0.1449507772922516 0.24454694986343384 -0.3735406696796417 0.5209675431251526 0.0 0.0 0.0 0.0
2.597 0.1408817321062088 0.24548818171024323 -0.3633599281311035 0.528493344783783 0.0 0.0 0.0 0.0
2.598 0.146864652633667 0.24192652106285095 -0.34266722202301025 0.5444411635398865 0.0 0.0 0.0 0.0
2.599 0.13959158957004547 0.24585337936878204 -0.325547993183136 0.551349401473999 0.0 0.0 0.0 0.0
2.6 0.14050094783306122 0.24533051252365112 -0.3059803247451782 0.5683168172836304 0.0 0.0 0.0 0.0
2.601 0.13919931650161743 0.2456192672252655 -0.2915118932723999 0.5789077877998352 0.0 0.0 0.0 0.0
2.602 0.1389811933040619 0.2448398619890213 -0.26362448930740356 0.5906398892402649 0.0 0.0 0.0 0.0
2.603 0.13739530742168427 0.24569231271743774 -0.25695791840553284 0.5953732132911682 0.0 0.0 0.0 0.0
2.604 0.14661510288715363 0.2413826733827591 -0.22276999056339264 0.6019067168235779 0.0 0.0 0.0 0.0
2.605 0.1369616836309433 0.24886585772037506 -0.21461717784404755 0.6099905967712402 0.0 0.0 0.0 0.0
2.606 0.14121755957603455 0.24773025512695312 -0.1815876066684723 0.6227376461029053 0.0 0.0 0.0 0.0
2.607 0.14078713953495026 0.2466418445110321 -0.18128368258476257 0.6227281093597412 0.0 0.0 0.0 0.0
2.608 0.1427420824766159 0.2463705688714981 -0.13659240305423737 0.6348754167556763 0.0 0.0 0.0 0.0
2.609 0.1394953578710556 0.24832428991794586 -0.1316513568162918 0.6333128809928894 0.0 0.0 0.0 0.0
2.61 0.1490970402956009 0.24549604952335358 -0.08261081576347351 0.6433899402618408 0.0 0.0 0.0 0.0
2.611 0.13814976811408997 0.24997352063655853 -0.09956767410039902 0.641837477684021 0.0 0.0 0.0 0.0
2.612 0.14848944544792175 0.24663427472114563 -0.045741233974695206 0.647418200969696 0.0 0.0 0.0 0.0
2.613 0.1476615071296692 0.24690687656402588 -0.03995221108198166 0.645183801651001 0.0 0.0 0.0 0.0
2.614 0.1498575508594513 0.2465684413909912 -0.003071710467338562 0.648301899433136 0.0 0.0 0.0 0.0
2.615 0.14907270669937134 0.2491248995065689 -0.0034584952518343925 0.648565948009491 0.0 0.0 0.0 0.0
2.616 0.15216077864170074 0.24828901886940002 0.02530747279524803 0.6524737477302551 0.0 0.0 0.0 0.0
2.617 0.15148892998695374 0.2485026866197586 0.03628654405474663 0.6495549082756042 0.0 0.0 0.0 0.0
2.618 0.1589350551366806 0.24318771064281464 0.0828670933842659 0.6441290378570557 0.0 0.0 0.0 0.0
2.619 0.15701571106910706 0.24608853459358215 0.07462500035762787 0.6449160575866699 0.0 0.0 0.0 0.0
2.62 0.1588190793991089 0.24325579404830933 0.11878854036331177 0.6391328573226929 0.0 0.0 0.0 0.0
2.621 0.15977518260478973 0.24302318692207336 0.12545490264892578 0.6368501782417297 0.0 0.0 0.0 0.0
2.622 0.16532382369041443 0.24262160062789917 0.1532873958349228 0.6357909440994263 0.0 0.0 0.0 0.0
2.623 0.16259890794754028 0.24303723871707916 0.1638769805431366 0.6283649206161499 0.0 0.0 0.0 0.0
2.624 0.16763663291931152 0.2372419387102127 0.19714827835559845 0.6197963356971741 0.0 0.0 0.0 0.0
2.625 0.1707783192396164 0.23368896543979645 0.21350188553333282 0.6124148368835449 0.0 0.0 0.0 0.0
2.626 0.17194966971874237 0.23644481599330902 0.24513927102088928 0.6083009839057922 0.0 0.0 0.0 0.0
2.627 0.17137259244918823 0.23342879116535187 0.24612469971179962 0.6039948463439941 0.0 0.0 0.0 0.0
2.628 0.17499332129955292 0.230431467294693 0.2778317332267761 0.5951088070869446 0.0 0.0 0.0 0.0
2.629 0.17732024192810059 0.22824089229106903 0.28821924328804016 0.5877804160118103 0.0 0.0 0.0 0.0
2.63 0.18062874674797058 0.2260424792766571 0.31469058990478516 0.5763447284698486 0.0 0.0 0.0 0.0
2.631 0.18622112274169922 0.21388785541057587 0.3322969377040863 0.5606211423873901 0.0 0.0 0.0 0.0
2.632 0.182434543967247 0.21873818337917328 0.3433505892753601 0.5590168237686157 0.0 0.0 0.0 0.0
2.633 0.1853095144033432 0.2119222730398178 0.3695085048675537 0.5395899415016174 0.0 0.0 0.0 0.0
2.634 0.1823432445526123 0.21414132416248322 0.3748764395713806 0.5414543747901917 0.0 0.0 0.0 0.0
2.635 0.19083048403263092 0.2042846977710724 0.40637511014938354 0.5172664523124695 0.0 0.0 0.0 0.0
2.636 0.1870054006576538 0.20393508672714233 0.416341632604599 0.509697437286377 0.0 0.0 0.0 0.0
2.637 0.19252867996692657 0.19573023915290833 0.4391423761844635 0.49029427766799927 0.0 0.0 0.0 0.0
2.638 0.1862441450357437 0.1959226280450821 0.4434541165828705 0.4849904179573059 0.0 0.0 0.0 0.0
2.639 0.1920645534992218 0.1888635754585266 0.46864479780197144 0.4578532874584198 0.0 0.0 0.0 0.0
2.64 0.1909978985786438 0.18786704540252686 0.49035024642944336 0.4489424228668213 0.0 0.0 0.0 0.0
2.641 0.19043998420238495 0.17941729724407196 0.4997848570346832 0.43179237842559814 0.0 0.0 0.0 0.0
2.642 0.18973562121391296 0.1755463182926178 0.5101261734962463 0.4215824604034424 0.0 0.0 0.0 0.0
2.643 0.19472947716712952 0.16627027094364166 0.5287784934043884 0.40554383397102356 0.0 0.0 0.0 0.0
2.644 0.1894989162683487 0.16660478711128235 0.5409107208251953 0.39362356066703796 0.0 0.0 0.0 0.0
2.645 0.1886737197637558 0.1591343879699707 0.5596591830253601 0.36146116256713867 0.0 0.0 0.0 0.0
2.646 0.18733519315719604 0.1544671207666397 0.5605868697166443 0.3643137514591217 0.0 0.0 0.0 0.0
2.647 0.18643756210803986 0.14898042380809784 0.5849408507347107 0.32457584142684937 0.0 0.0 0.0 0.0
2.648 0.18280653655529022 0.1452765017747879 0.5869492888450623 0.3211165964603424 0.0 0.0 0.0 0.0
2.649 0.1823284924030304 0.13660384714603424 0.6083045601844788 0.2769503593444824 0.0 0.0 0.0 0.0
2.65 0.17950128018856049 0.1358386129140854 0.6099695563316345 0.2815711498260498 0.0 0.0 0.0 0.0
2.651 0.17662376165390015 0.13014763593673706 0.624693751335144 0.25784435868263245 0.0 0.0 0.0 0.0
2.652 0.16796551644802094 0.1290944218635559 0.6295847296714783 0.23262609541416168 0.0 0.0 0.0 0.0
2.653 0.16765886545181274 0.1199486255645752 0.6390820145606995 0.20865674316883087 0.0 0.0 0.0 0.0
2.654 0.16421617567539215 0.11554055660963058 0.6425477862358093 0.20347250998020172 0.0 0.0 0.0 0.0
2.655 0.15873514115810394 0.11438829451799393 0.6586817502975464 0.16678184270858765 0.0 0.0 0.0 0.0
2.656 0.15574748814105988 0.10613611340522766 0.6588906645774841 0.16077683866024017 0.0 0.0 0.0 0.0
2.657 0.15188813209533691 0.10108962655067444 0.6692759394645691 0.10882176458835602 0.0 0.0 0.0 0.0
2.658 0.14828066527843475 0.09635167568922043 0.6679726243019104 0.10052173584699631 0.0 0.0 0.0 0.0
2.659 0.1433134824037552 0.09241971373558044 0.6777572631835938 0.07468332350254059 0.0 0.0 0.0 0.0
2.66 0.13518807291984558 0.09177464991807938 0.6817219853401184 0.07245578616857529 0.0 0.0 0.0 0.0
2.661 0.1320495754480362 0.0849827378988266 0.6841844916343689 0.011575056239962578 0.0 0.0 0.0 0.0
2.662 0.12429254502058029 0.08481287956237793 0.681623637676239 0.02195083163678646 0.0 0.0 0.0 0.0
2.663 0.1185600757598877 0.08265651017427444 0.6853892207145691 -0.013885856606066227 0.0 0.0 0.0 0.0
2.664 0.11043982952833176 0.08001954853534698 0.6844751834869385 -0.029254764318466187 0.0 0.0 0.0 0.0
2.665 0.10647355020046234 0.07670201361179352 0.6849930286407471 -0.05969614163041115 0.0 0.0 0.0 0.0
2.666 0.0983080044388771 0.07585954666137695 0.6831220388412476 -0.07347629219293594 0.0 0.0 0.0 0.0
2.667 0.09126389771699905 0.07611700147390366 0.6774294376373291 -0.10758621990680695 0.0 0.0 0.0 0.0
2.668 0.08522289246320724 0.07201048731803894 0.6748842000961304 -0.12770698964595795 0.0 0.0 0.0 0.0
2.669 0.07714980095624924 0.07231801748275757 0.6721753478050232 -0.1544005274772644 0.0 0.0 0.0 0.0
2.67 0.0701892152428627 0.07418176531791687 0.6670297384262085 -0.17355047166347504 0.0 0.0 0.0 0.0
2.671 0.065069779753685 0.0719866082072258 0.6644925475120544 -0.19443996250629425 0.0 0.0 0.0 0.0
2.672 0.05726337805390358 0.07116399705410004 0.6560176014900208 -0.21303479373455048 0.0 0.0 0.0 0.0
2.673 0.05127890780568123 0.07262305915355682 0.6486260890960693 -0.25144606828689575 0.0 0.0 0.0 0.0
2.674 0.042130667716264725 0.07259681820869446 0.643263578414917 -0.26054155826568604 0.0 0.0 0.0 0.0
2.675 0.03579185903072357 0.07607202976942062 0.6344634294509888 -0.2860693633556366 0.0 0.0 0.0 0.0
2.676 0.027129022404551506 0.07601047307252884 0.6270965337753296 -0.29508206248283386 0.0 0.0 0.0 0.0
2.677 0.023688416928052902 0.07720991224050522 0.6047632694244385 -0.3387557864189148 0.0 0.0 0.0 0.0
2.678 0.015177274122834206 0.082171231508255 0.5943260192871094 -0.3551592528820038 0.0 0.0 0.0 0.0
2.679 0.009271994233131409 0.08471571654081345 0.599739670753479 -0.360243022441864 0.0 0.0 0.0 0.0
2.68 0.0030991369858384132 0.08773522824048996 0.5640261173248291 -0.3960995376110077 0.0 0.0 0.0 0.0
2.681 -0.004843415692448616 0.09106026589870453 0.5654671788215637 -0.4052604138851166 0.0 0.0 0.0 0.0
2.682 -0.008980628103017807 0.09548107534646988 0.5426361560821533 -0.43030473589897156 0.0 0.0 0.0 0.0
2.683 -0.017488010227680206 0.09890806674957275 0.5372257232666016 -0.4403640925884247 0.0 0.0 0.0 0.0
2.684 -0.02213936485350132 0.1054195910692215 0.5068110823631287 -0.4734601378440857 0.0 0.0 0.0 0.0
2.685 -0.029928773641586304 0.10642575472593307 0.5113100409507751 -0.46489205956459045 0.0 0.0 0.0 0.0
2.686 -0.030683519318699837 0.11551889777183533 0.46555766463279724 -0.5083239078521729 0.0 0.0 0.0 0.0
2.687 -0.037984699010849 0.11852853745222092 0.47578805685043335 -0.5039097666740417 0.0 0.0 0.0 0.0
2.688 -0.03892705217003822 0.12425456941127777 0.46673962473869324 -0.5199585556983948 0.0 0.0 0.0 0.0
2.689 -0.04905666783452034 0.12935565412044525 0.44099724292755127 -0.5289386510848999 0.0 0.0 0.0 0.0
2.69 -0.04913783818483353 0.1357584148645401 0.40670260787010193 -0.563988447189331 0.0 0.0 0.0 0.0
2.691 -0.05915891379117966 0.14064247906208038 0.3887096047401428 -0.5716802477836609 0.0 0.0 0.0 0.0
2.692 -0.059790488332509995 0.14997488260269165 0.36749789118766785 -0.5912250876426697 0.0 0.0 0.0 0.0
2.693 -0.06097874045372009 0.15530318021774292 0.34840524196624756 -0.5943577289581299 0.0 0.0 0.0 0.0
2.694 -0.06963063776493073 0.1574997901916504 0.32529160380363464 -0.6126258373260498 0.0 0.0 0.0 0.0
2.695 -0.06649256497621536 0.1652148962020874 0.32016339898109436 -0.6059948801994324 0.0 0.0 0.0 0.0
2.696 -0.06752372533082962 0.175808385014534 0.2828778922557831 -0.6305425763130188 0.0 0.0 0.0 0.0
2.697 -0.07247742265462875 0.1785680204629898 0.2767271399497986 -0.6318753957748413 0.0 0.0 0.0 0.0
2.698 -0.0733400210738182 0.18496020138263702 0.2541871666908264 -0.6426932215690613 0.0 0.0 0.0 0.0
2.699 -0.07374083995819092 0.19217641651630402 0.23097741603851318 -0.6457796692848206 0.0 0.0 0.0 0.0
2.7 -0.08156908303499222 0.1987166702747345 0.1977204829454422 -0.6631705164909363 0.0 0.0 0.0 0.0
2.701 -0.07179753482341766 0.20555919408798218 0.1816769391298294 -0.6555691361427307 0.0 0.0 0.0 0.0
2.702 -0.07336831837892532 0.21491022408008575 0.1491067111492157 -0.6746252179145813 0.0 0.0 0.0 0.0
2.703 -0.0789036750793457 0.21886110305786133 0.14011022448539734 -0.6749816536903381 0.0 0.0 0.0 0.0
2.704 -0.07323132455348969 0.22979839146137238 0.1071092039346695 -0.6898167133331299 0.0 0.0 0.0 0.0
2.705 -0.0726345106959343 0.2317415326833725 0.09821438044309616 -0.6777721047401428 0.0 0.0 0.0 0.0
2.706 -0.07959487289190292 0.2365134209394455 0.0828571766614914 -0.6881398558616638 0.0 0.0 0.0 0.0
2.707 -0.06884164363145828 0.24205780029296875 0.04809163883328438 -0.6777471899986267 0.0 0.0 0.0 0.0
2.708 -0.07000841200351715 0.25050097703933716 0.02841673232614994 -0.6838603019714355 0.0 0.0 0.0 0.0
2.709 -0.06978926807641983 0.25432536005973816 0.01621556654572487 -0.6829826831817627 0.0 0.0 0.0 0.0
2.71 -0.067869171500206 0.25854453444480896 -0.006795778870582581 -0.6791048049926758 0.0 0.0 0.0 0.0
2.711 -0.06061311438679695 0.2667109966278076 -0.048115815967321396 -0.6811279654502869 0.0 0.0 0.0 0.0
2.712 -0.06294529139995575 0.27197203040122986 -0.05168096721172333 -0.6836829781532288 0.0 0.0 0.0 0.0
2.713 -0.05902796983718872 0.27597567439079285 -0.08189858496189117 -0.6733628511428833 0.0 0.0 0.0 0.0
2.714 -0.05677355080842972 0.2823600471019745 -0.1024661734700203 -0.6796484589576721 0.0 0.0 0.0 0.0
2.715 -0.058723147958517075 0.2870464324951172 -0.12742680311203003 -0.6745522022247314 0.0 0.0 0.0 0.0
2.716 -0.050553712993860245 0.29229405522346497 -0.14335031807422638 -0.6721035242080688 0.0 0.0 0.0 0.0
2.717 -0.042861614376306534 0.296327143907547 -0.17118380963802338 -0.6657114624977112 0.0 0.0 0.0 0.0
2.718 -0.041828982532024384 0.2999526560306549 -0.18365399539470673 -0.6616451144218445 0.0 0.0 0.0 0.0
2.719 -0.03863697871565819 0.30690208077430725 -0.21885347366333008 -0.6551992297172546 0.0 0.0 0.0 0.0
2.72 -0.034854255616664886 0.3091243505477905 -0.2331850826740265 -0.648993730545044 0.0 0.0 0.0 0.0
2.721 -0.03058481588959694 0.311789870262146 -0.25972869992256165 -0.6397541165351868 0.0 0.0 0.0 0.0
2.722 -0.023967284709215164 0.3155844211578369 -0.2733571231365204 -0.6367469429969788 0.0 0.0 0.0 0.0
2.723 -0.015450725331902504 0.31955114006996155 -0.31657302379608154 -0.6112133264541626 0.0 0.0 0.0 0.0
2.724 -0.027841830626130104 0.3208636939525604 -0.29855358600616455 -0.6194623112678528 0.0 0.0 0.0 0.0
2.725 -0.014551288448274136 0.32659170031547546 -0.33938804268836975 -0.6053406000137329 0.0 0.0 0.0 0.0
2.726 -0.011229975149035454 0.32593393325805664 -0.35711976885795593 -0.5873537659645081 0.0 0.0 0.0 0.0
2.727 -0.00034612882882356644 0.32795754075050354 -0.38027170300483704 -0.5743908286094666 0.0 0.0 0.0 0.0
2.728 -0.0022023404017090797 0.3311830461025238 -0.3873230814933777 -0.5663623809814453 0.0 0.0 0.0 0.0
2.729 0.005690473131835461 0.33395296335220337 -0.4202808439731598 -0.5428096055984497 0.0 0.0 0.0 0.0
2.73 -0.0007350584492087364 0.33625108003616333 -0.4179576337337494 -0.5575284361839294 0.0 0.0 0.0 0.0
2.731 0.00725806038826704 0.33736157417297363 -0.4549168646335602 -0.5268611907958984 0.0 0.0 0.0 0.0
2.732 0.01930568367242813 0.33858487010002136 -0.4719334840774536 -0.5051615238189697 0.0 0.0 0.0 0.0
2.733 0.008506533689796925 0.33768513798713684 -0.4748261868953705 -0.5090779662132263 0.0 0.0 0.0 0.0
2.734 0.026733823120594025 0.33721446990966797 -0.5002297759056091 -0.4821327328681946 0.0 0.0 0.0 0.0
2.735 0.023569723591208458 0.3414875268936157 -0.5122190713882446 -0.4711160659790039 0.0 0.0 0.0 0.0
2.736 0.03562117740511894 0.34057191014289856 -0.5084527730941772 -0.4721110165119171 0.0 0.0 0.0 0.0
2.737 0.03280643746256828 0.3448784351348877 -0.5516871213912964 -0.432399719953537 0.0 0.0 0.0 0.0
2.738 0.04330926015973091 0.34317275881767273 -0.5616642832756042 -0.4119180142879486 0.0 0.0 0.0 0.0
2.739 0.0515805184841156 0.3439998924732208 -0.5805138945579529 -0.403796523809433 0.0 0.0 0.0 0.0
2.74 0.04702305048704147 0.34449028968811035 -0.5921717882156372 -0.38553550839424133 0.0 0.0 0.0 0.0
2.741 0.04805628955364227 0.3450377285480499 -0.6039121150970459 -0.36074894666671753 0.0 0.0 0.0 0.0
2.742 0.04808812588453293 0.3460577428340912 -0.6234305500984192 -0.3252022862434387 0.0 0.0 0.0 0.0
2.743 0.05499549210071564 0.3463574945926666 -0.6305878162384033 -0.3312123417854309 0.0 0.0 0.0 0.0
2.744 0.06120947748422623 0.3440549671649933 -0.6435627341270447 -0.2942361831665039 0.0 0.0 0.0 0.0
2.745 0.05980297550559044 0.3426896035671234 -0.6430122256278992 -0.2928263545036316 0.0 0.0 0.0 0.0
2.746 0.06744582206010818 0.3430194854736328 -0.6627354621887207 -0.25402674078941345 0.0 0.0 0.0 0.0
2.747 0.06694432348012924 0.34132376313209534 -0.6598202586174011 -0.24580267071723938 0.0 0.0 0.0 0.0
2.748 0.06753361970186234 0.3470372259616852 -0.6852586269378662 -0.20466351509094238 0.0 0.0 0.0 0.0
2.749 0.07466984540224075 0.3434005677700043 -0.6782640814781189 -0.20590181648731232 0.0 0.0 0.0 0.0
2.75 0.08295293152332306 0.3411824107170105 -0.6984519958496094 -0.15858979523181915 0.0 0.0 0.0 0.0
2.751 0.09105563908815384 0.3383852541446686 -0.6977790594100952 -0.1584033966064453 0.0 0.0 0.0 0.0
2.752 0.08975662291049957 0.34178096055984497 -0.7098962664604187 -0.11051440238952637 0.0 0.0 0.0 0.0
2.753 0.0852879136800766 0.3388986587524414 -0.7075722217559814 -0.11099793016910553 0.0 0.0 0.0 0.0
2.754 0.08872367441654205 0.3392616808414459 -0.7135156989097595 -0.07607710361480713 0.0 0.0 0.0 0.0
2.755 0.09136125445365906 0.3403887450695038 -0.7183168530464172 -0.06746168434619904 0.0 0.0 0.0 0.0
2.756 0.10122751444578171 0.33549487590789795 -0.7201115489006042 -0.00357796810567379 0.0 0.0 0.0 0.0
2.757 0.09247446805238724 0.33693158626556396 -0.7217587232589722 -0.027673885226249695 0.0 0.0 0.0 0.0
2.758 0.10802827775478363 0.3344639539718628 -0.7210851907730103 0.03434273600578308 0.0 0.0 0.0 0.0
2.759 0.10202259570360184 0.3354141116142273 -0.7192174196243286 0.024269113317131996 0.0 0.0 0.0 0.0
2.76 0.11191938072443008 0.3296063244342804 -0.7184565663337708 0.07941356301307678 0.0 0.0 0.0 0.0
2.761 0.10955191403627396 0.3302011489868164 -0.7182958722114563 0.08335637301206589 0.0 0.0 0.0 0.0
2.762 0.11329765617847443 0.33028939366340637 -0.7126082181930542 0.12347021698951721 0.0 0.0 0.0 0.0
2.763 0.10757210850715637 0.33107608556747437 -0.7099411487579346 0.13711345195770264 0.0 0.0 0.0 0.0
2.764 0.12305688858032227 0.3272087275981903 -0.7048222422599792 0.18229471147060394 0.0 0.0 0.0 0.0
2.765 0.12133815139532089 0.327356219291687 -0.6999717354774475 0.17975082993507385 0.0 0.0 0.0 0.0
2.766 0.11940965056419373 0.33064961433410645 -0.6900603175163269 0.23227199912071228 0.0 0.0 0.0 0.0
2.767 0.1273600161075592 0.32390138506889343 -0.687942624092102 0.22997219860553741 0.0 0.0 0.0 0.0
2.768 0.1276422142982483 0.32528412342071533 -0.6775802969932556 0.2662811279296875 0.0 0.0 0.0 0.0
2.769 0.12914501130580902 0.32073110342025757 -0.6656315326690674 0.2833055853843689 0.0 0.0 0.0 0.0
2.77 0.13752496242523193 0.32250523567199707 -0.6617846488952637 0.30685126781463623 0.0 0.0 0.0 0.0
2.771 0.1384868621826172 0.31899142265319824 -0.6458697319030762 0.33190634846687317 0.0 0.0 0.0 0.0
2.772 0.1489955186843872 0.3176073431968689 -0.6325885057449341 0.36530283093452454 0.0 0.0 0.0 0.0
2.773 0.14630110561847687 0.31497594714164734 -0.6237286925315857 0.3730297088623047 0.0 0.0 0.0 0.0
2.774 0.14121411740779877 0.3210659325122833 -0.6243190765380859 0.38800346851348877 0.0 0.0 0.0 0.0
2.775 0.15329071879386902 0.3111674189567566 -0.5953617691993713 0.41506847739219666 0.0 0.0 0.0 0.0
2.776 0.14619143307209015 0.31697189807891846 -0.5968645215034485 0.42702576518058777 0.0 0.0 0.0 0.0
2.777 0.15622450411319733 0.31323400139808655 -0.5698578953742981 0.45933449268341064 0.0 0.0 0.0 0.0
2.778 0.15453098714351654 0.313488632440567 -0.5661360025405884 0.4644237160682678 0.0 0.0 0.0 0.0
2.779 0.1603417992591858 0.3117610812187195 -0.5417614579200745 0.49441367387771606 0.0 0.0 0.0 0.0
2.78 0.15747447311878204 0.309189110994339 -0.531066358089447 0.4974726140499115 0.0 0.0 0.0 0.0
2.781 0.17282035946846008 0.3040738105773926 -0.49184277653694153 0.5377182364463806 0.0 0.0 0.0 0.0
2.782 0.16599538922309875 0.3005424439907074 -0.49640414118766785 0.5327352285385132 0.0 0.0 0.0 0.0
2.783 0.1724519431591034 0.3021158277988434 -0.46337199211120605 0.5641857981681824 0.0 0.0 0.0 0.0
2.784 0.17156393826007843 0.30475160479545593 -0.4427598714828491 0.5872127413749695 0.0 0.0 0.0 0.0
2.785 0.17623543739318848 0.30095142126083374 -0.42969340085983276 0.5965916514396667 0.0 0.0 0.0 0.0
2.786 0.1768018901348114 0.2982425093650818 -0.41877731680870056 0.6019075512886047 0.0 0.0 0.0 0.0
2.787 0.18208390474319458 0.2960428297519684 -0.3750237822532654 0.6372212171554565 0.0 0.0 0.0 0.0
2.788 0.18290375173091888 0.2929717004299164 -0.3852482736110687 0.6292399764060974 0.0 0.0 0.0 0.0
2.789 0.19005034863948822 0.2885923981666565 -0.35374191403388977 0.6454428434371948 0.0 0.0 0.0 0.0
2.79 0.20186898112297058 0.2766035497188568 -0.3300654888153076 0.6504368185997009 0.0 0.0 0.0 0.0
2.791 0.20024921000003815 0.28046736121177673 -0.28959330916404724 0.6700862646102905 0.0 0.0 0.0 0.0
2.792 0.19250674545764923 0.28308433294296265 -0.30493465065956116 0.6666220426559448 0.0 0.0 0.0 0.0
2.793 0.1963617205619812 0.2777441740036011 -0.2661839425563812 0.685638427734375 0.0 0.0 0.0 0.0
2.794 0.20617163181304932 0.27138933539390564 -0.24070321023464203 0.6936761736869812 0.0 0.0 0.0 0.0
2.795 0.21026265621185303 0.2649741768836975 -0.20998284220695496 0.7084816694259644 0.0 0.0 0.0 0.0
2.796 0.2024701088666916 0.27250945568084717 -0.18690051138401031 0.7121806144714355 0.0 0.0 0.0 0.0
2.797 0.21408498287200928 0.26119324564933777 -0.161685973405838 0.7164915800094604 0.0 0.0 0.0 0.0
2.798 0.21636569499969482 0.2556788921356201 -0.15545858442783356 0.7156844735145569 0.0 0.0 0.0 0.0
2.799 0.22541764378547668 0.2456805408000946 -0.11625216901302338 0.7295066714286804 0.0 0.0 0.0 0.0
2.8 0.22108718752861023 0.24608367681503296 -0.10185255855321884 0.7326903343200684 0.0 0.0 0.0 0.0
2.801 0.22385983169078827 0.24262425303459167 -0.07311952114105225 0.7389523386955261 0.0 0.0 0.0 0.0
2.802 0.22119034826755524 0.24216987192630768 -0.07005272805690765 0.7353149652481079 0.0 0.0 0.0 0.0
2.803 0.23105497658252716 0.23045134544372559 -0.018492886796593666 0.7380902767181396 0.0 0.0 0.0 0.0
2.804 0.23086632788181305 0.22378547489643097 -0.003508206456899643 0.7377986311912537 0.0 0.0 0.0 0.0
2.805 0.23592349886894226 0.21900731325149536 0.035404451191425323 0.7440702319145203 0.0 0.0 0.0 0.0
2.806 0.23300735652446747 0.21658827364444733 0.04660539701581001 0.7414312958717346 0.0 0.0 0.0 0.0
2.807 0.23570285737514496 0.2091408520936966 0.08144979178905487 0.7401931285858154 0.0 0.0 0.0 0.0
2.808 0.23495976626873016 0.2024701088666916 0.08433839678764343 0.7338205575942993 0.0 0.0 0.0 0.0
2.809 0.23662038147449493 0.19540567696094513 0.1282287985086441 0.7317389249801636 0.0 0.0 0.0 0.0
2.81 0.2369425892829895 0.18920670449733734 0.13720577955245972 0.7297974228858948 0.0 0.0 0.0 0.0
2.811 0.2344818115234375 0.18839862942695618 0.1756027340888977 0.7209898829460144 0.0 0.0 0.0 0.0
2.812 0.23983804881572723 0.17503897845745087 0.20193889737129211 0.7181524038314819 0.0 0.0 0.0 0.0
2.813 0.23834949731826782 0.17031237483024597 0.21973901987075806 0.7110801339149475 0.0 0.0 0.0 0.0
2.814 0.23835866153240204 0.16446805000305176 0.24758055806159973 0.7040296196937561 0.0 0.0 0.0 0.0
2.815 0.23844042420387268 0.15591855347156525 0.2939663827419281 0.6904008984565735 0.0 0.0 0.0 0.0
2.816 0.2380257546901703 0.14720802009105682 0.3032739758491516 0.6808624267578125 0.0 0.0 0.0 0.0
2.817 0.23676972091197968 0.14109046757221222 0.31083279848098755 0.6834529638290405 0.0 0.0 0.0 0.0
2.818 0.23446455597877502 0.1339554786682129 0.3422587513923645 0.66850346326828 0.0 0.0 0.0 0.0
2.819 0.23185403645038605 0.1305548995733261 0.34240174293518066 0.6678518652915955 0.0 0.0 0.0 0.0
2.82 0.2356022149324417 0.1113266795873642 0.40759962797164917 0.6255443692207336 0.0 0.0 0.0 0.0
2.821 0.22390058636665344 0.11737769842147827 0.3891555964946747 0.643223226070404 0.0 0.0 0.0 0.0
2.822 0.2261391580104828 0.1051592230796814 0.43531715869903564 0.6200858354568481 0.0 0.0 0.0 0.0
2.823 0.22223399579524994 0.09980756789445877 0.43147265911102295 0.6206339001655579 0.0 0.0 0.0 0.0
2.824 0.2195671945810318 0.09323836117982864 0.4730343818664551 0.5898090600967407 0.0 0.0 0.0 0.0
2.825 0.2168489545583725 0.08724521845579147 0.48147138953208923 0.587809681892395 0.0 0.0 0.0 0.0
2.826 0.20847974717617035 0.08011288195848465 0.5133246779441833 0.5631743669509888 0.0 0.0 0.0 0.0
2.827 0.20724231004714966 0.07286122441291809 0.5205776691436768 0.5540580153465271 0.0 0.0 0.0 0.0
2.828 0.20082823932170868 0.06667464226484299 0.5546419024467468 0.5208927989006042 0.0 0.0 0.0 0.0
2.829 0.19771452248096466 0.05755302309989929 0.5673850774765015 0.5076004266738892 0.0 0.0 0.0 0.0
2.83 0.19303841888904572 0.05491656810045242 0.5941070318222046 0.4915371239185333 0.0 0.0 0.0 0.0
2.831 0.1843457967042923 0.04790010675787926 0.5978373885154724 0.4689362049102783 0.0 0.0 0.0 0.0
2.832 0.17782041430473328 0.04345087334513664 0.6023278832435608 0.47418269515037537 0.0 0.0 0.0 0.0
2.833 0.1731237769126892 0.03504851087927818 0.631319522857666 0.4275963008403778 0.0 0.0 0.0 0.0
2.834 0.16792769730091095 0.03370046988129616 0.6532031297683716 0.4067896902561188 0.0 0.0 0.0 0.0
2.835 0.15967220067977905 0.025258179754018784 0.6569425463676453 0.3815620541572571 0.0 0.0 0.0 0.0
2.836 0.15226233005523682 0.022616427391767502 0.6746735572814941 0.36451318860054016 0.0 0.0 0.0 0.0
2.837 0.14500688016414642 0.01786871999502182 0.686598539352417 0.33502984046936035 0.0 0.0 0.0 0.0
2.838 0.13816186785697937 0.01931172050535679 0.7028540372848511 0.3170648217201233 0.0 0.0 0.0 0.0
2.839 0.1314435750246048 0.010006661526858807 0.7104957103729248 0.29374587535858154 0.0 0.0 0.0 0.0
2.84 0.12355689704418182 0.007626486010849476 0.7227653861045837 0.27158015966415405 0.0 0.0 0.0 0.0
2.841 0.11445538699626923 0.005439598113298416 0.728051483631134 0.24591131508350372 0.0 0.0 0.0 0.0
2.842 0.10625758022069931 0.0019657444208860397 0.7399367094039917 0.22465145587921143 0.0 0.0 0.0 0.0
2.843 0.09867934137582779 -0.000643465667963028 0.7442858815193176 0.1941956877708435 0.0 0.0 0.0 0.0
2.844 0.09078259021043777 -0.00417806301265955 0.7496870160102844 0.18549570441246033 0.0 0.0 0.0 0.0
2.845 0.08133051544427872 -0.006075716577470303 0.7629007697105408 0.12881682813167572 0.0 0.0 0.0 0.0
2.846 0.07360658049583435 -0.004149849526584148 0.7610342502593994 0.12529020011425018 0.0 0.0 0.0 0.0
2.847 0.06521520763635635 -0.008355832658708096 0.7655761241912842 0.0783817246556282 0.0 0.0 0.0 0.0
2.848 0.05650383234024048 -0.006006242707371712 0.7734260559082031 0.07011620700359344 0.0 0.0 0.0 0.0
2.849 0.04814324155449867 -0.007091612555086613 0.7712534666061401 0.03994961455464363 0.0 0.0 0.0 0.0
2.85 0.03931783139705658 -0.005860387347638607 0.7770729064941406 0.023137876763939857 0.0 0.0 0.0 0.0
2.851 0.030744096264243126 -0.006021192297339439 0.7750015258789062 -0.023257531225681305 0.0 0.0 0.0 0.0
2.852 0.022189632058143616 -0.004160781390964985 0.7726097106933594 -0.02124340645968914 0.0 0.0 0.0 0.0
2.853 0.012131846509873867 -0.003925868310034275 0.7691049575805664 -0.0704960972070694 0.0 0.0 0.0 0.0
2.854 0.005861862562596798 -0.0011366736143827438 0.7712401151657104 -0.084637850522995 0.0 0.0 0.0 0.0
2.855 -0.0032021580263972282 0.0010758955031633377 0.7597548365592957 -0.13382114470005035 0.0 0.0 0.0 0.0
2.856 -0.012280472554266453 0.0022130561992526054 0.7644239068031311 -0.13562911748886108 0.0 0.0 0.0 0.0
2.857 -0.01956913061439991 0.003546919673681259 0.7557077407836914 -0.18678095936775208 0.0 0.0 0.0 0.0
2.858 -0.026158694177865982 0.008982179686427116 0.7573691010475159 -0.18248581886291504 0.0 0.0 0.0 0.0
2.859 -0.0359756201505661 0.011466399766504765 0.7352891564369202 -0.24320556223392487 0.0 0.0 0.0 0.0
2.86 -0.04085627570748329 0.015478861518204212 0.7369892597198486 -0.24153929948806763 0.0 0.0 0.0 0.0
2.861 -0.05007510259747505 0.019463572651147842 0.7119197845458984 -0.3048183023929596 0.0 0.0 0.0 0.0
2.862 -0.05673806741833687 0.024192681536078453 0.7098069190979004 -0.2991955578327179 0.0 0.0 0.0 0.0
2.863 -0.06354616582393646 0.030269600450992584 0.6939865350723267 -0.33778008818626404 0.0 0.0 0.0 0.0
2.864 -0.0695246011018753 0.03339938446879387 0.6924096345901489 -0.3437867760658264 0.0 0.0 0.0 0.0
2.865 -0.07506147772073746 0.04022551700472832 0.6677574515342712 -0.38030683994293213 0.0 0.0 0.0 0.0
2.866 -0.08060753345489502 0.04300905019044876 0.6644378900527954 -0.38396528363227844 0.0 0.0 0.0 0.0
2.867 -0.08849412947893143 0.04831842705607414 0.6554714441299438 -0.42139652371406555 0.0 0.0 0.0 0.0
2.868 -0.09028986096382141 0.05604758858680725 0.6234843134880066 -0.44572123885154724 0.0 0.0 0.0 0.0
2.869 -0.0994124636054039 0.06113922968506813 0.6181502938270569 -0.46288788318634033 0.0 0.0 0.0 0.0
2.87 -0.10259020328521729 0.06520073860883713 0.607528567314148 -0.4744778573513031 0.0 0.0 0.0 0.0
2.871 -0.10664502531290054 0.07284711301326752 0.5948572754859924 -0.4929560124874115 0.0 0.0 0.0 0.0
2.872 -0.11265764385461807 0.07838857918977737 0.5648772120475769 -0.5236764550209045 0.0 0.0 0.0 0.0
2.873 -0.11517836898565292 0.08418802171945572 0.5530540943145752 -0.5363638997077942 0.0 0.0 0.0 0.0
2.874 -0.11981674283742905 0.08943487703800201 0.5345490574836731 -0.5482168793678284 0.0 0.0 0.0 0.0
2.875 -0.12262425571680069 0.09564051777124405 0.5178713798522949 -0.5687782168388367 0.0 0.0 0.0 0.0
2.876 -0.12655794620513916 0.10341852903366089 0.4797278940677643 -0.5966019034385681 0.0 0.0 0.0 0.0
2.877 -0.1308884471654892 0.10745459794998169 0.4856027066707611 -0.5964030027389526 0.0 0.0 0.0 0.0
2.878 -0.13132344186306 0.11894863843917847 0.4391936957836151 -0.6331811547279358 0.0 0.0 0.0 0.0
2.879 -0.13614797592163086 0.12067665904760361 0.4446643888950348 -0.6206936836242676 0.0 0.0 0.0 0.0
2.88 -0.1328410804271698 0.12949326634407043 0.41819339990615845 -0.6446612477302551 0.0 0.0 0.0 0.0
2.881 -0.14023122191429138 0.134346142411232 0.402425616979599 -0.6572210788726807 0.0 0.0 0.0 0.0
2.882 -0.13606274127960205 0.14375118911266327 0.34847772121429443 -0.6862956285476685 0.0 0.0 0.0 0.0
2.883 -0.14111210405826569 0.14731886982917786 0.35956281423568726 -0.6756439208984375 0.0 0.0 0.0 0.0
2.884 -0.13527053594589233 0.15851151943206787 0.29130685329437256 -0.704075276851654 0.0 0.0 0.0 0.0
2.885 -0.14369775354862213 0.1588606983423233 0.3099061846733093 -0.6971846222877502 0.0 0.0 0.0 0.0
2.886 -0.1382012963294983 0.16858698427677155 0.2653184235095978 -0.7183513045310974 0.0 0.0 0.0 0.0
2.887 -0.14300808310508728 0.1731443852186203 0.24896493554115295 -0.7264821529388428 0.0 0.0 0.0 0.0
2.888 -0.13844749331474304 0.18265557289123535 0.19482479989528656 -0.7356323599815369 0.0 0.0 0.0 0.0
2.889 -0.14629621803760529 0.18125547468662262 0.21582114696502686 -0.7298919558525085 0.0 0.0 0.0 0.0
2.89 -0.14155763387680054 0.19262562692165375 0.15748964250087738 -0.7503355741500854 0.0 0.0 0.0 0.0
2.891 -0.1417474001646042 0.19393371045589447 0.15769138932228088 -0.7452991604804993 0.0 0.0 0.0 0.0
2.892 -0.13253717124462128 0.2021624743938446 0.12075482308864594 -0.7469937801361084 0.0 0.0 0.0 0.0
2.893 -0.13986070454120636 0.20675109326839447 0.10343936085700989 -0.7542629837989807 0.0 0.0 0.0 0.0
2.894 -0.13633374869823456 0.2111159861087799 0.05790243297815323 -0.764176070690155 0.0 0.0 0.0 0.0
2.895 -0.14078713953495026 0.21451033651828766 0.047124315053224564 -0.7628519535064697 0.0 0.0 0.0 0.0
2.896 -0.1324569433927536 0.22363543510437012 0.003234380856156349 -0.7584836483001709 0.0 0.0 0.0 0.0
2.897 -0.1331375390291214 0.22525820136070251 -0.002842482179403305 -0.7609172463417053 0.0 0.0 0.0 0.0
2.898 -0.13699360191822052 0.22868509590625763 -0.031611617654561996 -0.7635743618011475 0.0 0.0 0.0 0.0
2.899 -0.13134843111038208 0.23322954773902893 -0.04467037692666054 -0.7618070840835571 0.0 0.0 0.0 0.0
2.9 -0.12867312133312225 0.2404020130634308 -0.09393930435180664 -0.7569254040718079 0.0 0.0 0.0 0.0
2.901 -0.12465592473745346 0.24539688229560852 -0.10943091660737991 -0.7494086623191833 0.0 0.0 0.0 0.0
2.902 -0.12156221270561218 0.24720783531665802 -0.14992116391658783 -0.7460063695907593 0.0 0.0 0.0 0.0
2.903 -0.12397323548793793 0.2501283586025238 -0.1467539519071579 -0.7443838715553284 0.0 0.0 0.0 0.0
2.904 -0.12208995968103409 0.2571725845336914 -0.19139093160629272 -0.7352789640426636 0.0 0.0 0.0 0.0
2.905 -0.1200641617178917 0.25977882742881775 -0.20513680577278137 -0.7352008819580078 0.0 0.0 0.0 0.0
2.906 -0.11785561591386795 0.26303985714912415 -0.24086157977581024 -0.725793719291687 0.0 0.0 0.0 0.0
2.907 -0.11721179634332657 0.2660832107067108 -0.2790687680244446 -0.709993839263916 0.0 0.0 0.0 0.0
2.908 -0.11148177832365036 0.27026090025901794 -0.28423774242401123 -0.7073595523834229 0.0 0.0 0.0 0.0
2.909 -0.10836488753557205 0.2736901640892029 -0.31362462043762207 -0.6904208064079285 0.0 0.0 0.0 0.0
2.91 -0.1057034432888031 0.27652424573898315 -0.32999247312545776 -0.685579240322113 0.0 0.0 0.0 0.0
2.911 -0.10285893827676773 0.2809073030948639 -0.36214128136634827 -0.6674867868423462 0.0 0.0 0.0 0.0
2.912 -0.10795633494853973 0.28107213973999023 -0.36843886971473694 -0.6720890998840332 0.0 0.0 0.0 0.0
2.913 -0.09511739015579224 0.2900391221046448 -0.4143240749835968 -0.6357558369636536 0.0 0.0 0.0 0.0
2.914 -0.10269061475992203 0.2880004644393921 -0.41571420431137085 -0.6431819796562195 0.0 0.0 0.0 0.0
2.915 -0.09801307320594788 0.2909775376319885 -0.4432288408279419 -0.6168334484100342 0.0 0.0 0.0 0.0
2.916 -0.09446705132722855 0.2931203544139862 -0.45799270272254944 -0.5999667644500732 0.0 0.0 0.0 0.0
2.917 -0.09032470732927322 0.2972477078437805 -0.49341705441474915 -0.5766988396644592 0.0 0.0 0.0 0.0
2.918 -0.09161015599966049 0.29758310317993164 -0.5027328133583069 -0.5679874420166016 0.0 0.0 0.0 0.0
2.919 -0.08486033231019974 0.30194079875946045 -0.5201355218887329 -0.5495833158493042 0.0 0.0 0.0 0.0
2.92 -0.09168785810470581 0.30182620882987976 -0.5366217494010925 -0.5386924147605896 0.0 0.0 0.0 0.0
2.921 -0.08186811208724976 0.30757537484169006 -0.5688288807868958 -0.5034999847412109 0.0 0.0 0.0 0.0
2.922 -0.0895363837480545 0.3041180670261383 -0.5668753981590271 -0.5061566829681396 0.0 0.0 0.0 0.0
2.923 -0.08076296001672745 0.31262245774269104 -0.6020556688308716 -0.4595058262348175 0.0 0.0 0.0 0.0
2.924 -0.08041936159133911 0.31117239594459534 -0.6032572984695435 -0.4532977044582367 0.0 0.0 0.0 0.0
2.925 -0.07186044752597809 0.3155253529548645 -0.6344763040542603 -0.4157925248146057 0.0 0.0 0.0 0.0
2.926 -0.07908308506011963 0.31436479091644287 -0.629993200302124 -0.4171135127544403 0.0 0.0 0.0 0.0
2.927 -0.07341373711824417 0.31954026222229004 -0.6526575684547424 -0.38395583629608154 0.0 0.0 0.0 0.0
2.928 -0.0731496661901474 0.32165810465812683 -0.6614030599594116 -0.35914766788482666 0.0 0.0 0.0 0.0
2.929 -0.07087411731481552 0.3254748582839966 -0.6756974458694458 -0.33323654532432556 0.0 0.0 0.0 0.0
2.93 -0.06878287345170975 0.3262275159358978 -0.6750997304916382 -0.3289593458175659 0.0 0.0 0.0 0.0
2.931 -0.05928217992186546 0.33099764585494995 -0.6933047771453857 -0.288912296295166 0.0 0.0 0.0 0.0
2.932 -0.06147327646613121 0.3334556519985199 -0.6971765756607056 -0.27126696705818176 0.0 0.0 0.0 0.0
2.933 -0.058317530900239944 0.3346743881702423 -0.7152496576309204 -0.22945915162563324 0.0 0.0 0.0 0.0
2.934 -0.06312476843595505 0.33516836166381836 -0.7129349112510681 -0.2227780818939209 0.0 0.0 0.0 0.0
2.935 -0.05472089722752571 0.3391445577144623 -0.7248851656913757 -0.18383121490478516 0.0 0.0 0.0 0.0
2.936 -0.05397604778409004 0.33952683210372925 -0.7216550707817078 -0.17624013125896454 0.0 0.0 0.0 0.0
2.937 -0.04561200737953186 0.3453075587749481 -0.7322055101394653 -0.13233546912670135 0.0 0.0 0.0 0.0
2.938 -0.05105104297399521 0.34419941902160645 -0.7325001358985901 -0.12797749042510986 0.0 0.0 0.0 0.0
2.939 -0.04677717015147209 0.34852567315101624 -0.7375835180282593 -0.09935244917869568 0.0 0.0 0.0 0.0
2.94 -0.050507064908742905 0.34934306144714355 -0.7352993488311768 -0.06664090603590012 0.0 0.0 0.0 0.0
2.941 -0.04098169505596161 0.3541853725910187 -0.7412087321281433 -0.042665399610996246 0.0 0.0 0.0 0.0
2.942 -0.03705800324678421 0.3546451926231384 -0.7352821826934814 -0.027262775227427483 0.0 0.0 0.0 0.0
2.943 -0.025102419778704643 0.3579563796520233 -0.7365511655807495 0.014332081191241741 0.0 0.0 0.0 0.0
2.944 -0.02821342460811138 0.3614649772644043 -0.7358841896057129 0.023733699694275856 0.0 0.0 0.0 0.0
2.945 -0.029557080939412117 0.3643275499343872 -0.7335825562477112 0.05355197563767433 0.0 0.0 0.0 0.0
2.946 -0.014681249856948853 0.3668874502182007 -0.7263621091842651 0.08061998337507248 0.0 0.0 0.0 0.0
2.947 -0.0195186547935009 0.36685770750045776 -0.7245121002197266 0.10632040351629257 0.0 0.0 0.0 0.0
2.948 -0.018722256645560265 0.3699548542499542 -0.7187072038650513 0.11545659601688385 0.0 0.0 0.0 0.0
2.949 -0.01581565849483013 0.37174469232559204 -0.7144502997398376 0.15837231278419495 0.0 0.0 0.0 0.0
2.95 -0.010132699273526669 0.3743624687194824 -0.7081251740455627 0.1620093733072281 0.0 0.0 0.0 0.0
2.951 -0.0066555701196193695 0.37605202198028564 -0.6995077729225159 0.19534432888031006 0.0 0.0 0.0 0.0
2.952 0.0010200422257184982 0.37785857915878296 -0.6951837539672852 0.2104564607143402 0.0 0.0 0.0 0.0
2.953 0.004691092297434807 0.380657821893692 -0.6730936169624329 0.27099254727363586 0.0 0.0 0.0 0.0
2.954 0.01354579534381628 0.3808578848838806 -0.6737372279167175 0.2676961123943329 0.0 0.0 0.0 0.0
2.955 0.011128970421850681 0.38371962308883667 -0.6665084958076477 0.2817530035972595 0.0 0.0 0.0 0.0
2.956 0.02347860485315323 0.38484248518943787 -0.6491062641143799 0.3127405345439911 0.0 0.0 0.0 0.0
2.957 0.023301811888813972 0.3862318992614746 -0.6448358297348022 0.3220958411693573 0.0 0.0 0.0 0.0
2.958 0.036171723157167435 0.3860882818698883 -0.6290112733840942 0.34683749079704285 0.0 0.0 0.0 0.0
2.959 0.03339838236570358 0.38813120126724243 -0.6253235936164856 0.3569808304309845 0.0 0.0 0.0 0.0
2.96 0.045754726976156235 0.38736629486083984 -0.6020873188972473 0.3880949914455414 0.0 0.0 0.0 0.0
2.961 0.04971648007631302 0.3893265128135681 -0.5898140072822571 0.4034089148044586 0.0 0.0 0.0 0.0
2.962 0.051826559007167816 0.39045989513397217 -0.5723956823348999 0.43093788623809814 0.0 0.0 0.0 0.0
2.963 0.05376804247498512 0.39064741134643555 -0.5675535798072815 0.4335680902004242 0.0 0.0 0.0 0.0
2.964 0.07462331652641296 0.38518983125686646 -0.5366525650024414 0.46742013096809387 0.0 0.0 0.0 0.0
2.965 0.06850192695856094 0.38861796259880066 -0.5370191931724548 0.4648732542991638 0.0 0.0 0.0 0.0
2.966 0.07829702645540237 0.3881853222846985 -0.5108467936515808 0.4968692362308502 0.0 0.0 0.0 0.0
2.967 0.07786569744348526 0.3918110132217407 -0.5068537592887878 0.5009858012199402 0.0 0.0 0.0 0.0
2.968 0.08802724629640579 0.3862784802913666 -0.4764043390750885 0.5279679298400879 0.0 0.0 0.0 0.0
2.969 0.0940135270357132 0.38640472292900085 -0.4706399142742157 0.5294427275657654 0.0 0.0 0.0 0.0
2.97 0.09571356326341629 0.3870657682418823 -0.4425049424171448 0.5532976984977722 0.0 0.0 0.0 0.0
2.971 0.10134460777044296 0.3844328820705414 -0.4362166225910187 0.5550042986869812 0.0 0.0 0.0 0.0
2.972 0.11479908972978592 0.38132041692733765 -0.40389886498451233 0.5827767848968506 0.0 0.0 0.0 0.0
2.973 0.11019078642129898 0.37949252128601074 -0.40403226017951965 0.5796559453010559 0.0 0.0 0.0 0.0
2.974 0.12602108716964722 0.3732784390449524 -0.3601756691932678 0.604697585105896 0.0 0.0 0.0 0.0
2.975 0.12869514524936676 0.3736766278743744 -0.3560425937175751 0.6077734231948853 0.0 0.0 0.0 0.0
2.976 0.13272130489349365 0.3687566816806793 -0.3433063328266144 0.6123876571655273 0.0 0.0 0.0 0.0
2.977 0.14077655971050262 0.36541804671287537 -0.3160938322544098 0.6243065595626831 0.0 0.0 0.0 0.0
2.978 0.15119145810604095 0.3638846278190613 -0.28655073046684265 0.6480522751808167 0.0 0.0 0.0 0.0
2.979 0.15422441065311432 0.3579365313053131 -0.28698429465293884 0.642981767654419 0.0 0.0 0.0 0.0
2.98 0.1603548228740692 0.3575626015663147 -0.24955609440803528 0.6643282771110535 0.0 0.0 0.0 0.0
2.981 0.16472017765045166 0.3509036600589752 -0.23355504870414734 0.6619786620140076 0.0 0.0 0.0 0.0
2.982 0.1763126254081726 0.343558669090271 -0.20306216180324554 0.6762527823448181 0.0 0.0 0.0 0.0
2.983 0.17613491415977478 0.34268882870674133 -0.1904486119747162 0.6779047250747681 0.0 0.0 0.0 0.0
2.984 0.1782633662223816 0.34069880843162537 -0.1674698293209076 0.6859119534492493 0.0 0.0 0.0 0.0
2.985 0.186717689037323 0.33069008588790894 -0.1455957144498825 0.6878154277801514 0.0 0.0 0.0 0.0
2.986 0.18438220024108887 0.3294616937637329 -0.13786213099956512 0.6916095614433289 0.0 0.0 0.0 0.0
2.987 0.19793348014354706 0.31889113783836365 -0.09285431355237961 0.6974223256111145 0.0 0.0 0.0 0.0
2.988 0.20384885370731354 0.3112020790576935 -0.08959951996803284 0.6998745203018188 0.0 0.0 0.0 0.0
2.989 0.20529267191886902 0.30640527606010437 -0.05559241771697998 0.7007501125335693 0.0 0.0 0.0 0.0
2.99 0.20617079734802246 0.30326181650161743 -0.029062671586871147 0.7048437595367432 0.0 0.0 0.0 0.0
2.991 0.21698926389217377 0.2896932363510132 -0.01618731953203678 0.7025665044784546 0.0 0.0 0.0 0.0
2.992 0.2161138504743576 0.28812655806541443 0.017416078597307205 0.7075536251068115 0.0 0.0 0.0 0.0
2.993 0.2225446254014969 0.27890440821647644 0.03314082324504852 0.7060629725456238 0.0 0.0 0.0 0.0
2.994 0.2281607687473297 0.26958152651786804 0.06792798638343811 0.7067962288856506 0.0 0.0 0.0 0.0
2.995 0.22314497828483582 0.26344525814056396 0.07863528281450272 0.6978875994682312 0.0 0.0 0.0 0.0
2.996 0.2235591560602188 0.2607128620147705 0.10711044073104858 0.6999726891517639 0.0 0.0 0.0 0.0
2.997 0.22811336815357208 0.24921146035194397 0.12581419944763184 0.6966580748558044 0.0 0.0 0.0 0.0
2.998 0.2291669398546219 0.24433661997318268 0.1476546674966812 0.6974210143089294 0.0 0.0 0.0 0.0
2.999 0.23424489796161652 0.2342897206544876 0.1785905808210373 0.6841512322425842 0.0 0.0 0.0 0.0
3.0 0.22947430610656738 0.22780925035476685 0.18258380889892578 0.685481071472168 0.0 0.0 0.0 0.0
3.001 0.24430276453495026 0.21432071924209595 0.23005405068397522 0.670613706111908 0.0 0.0 0.0 0.0
3.002 0.24749299883842468 0.20343221724033356 0.25426581501960754 0.6591514348983765 0.0 0.0 0.0 0.0
3.003 0.2441103309392929 0.19888858497142792 0.26209399104118347 0.6607678532600403 0.0 0.0 0.0 0.0
3.004 0.24787352979183197 0.1862887293100357 0.2985127568244934 0.6448391079902649 0.0 0.0 0.0 0.0
3.005 0.24258556962013245 0.18423540890216827 0.30546513199806213 0.6454623937606812 0.0 0.0 0.0 0.0
3.006 0.244536891579628 0.17149195075035095 0.3487788736820221 0.6214888095855713 0.0 0.0 0.0 0.0
3.007 0.24152378737926483 0.16353468596935272 0.35428375005722046 0.6208941340446472 0.0 0.0 0.0 0.0
3.008 0.24063709378242493 0.1521790474653244 0.38111260533332825 0.6010811924934387 0.0 0.0 0.0 0.0
3.009 0.23987895250320435 0.14197519421577454 0.40447738766670227 0.5932767987251282 0.0 0.0 0.0 0.0
3.01 0.23620787262916565 0.1364324986934662 0.4265120327472687 0.5760714411735535 0.0 0.0 0.0 0.0
3.011 0.2298346608877182 0.12899887561798096 0.43050417304039 0.5714824795722961 0.0 0.0 0.0 0.0
3.012 0.23251689970493317 0.11264815181493759 0.46796879172325134 0.5426309108734131 0.0 0.0 0.0 0.0
3.013 0.22238683700561523 0.11478114873170853 0.46795883774757385 0.5431544184684753 0.0 0.0 0.0 0.0
3.014 0.22127112746238708 0.09949764609336853 0.5013454556465149 0.5145702362060547 0.0 0.0 0.0 0.0
3.015 0.21529299020767212 0.09858178347349167 0.5057784914970398 0.511583685874939 0.0 0.0 0.0 0.0
3.016 0.21118101477622986 0.08596455305814743 0.536213755607605 0.4759455919265747 0.0 0.0 0.0 0.0
3.017 0.20318937301635742 0.07973306626081467 0.536639928817749 0.4724212884902954 0.0 0.0 0.0 0.0
3.018 0.19954976439476013 0.07448504120111465 0.5607441663742065 0.45234981179237366 0.0 0.0 0.0 0.0
3.019 0.19134321808815002 0.06727105379104614 0.5652327537536621 0.44237518310546875 0.0 0.0 0.0 0.0
3.02 0.18949192762374878 0.05899422988295555 0.5958989858627319 0.41018959879875183 0.0 0.0 0.0 0.0
3.021 0.17920394241809845 0.054029591381549835 0.5972368121147156 0.4008917808532715 0.0 0.0 0.0 0.0
3.022 0.1750851571559906 0.04364192113280296 0.6253835558891296 0.3555179834365845 0.0 0.0 0.0 0.0
3.023 0.1664140671491623 0.04289639741182327 0.6206117868423462 0.35951751470565796 0.0 0.0 0.0 0.0
3.024 0.16185235977172852 0.03297589719295502 0.6541179418563843 0.3052729070186615 0.0 0.0 0.0 0.0
3.025 0.14991241693496704 0.03243379294872284 0.642998456954956 0.31874752044677734 0.0 0.0 0.0 0.0
3.026 0.1457502245903015 0.022913873195648193 0.6656869053840637 0.2763154208660126 0.0 0.0 0.0 0.0
3.027 0.13477525115013123 0.02004479430615902 0.6655608415603638 0.27514174580574036 0.0 0.0 0.0 0.0
3.028 0.1288130283355713 0.014029007405042648 0.6878671050071716 0.22780148684978485 0.0 0.0 0.0 0.0
3.029 0.11802677810192108 0.013917006552219391 0.6815668344497681 0.22446392476558685 0.0 0.0 0.0 0.0
3.03 0.11043690145015717 0.012211410328745842 0.6881759762763977 0.2123951017856598 0.0 0.0 0.0 0.0
3.031 0.10416547954082489 0.006325538270175457 0.6952943205833435 0.1696232557296753 0.0 0.0 0.0 0.0
3.032 0.09571199864149094 0.005515705794095993 0.7060058116912842 0.14279574155807495 0.0 0.0 0.0 0.0
3.033 0.08538147062063217 0.00023659225553274155 0.7073365449905396 0.11005643755197525 0.0 0.0 0.0 0.0
3.034 0.07861364632844925 0.0007669273763895035 0.7133514881134033 0.09846974164247513 0.0 0.0 0.0 0.0
3.035 0.06969399750232697 -0.00046500377357006073 0.7091315984725952 0.06621755659580231 0.0 0.0 0.0 0.0
3.036 0.061171755194664 -0.002086229622364044 0.7151656746864319 0.06235932186245918 0.0 0.0 0.0 0.0
3.037 0.052268777042627335 -0.003389231860637665 0.7165472507476807 0.0177365280687809 0.0 0.0 0.0 0.0
3.038 0.043175097554922104 -0.0021758554503321648 0.718646228313446 0.0009234584867954254 0.0 0.0 0.0 0.0
3.039 0.03673252835869789 -0.002020922489464283 0.7137279510498047 -0.03564657270908356 0.0 0.0 0.0 0.0
3.04 0.027638690546154976 -0.0025446414947509766 0.7160428166389465 -0.047914888709783554 0.0 0.0 0.0 0.0
3.041 0.018344758078455925 -0.0006543463096022606 0.7051091194152832 -0.0877789855003357 0.0 0.0 0.0 0.0
3.042 0.011492501012980938 9.214319288730621e-05 0.7065205574035645 -0.08775477856397629 0.0 0.0 0.0 0.0
3.043 0.004534812644124031 0.0013315407559275627 0.7024996280670166 -0.13276074826717377 0.0 0.0 0.0 0.0
3.044 -0.0035207532346248627 0.0036367587745189667 0.6978139281272888 -0.1439046859741211 0.0 0.0 0.0 0.0
3.045 -0.01150599680840969 0.004542158916592598 0.6869677901268005 -0.18497169017791748 0.0 0.0 0.0 0.0
3.046 -0.019300900399684906 0.008312336169183254 0.6855366230010986 -0.18480180203914642 0.0 0.0 0.0 0.0
3.047 -0.02487875707447529 0.010427480563521385 0.6744727492332458 -0.2250968962907791 0.0 0.0 0.0 0.0
3.048 -0.03269559144973755 0.013820892199873924 0.6702566742897034 -0.23338568210601807 0.0 0.0 0.0 0.0
3.049 -0.04001566395163536 0.017391376197338104 0.6521072387695312 -0.2727547585964203 0.0 0.0 0.0 0.0
3.05 -0.04607124626636505 0.019150590524077415 0.6566389203071594 -0.271855890750885 0.0 0.0 0.0 0.0
3.051 -0.05380459129810333 0.02188470959663391 0.6303456425666809 -0.31871557235717773 0.0 0.0 0.0 0.0
3.052 -0.05996226146817207 0.026832377538084984 0.6273983120918274 -0.31735852360725403 0.0 0.0 0.0 0.0
3.053 -0.0662320926785469 0.03150700032711029 0.6081342697143555 -0.3565828502178192 0.0 0.0 0.0 0.0
3.054 -0.07032544910907745 0.033950407058000565 0.6027081608772278 -0.36384546756744385 0.0 0.0 0.0 0.0
3.055 -0.07561308145523071 0.038018446415662766 0.5838034152984619 -0.3965938091278076 0.0 0.0 0.0 0.0
3.056 -0.08095099776983261 0.04289194568991661 0.5791106820106506 -0.3986347019672394 0.0 0.0 0.0 0.0
3.057 -0.0876844972372055 0.047105733305215836 0.5472630858421326 -0.43417567014694214 0.0 0.0 0.0 0.0
3.058 -0.09233596920967102 0.051693614572286606 0.5471944808959961 -0.4393564760684967 0.0 0.0 0.0 0.0
3.059 -0.09578961133956909 0.05793478712439537 0.5186142325401306 -0.4679657518863678 0.0 0.0 0.0 0.0
3.06 -0.10180512070655823 0.05922411009669304 0.5202769041061401 -0.4626656174659729 0.0 0.0 0.0 0.0
3.061 -0.10201935470104218 0.06712397187948227 0.4853314757347107 -0.4983232915401459 0.0 0.0 0.0 0.0
3.062 -0.10911235958337784 0.0700361579656601 0.48336005210876465 -0.497540682554245 0.0 0.0 0.0 0.0
3.063 -0.1090051680803299 0.07919199764728546 0.44869375228881836 -0.5237389206886292 0.0 0.0 0.0 0.0
3.064 -0.1155708059668541 0.08096683025360107 0.44512367248535156 -0.5282622575759888 0.0 0.0 0.0 0.0
3.065 -0.11601021140813828 0.08633603155612946 0.4118023216724396 -0.5594541430473328 0.0 0.0 0.0 0.0
3.066 -0.12055949866771698 0.09164052456617355 0.4030633866786957 -0.5568570494651794 0.0 0.0 0.0 0.0
3.067 -0.12325643002986908 0.09521029889583588 0.3710600435733795 -0.5829983949661255 0.0 0.0 0.0 0.0
3.068 -0.1275085210800171 0.0994320958852768 0.368937611579895 -0.577231764793396 0.0 0.0 0.0 0.0
3.069 -0.126320481300354 0.10600033402442932 0.33347663283348083 -0.6039846539497375 0.0 0.0 0.0 0.0
3.07 -0.1317194253206253 0.10817157477140427 0.3273012042045593 -0.602906346321106 0.0 0.0 0.0 0.0
3.071 -0.13215187191963196 0.11833561956882477 0.2884006202220917 -0.6228248476982117 0.0 0.0 0.0 0.0
3.072 -0.13837555050849915 0.11721165478229523 0.3009130656719208 -0.6170650124549866 0.0 0.0 0.0 0.0
3.073 -0.13423418998718262 0.1261569857597351 0.2406025528907776 -0.6364708542823792 0.0 0.0 0.0 0.0
3.074 -0.13833670318126678 0.12629225850105286 0.24336957931518555 -0.6352342367172241 0.0 0.0 0.0 0.0
3.075 -0.13740533590316772 0.13406623899936676 0.20952986180782318 -0.6467570662498474 0.0 0.0 0.0 0.0
3.076 -0.1415310949087143 0.13738416135311127 0.20469188690185547 -0.6476824283599854 0.0 0.0 0.0 0.0
3.077 -0.13986928761005402 0.1433124840259552 0.16086047887802124 -0.6576658487319946 0.0 0.0 0.0 0.0
3.078 -0.13964848220348358 0.14872385561466217 0.1514708697795868 -0.658020555973053 0.0 0.0 0.0 0.0
3.079 -0.14319494366645813 0.15051595866680145 0.11847428232431412 -0.66327303647995 0.0 0.0 0.0 0.0
3.08 -0.14208175241947174 0.15744845569133759 0.09773494303226471 -0.663287341594696 0.0 0.0 0.0 0.0
3.081 -0.1434016227722168 0.161224365234375 0.0813903734087944 -0.6659374833106995 0.0 0.0 0.0 0.0
3.082 -0.14486365020275116 0.16646850109100342 0.05124698951840401 -0.6675893068313599 0.0 0.0 0.0 0.0
3.083 -0.14618699252605438 0.16962720453739166 0.03471078351140022 -0.6704972982406616 0.0 0.0 0.0 0.0
3.084 -0.14730031788349152 0.1741308867931366 -0.0013467902317643166 -0.6639455556869507 0.0 0.0 0.0 0.0
3.085 -0.14996753633022308 0.17686937749385834 -0.00419141910970211 -0.667932391166687 0.0 0.0 0.0 0.0
3.086 -0.1454789787530899 0.18387676775455475 -0.03401697799563408 -0.6639347672462463 0.0 0.0 0.0 0.0
3.087 -0.14689980447292328 0.18572689592838287 -0.04919661954045296 -0.6630380749702454 0.0 0.0 0.0 0.0
3.088 -0.1466413140296936 0.1906304657459259 -0.08257969468832016 -0.6563333868980408 0.0 0.0 0.0 0.0
3.089 -0.14900526404380798 0.19443778693675995 -0.09397456794977188 -0.654009222984314 0.0 0.0 0.0 0.0
3.09 -0.14976263046264648 0.198960080742836 -0.12213530391454697 -0.6449223160743713 0.0 0.0 0.0 0.0
3.091 -0.15170074999332428 0.2014896720647812 -0.12964379787445068 -0.6425100564956665 0.0 0.0 0.0 0.0
3.092 -0.14760752022266388 0.21127614378929138 -0.17218033969402313 -0.6314283013343811 0.0 0.0 0.0 0.0
3.093 -0.15118330717086792 0.2096807360649109 -0.17214435338974 -0.6279191374778748 0.0 0.0 0.0 0.0
3.094 -0.14773480594158173 0.21801812946796417 -0.21317653357982635 -0.6189368963241577 0.0 0.0 0.0 0.0
3.095 -0.15029285848140717 0.21877877414226532 -0.21304425597190857 -0.6155532002449036 0.0 0.0 0.0 0.0
3.096 -0.14858455955982208 0.2252431958913803 -0.24830251932144165 -0.6004270911216736 0.0 0.0 0.0 0.0
3.097 -0.14846229553222656 0.22888079285621643 -0.2550452947616577 -0.5931603908538818 0.0 0.0 0.0 0.0
3.098 -0.14813756942749023 0.23258644342422485 -0.281819611787796 -0.5817674398422241 0.0 0.0 0.0 0.0
3.099 -0.14860495924949646 0.23568443953990936 -0.2921277582645416 -0.5745903849601746 0.0 0.0 0.0 0.0
3.1 -0.1445433646440506 0.24472203850746155 -0.32919734716415405 -0.5541327595710754 0.0 0.0 0.0 0.0
3.101 -0.14504294097423553 0.24669517576694489 -0.3360591530799866 -0.5454956889152527 0.0 0.0 0.0 0.0
3.102 -0.14407750964164734 0.2510545253753662 -0.3546884059906006 -0.53472900390625 0.0 0.0 0.0 0.0
3.103 -0.14359861612319946 0.2539523243904114 -0.35525643825531006 -0.5283631086349487 0.0 0.0 0.0 0.0
3.104 -0.14257767796516418 0.25812244415283203 -0.38594675064086914 -0.5082553029060364 0.0 0.0 0.0 0.0
3.105 -0.14270171523094177 0.2619721591472626 -0.3910689651966095 -0.49902865290641785 0.0 0.0 0.0 0.0
3.106 -0.1395508050918579 0.2667078673839569 -0.41328397393226624 -0.4759386479854584 0.0 0.0 0.0 0.0
3.107 -0.14079880714416504 0.2727234661579132 -0.42082297801971436 -0.4663522243499756 0.0 0.0 0.0 0.0
3.108 -0.14252066612243652 0.2770318388938904 -0.44083458185195923 -0.4532153606414795 0.0 0.0 0.0 0.0
3.109 -0.13723687827587128 0.28125256299972534 -0.45022743940353394 -0.4362505376338959 0.0 0.0 0.0 0.0
3.11 -0.1309945285320282 0.29175230860710144 -0.47687679529190063 -0.4065782129764557 0.0 0.0 0.0 0.0
3.111 -0.13486558198928833 0.2920628786087036 -0.4716928005218506 -0.4076760411262512 0.0 0.0 0.0 0.0
3.112 -0.13137418031692505 0.2962969243526459 -0.49370166659355164 -0.38034749031066895 0.0 0.0 0.0 0.0
3.113 -0.13134190440177917 0.29756787419319153 -0.4876725375652313 -0.3786836564540863 0.0 0.0 0.0 0.0
3.114 -0.1266307830810547 0.30703216791152954 -0.5173304080963135 -0.3410656154155731 0.0 0.0 0.0 0.0
3.115 -0.12507851421833038 0.3083183765411377 -0.5107417106628418 -0.3397098183631897 0.0 0.0 0.0 0.0
3.116 -0.12337641417980194 0.317104309797287 -0.5294002890586853 -0.31457406282424927 0.0 0.0 0.0 0.0
3.117 -0.11929652839899063 0.3189547061920166 -0.5301358699798584 -0.30308064818382263 0.0 0.0 0.0 0.0
3.118 -0.11754972487688065 0.3231075704097748 -0.5429450869560242 -0.2799285650253296 0.0 0.0 0.0 0.0
3.119 -0.11500688642263412 0.32705017924308777 -0.5434648394584656 -0.26876595616340637 0.0 0.0 0.0 0.0
3.12 -0.10820667445659637 0.3349132537841797 -0.5572577118873596 -0.2405383139848709 0.0 0.0 0.0 0.0
3.121 -0.10733310133218765 0.33699846267700195 -0.5569512844085693 -0.23200570046901703 0.0 0.0 0.0 0.0
3.122 -0.10869064182043076 0.34062787890434265 -0.5576290488243103 -0.23097504675388336 0.0 0.0 0.0 0.0
3.123 -0.09704659134149551 0.34592491388320923 -0.5664492249488831 -0.18771255016326904 0.0 0.0 0.0 0.0
3.124 -0.09837457537651062 0.35001975297927856 -0.5745241045951843 -0.1787520945072174 0.0 0.0 0.0 0.0
3.125 -0.08901815116405487 0.3544197380542755 -0.5754238963127136 -0.15143118798732758 0.0 0.0 0.0 0.0
3.126 -0.08969923853874207 0.3580971956253052 -0.5795594453811646 -0.14002202451229095 0.0 0.0 0.0 0.0
3.127 -0.07882942259311676 0.3638085424900055 -0.5841795206069946 -0.11208384484052658 0.0 0.0 0.0 0.0
3.128 -0.08330768346786499 0.3659352660179138 -0.5834489464759827 -0.11012427508831024 0.0 0.0 0.0 0.0
3.129 -0.06823417544364929 0.37056732177734375 -0.5863944888114929 -0.07417871057987213 0.0 0.0 0.0 0.0
3.13 -0.07264437526464462 0.3725005090236664 -0.5826053023338318 -0.0749555379152298 0.0 0.0 0.0 0.0
3.131 -0.058449894189834595 0.3766590356826782 -0.5852203965187073 -0.040221620351076126 0.0 0.0 0.0 0.0
3.132 -0.05820305645465851 0.3805508613586426 -0.5833495259284973 -0.03969850391149521 0.0 0.0 0.0 0.0
3.133 -0.04617851972579956 0.38637882471084595 -0.5824666023254395 -0.0009510302916169167 0.0 0.0 0.0 0.0
3.134 -0.044205039739608765 0.3865247666835785 -0.5797889232635498 0.0007132198661565781 0.0 0.0 0.0 0.0
3.135 -0.034243617206811905 0.391340434551239 -0.5781049132347107 0.032505471259355545 0.0 0.0 0.0 0.0
3.136 -0.03673664852976799 0.3917789161205292 -0.5796167850494385 0.032534465193748474 0.0 0.0 0.0 0.0
3.137 -0.021253325045108795 0.39640554785728455 -0.5758945941925049 0.06776373833417892 0.0 0.0 0.0 0.0
3.138 -0.022580651566386223 0.3969480097293854 -0.5721796751022339 0.06583918631076813 0.0 0.0 0.0 0.0
3.139 -0.010190526954829693 0.3990632891654968 -0.5677807927131653 0.09741939604282379 0.0 0.0 0.0 0.0
3.14 -0.009038723073899746 0.3995959162712097 -0.567034900188446 0.09798633307218552 0.0 0.0 0.0 0.0
3.141 0.004744239151477814 0.4024803042411804 -0.5586093664169312 0.1324581354856491 0.0 0.0 0.0 0.0
3.142 0.005893878638744354 0.4044838547706604 -0.5530787110328674 0.13494880497455597 0.0 0.0 0.0 0.0
3.143 0.020384278148412704 0.40638476610183716 -0.5473528504371643 0.1650509387254715 0.0 0.0 0.0 0.0
3.144 0.022759195417165756 0.40586477518081665 -0.5447620153427124 0.16574367880821228 0.0 0.0 0.0 0.0
3.145 0.034889157861471176 0.40549513697624207 -0.5325180292129517 0.19770164787769318 0.0 0.0 0.0 0.0
3.146 0.036579690873622894 0.40558260679244995 -0.5318995714187622 0.19748172163963318 0.0 0.0 0.0 0.0
3.147 0.04798177257180214 0.4064178168773651 -0.5227672457695007 0.22489075362682343 0.0 0.0 0.0 0.0
3.148 0.05705439671874046 0.404384970664978 -0.5149534940719604 0.2344491183757782 0.0 0.0 0.0 0.0
3.149 0.062107257544994354 0.4068273603916168 -0.5076819062232971 0.2551281452178955 0.0 0.0 0.0 0.0
3.15 0.07149855047464371 0.40218740701675415 -0.502784013748169 0.2570982575416565 0.0 0.0 0.0 0.0
3.151 0.07849059253931046 0.4022136330604553 -0.49080681800842285 0.2826215624809265 0.0 0.0 0.0 0.0
3.152 0.08742165565490723 0.3989633321762085 -0.48208117485046387 0.28689488768577576 0.0 0.0 0.0 0.0
3.153 0.09218338876962662 0.40029656887054443 -0.4747467637062073 0.30592843890190125 0.0 0.0 0.0 0.0
3.154 0.10520683228969574 0.3949076533317566 -0.4640473425388336 0.3179354965686798 0.0 0.0 0.0 0.0
3.155 0.11102752387523651 0.3944408893585205 -0.4504593014717102 0.3387213945388794 0.0 0.0 0.0 0.0
3.156 0.11785925924777985 0.3878204822540283 -0.4492315948009491 0.335222065448761 0.0 0.0 0.0 0.0
3.157 0.12909169495105743 0.38628363609313965 -0.4281459450721741 0.3666141927242279 0.0 0.0 0.0 0.0
3.158 0.13216736912727356 0.38190436363220215 -0.425834983587265 0.36097460985183716 0.0 0.0 0.0 0.0
3.159 0.14107158780097961 0.38017386198043823 -0.4103107154369354 0.3837662637233734 0.0 0.0 0.0 0.0
3.16 0.1487252414226532 0.37502458691596985 -0.40305739641189575 0.3894246518611908 0.0 0.0 0.0 0.0
3.161 0.1550929844379425 0.3701466917991638 -0.38511016964912415 0.4087865948677063 0.0 0.0 0.0 0.0
3.162 0.16225391626358032 0.36385223269462585 -0.3758506774902344 0.41168028116226196 0.0 0.0 0.0 0.0
3.163 0.16849274933338165 0.3596425950527191 -0.36392655968666077 0.42666614055633545 0.0 0.0 0.0 0.0
3.164 0.17765359580516815 0.3521152436733246 -0.35182520747184753 0.43341758847236633 0.0 0.0 0.0 0.0
3.165 0.18288448452949524 0.34936073422431946 -0.33647510409355164 0.4474177062511444 0.0 0.0 0.0 0.0
3.166 0.19070535898208618 0.33980393409729004 -0.3215081989765167 0.4557267427444458 0.0 0.0 0.0 0.0
3.167 0.19288308918476105 0.335915744304657 -0.30891677737236023 0.465545117855072 0.0 0.0 0.0 0.0
3.168 0.20039984583854675 0.32858794927597046 -0.30653443932533264 0.4686220586299896 0.0 0.0 0.0 0.0
3.169 0.20340433716773987 0.3241104781627655 -0.29438045620918274 0.4767693281173706 0.0 0.0 0.0 0.0
3.17 0.21693161129951477 0.3134249448776245 -0.26044410467147827 0.4941061735153198 0.0 0.0 0.0 0.0
3.171 0.21506267786026 0.3096427023410797 -0.2635059952735901 0.4928291440010071 0.0 0.0 0.0 0.0
3.172 0.22290298342704773 0.29742631316185 -0.2322826236486435 0.509028971195221 0.0 0.0 0.0 0.0
3.173 0.2234915941953659 0.2931152880191803 -0.23137478530406952 0.5115038752555847 0.0 0.0 0.0 0.0
3.174 0.23254606127738953 0.27944156527519226 -0.1998378187417984 0.5241236686706543 0.0 0.0 0.0 0.0
3.175 0.2325635403394699 0.2736845314502716 -0.20416201651096344 0.5212692618370056 0.0 0.0 0.0 0.0
3.176 0.24036982655525208 0.2623409330844879 -0.1664888560771942 0.5365526080131531 0.0 0.0 0.0 0.0
3.177 0.24169717729091644 0.256979763507843 -0.16772884130477905 0.5361574292182922 0.0 0.0 0.0 0.0
3.178 0.24810287356376648 0.24556033313274384 -0.1378435343503952 0.5467298030853271 0.0 0.0 0.0 0.0
3.179 0.24570880830287933 0.23791247606277466 -0.13586147129535675 0.5452098846435547 0.0 0.0 0.0 0.0
3.18 0.25012946128845215 0.2271527796983719 -0.10495726019144058 0.5559287667274475 0.0 0.0 0.0 0.0
3.181 0.24868524074554443 0.2207087278366089 -0.10348135977983475 0.5521257519721985 0.0 0.0 0.0 0.0
3.182 0.2549664080142975 0.20671091973781586 -0.07112125307321548 0.5618168115615845 0.0 0.0 0.0 0.0
3.183 0.25143465399742126 0.20203709602355957 -0.07175392657518387 0.5583475828170776 0.0 0.0 0.0 0.0
3.184 0.25331440567970276 0.19076430797576904 -0.045124806463718414 0.562725305557251 0.0 0.0 0.0 0.0
3.185 0.2534223198890686 0.17947866022586823 -0.03195716813206673 0.5641434192657471 0.0 0.0 0.0 0.0
3.186 0.2526039779186249 0.17138604819774628 -0.006526070646941662 0.5673130750656128 0.0 0.0 0.0 0.0
3.187 0.2500978410243988 0.16224046051502228 4.324223846197128e-05 0.5648818612098694 0.0 0.0 0.0 0.0
3.188 0.25204429030418396 0.15335053205490112 0.026239030063152313 0.5703902244567871 0.0 0.0 0.0 0.0
3.189 0.24879489839076996 0.14232681691646576 0.034487053751945496 0.566480815410614 0.0 0.0 0.0 0.0
3.19 0.24810001254081726 0.13337217271327972 0.05757247284054756 0.5686176419258118 0.0 0.0 0.0 0.0
3.191 0.2439136952161789 0.1230103150010109 0.06925561279058456 0.5641418695449829 0.0 0.0 0.0 0.0
3.192 0.24108603596687317 0.11673321574926376 0.09194938093423843 0.5649346709251404 0.0 0.0 0.0 0.0
3.193 0.23874616622924805 0.10562102496623993 0.10506606847047806 0.5594443082809448 0.0 0.0 0.0 0.0
3.194 0.23465809226036072 0.09718392789363861 0.13048870861530304 0.5583097338676453 0.0 0.0 0.0 0.0
3.195 0.2318243384361267 0.08695396780967712 0.1416657269001007 0.5553004741668701 0.0 0.0 0.0 0.0
3.196 0.22724366188049316 0.08213036507368088 0.16204775869846344 0.5528131127357483 0.0 0.0 0.0 0.0
3.197 0.22237682342529297 0.06931910663843155 0.1771082729101181 0.543140709400177 0.0 0.0 0.0 0.0
3.198 0.21648229658603668 0.0651688501238823 0.19557896256446838 0.544035792350769 0.0 0.0 0.0 0.0
3.199 0.21087327599525452 0.05672680586576462 0.20906850695610046 0.5355851650238037 0.0 0.0 0.0 0.0
3.2 0.20616883039474487 0.05004366859793663 0.2277369499206543 0.5329552292823792 0.0 0.0 0.0 0.0
3.201 0.20146891474723816 0.04031377285718918 0.24437421560287476 0.5231102705001831 0.0 0.0 0.0 0.0
3.202 0.1930098533630371 0.035182107239961624 0.2640753388404846 0.5162028670310974 0.0 0.0 0.0 0.0
3.203 0.18724240362644196 0.029608210548758507 0.2703411877155304 0.5112974047660828 0.0 0.0 0.0 0.0
3.204 0.17900177836418152 0.023765088990330696 0.2893212139606476 0.5042095184326172 0.0 0.0 0.0 0.0
3.205 0.17408642172813416 0.016725055873394012 0.30663830041885376 0.49342143535614014 0.0 0.0 0.0 0.0
3.206 0.16540677845478058 0.012729449197649956 0.32209616899490356 0.4859723150730133 0.0 0.0 0.0 0.0
3.207 0.1569782942533493 0.003724374808371067 0.34208887815475464 0.46877631545066833 0.0 0.0 0.0 0.0
3.208 0.15067850053310394 0.0021654190495610237 0.3505895733833313 0.4673961400985718 0.0 0.0 0.0 0.0
3.209 0.1433284878730774 -0.0059089865535497665 0.37189528346061707 0.45042768120765686 0.0 0.0 0.0 0.0
3.21 0.13585980236530304 -0.00674046017229557 0.38066136837005615 0.44514816999435425 0.0 0.0 0.0 0.0
3.211 0.12767529487609863 -0.011332790367305279 0.3988291025161743 0.4257683753967285 0.0 0.0 0.0 0.0
3.212 0.12016363441944122 -0.01131143607199192 0.40601521730422974 0.42295408248901367 0.0 0.0 0.0 0.0
3.213 0.11066433787345886 -0.01586918532848358 0.4250965118408203 0.4010455310344696 0.0 0.0 0.0 0.0
3.214 0.1031545102596283 -0.018616927787661552 0.4183379113674164 0.41249221563339233 0.0 0.0 0.0 0.0
3.215 0.09618443250656128 -0.02089037001132965 0.45507022738456726 0.37235569953918457 0.0 0.0 0.0 0.0
3.216 0.08695922791957855 -0.0217328742146492 0.4526267647743225 0.36910197138786316 0.0 0.0 0.0 0.0
3.217 0.07594069838523865 -0.024552976712584496 0.4780505895614624 0.340606689453125 0.0 0.0 0.0 0.0
3.218 0.06917375326156616 -0.021593593060970306 0.47584179043769836 0.34323206543922424 0.0 0.0 0.0 0.0
3.219 0.05950384587049484 -0.025386851280927658 0.49869340658187866 0.31198960542678833 0.0 0.0 0.0 0.0
3.22 0.05316866189241409 -0.026164444163441658 0.49765342473983765 0.317218154668808 0.0 0.0 0.0 0.0
3.221 0.043584082275629044 -0.02539314702153206 0.5205310583114624 0.27806591987609863 0.0 0.0 0.0 0.0
3.222 0.036467429250478745 -0.025790385901927948 0.5212362408638 0.27900150418281555 0.0 0.0 0.0 0.0
3.223 0.03081066906452179 -0.02114146202802658 0.5364053845405579 0.2515852153301239 0.0 0.0 0.0 0.0
3.224 0.022622354328632355 -0.02303851954638958 0.5355417728424072 0.24652798473834991 0.0 0.0 0.0 0.0
3.225 0.015752311795949936 -0.018241342157125473 0.5509242415428162 0.21818995475769043 0.0 0.0 0.0 0.0
3.226 0.008977711200714111 -0.017093444243073463 0.5533809065818787 0.208967924118042 0.0 0.0 0.0 0.0
3.227 0.00230365339666605 -0.015280493535101414 0.5668734312057495 0.17984893918037415 0.0 0.0 0.0 0.0
3.228 -0.007636580616235733 -0.01405620388686657 0.5665793418884277 0.17191024124622345 0.0 0.0 0.0 0.0
3.229 -0.012961643747985363 -0.010804812423884869 0.5759998559951782 0.14684264361858368 0.0 0.0 0.0 0.0
3.23 -0.01883035898208618 -0.006339937448501587 0.5742106437683105 0.13357600569725037 0.0 0.0 0.0 0.0
3.231 -0.023685211315751076 -0.0038025500252842903 0.5828419923782349 0.11605780571699142 0.0 0.0 0.0 0.0
3.232 -0.029256947338581085 0.00011582951992750168 0.58390212059021 0.10623630881309509 0.0 0.0 0.0 0.0
3.233 -0.03688183054327965 0.001975497230887413 0.5923156142234802 0.07782994955778122 0.0 0.0 0.0 0.0
3.234 -0.04032313451170921 0.004779244773089886 0.5913806557655334 0.06544585525989532 0.0 0.0 0.0 0.0
3.235 -0.044586580246686935 0.011132114566862583 0.5958715677261353 0.042418986558914185 0.0 0.0 0.0 0.0
3.236 -0.049469735473394394 0.014396912418305874 0.5919697284698486 0.025969767943024635 0.0 0.0 0.0 0.0
3.237 -0.05458545312285423 0.01814974844455719 0.597674548625946 0.006907975301146507 0.0 0.0 0.0 0.0
3.238 -0.059687841683626175 0.02388538420200348 0.5945179462432861 -0.016503281891345978 0.0 0.0 0.0 0.0
3.239 -0.06340555846691132 0.027379702776670456 0.597533643245697 -0.028552258387207985 0.0 0.0 0.0 0.0
3.24 -0.06607477366924286 0.03044990263879299 0.5935034155845642 -0.054738353937864304 0.0 0.0 0.0 0.0
3.241 -0.07072015851736069 0.03435998037457466 0.596122145652771 -0.06707785278558731 0.0 0.0 0.0 0.0
3.242 -0.07340192794799805 0.04086882621049881 0.5914393663406372 -0.09206128865480423 0.0 0.0 0.0 0.0
3.243 -0.07521952688694 0.04443633183836937 0.5916317105293274 -0.10301214456558228 0.0 0.0 0.0 0.0
3.244 -0.07661356776952744 0.04992806911468506 0.5867137908935547 -0.12566283345222473 0.0 0.0 0.0 0.0
3.245 -0.08076853305101395 0.053735267370939255 0.5849218964576721 -0.13834333419799805 0.0 0.0 0.0 0.0
3.246 -0.08182327449321747 0.05703764036297798 0.5781578421592712 -0.1638740599155426 0.0 0.0 0.0 0.0
3.247 -0.08651691675186157 0.06075006723403931 0.5756478905677795 -0.17993301153182983 0.0 0.0 0.0 0.0
3.248 -0.08571166545152664 0.0657908022403717 0.5681262016296387 -0.20083777606487274 0.0 0.0 0.0 0.0
3.249 -0.08872809261083603 0.06982970237731934 0.5625219345092773 -0.21212270855903625 0.0 0.0 0.0 0.0
3.25 -0.09012239426374435 0.07527802139520645 0.5525440573692322 -0.2382747232913971 0.0 0.0 0.0 0.0
3.251 -0.08976727724075317 0.07759172469377518 0.5526544451713562 -0.24659614264965057 0.0 0.0 0.0 0.0
3.252 -0.09041034430265427 0.08146324753761292 0.5427040457725525 -0.2681112587451935 0.0 0.0 0.0 0.0
3.253 -0.09257521480321884 0.08729629963636398 0.53425133228302 -0.28067073225975037 0.0 0.0 0.0 0.0
3.254 -0.09255385398864746 0.08968020975589752 0.5206887125968933 -0.30742859840393066 0.0 0.0 0.0 0.0
3.255 -0.09476976096630096 0.09375882148742676 0.5191678404808044 -0.3172469437122345 0.0 0.0 0.0 0.0
3.256 -0.0932597815990448 0.0997118130326271 0.4967091381549835 -0.33617356419563293 0.0 0.0 0.0 0.0
3.257 -0.09309789538383484 0.1003413274884224 0.49996477365493774 -0.3434161841869354 0.0 0.0 0.0 0.0
3.258 -0.09235960990190506 0.10711640864610672 0.47805532813072205 -0.3709930181503296 0.0 0.0 0.0 0.0
3.259 -0.09432978183031082 0.10670385509729385 0.4747289717197418 -0.37725725769996643 0.0 0.0 0.0 0.0
3.26 -0.0956951230764389 0.11043425649404526 0.474558025598526 -0.3797072172164917 0.0 0.0 0.0 0.0
3.261 -0.09423283487558365 0.11246760934591293 0.45896556973457336 -0.39570334553718567 0.0 0.0 0.0 0.0
3.262 -0.09445850551128387 0.1185610219836235 0.42573750019073486 -0.43427228927612305 0.0 0.0 0.0 0.0
3.263 -0.09295935928821564 0.11855703592300415 0.42508354783058167 -0.43488961458206177 0.0 0.0 0.0 0.0
3.264 -0.09428537636995316 0.12393201142549515 0.4064687192440033 -0.45345520973205566 0.0 0.0 0.0 0.0
3.265 -0.09335178136825562 0.1270398497581482 0.3963358402252197 -0.45821699500083923 0.0 0.0 0.0 0.0
3.266 -0.09517478942871094 0.12758898735046387 0.3804224133491516 -0.47814464569091797 0.0 0.0 0.0 0.0
3.267 -0.09365958720445633 0.12901727855205536 0.36951741576194763 -0.48342183232307434 0.0 0.0 0.0 0.0
3.268 -0.09148401767015457 0.13367050886154175 0.3466236889362335 -0.5034188628196716 0.0 0.0 0.0 0.0
3.269 -0.09138573706150055 0.13781167566776276 0.3309129774570465 -0.5109367370605469 0.0 0.0 0.0 0.0
3.27 -0.09246808290481567 0.137466162443161 0.32448679208755493 -0.5269063711166382 0.0 0.0 0.0 0.0
3.271 -0.09158927947282791 0.14111833274364471 0.30476081371307373 -0.5285444259643555 0.0 0.0 0.0 0.0
3.272 -0.09406252205371857 0.14067208766937256 0.29235538840293884 -0.5434836149215698 0.0 0.0 0.0 0.0
3.273 -0.09092795103788376 0.14612101018428802 0.26903674006462097 -0.5476027131080627 0.0 0.0 0.0 0.0
3.274 -0.09134168177843094 0.14760075509548187 0.2552649974822998 -0.5596051216125488 0.0 0.0 0.0 0.0
3.275 -0.08875466138124466 0.15042561292648315 0.22799697518348694 -0.5659235715866089 0.0 0.0 0.0 0.0
3.276 -0.09247064590454102 0.1518566906452179 0.2247655838727951 -0.5765484571456909 0.0 0.0 0.0 0.0
3.277 -0.0892445519566536 0.15338781476020813 0.19712524116039276 -0.5788368582725525 0.0 0.0 0.0 0.0
3.278 -0.09246412664651871 0.15592683851718903 0.18442833423614502 -0.5879697203636169 0.0 0.0 0.0 0.0
3.279 -0.09071248024702072 0.15891921520233154 0.15611675381660461 -0.595841646194458 0.0 0.0 0.0 0.0
3.28 -0.0926135778427124 0.15864896774291992 0.15205201506614685 -0.6032894849777222 0.0 0.0 0.0 0.0
3.281 -0.09019389003515244 0.16128942370414734 0.11557303369045258 -0.6087059378623962 0.0 0.0 0.0 0.0
3.282 -0.09309865534305573 0.1634771078824997 0.11771222949028015 -0.6106913685798645 0.0 0.0 0.0 0.0
3.283 -0.09003901481628418 0.16779592633247375 0.07509986311197281 -0.6119772791862488 0.0 0.0 0.0 0.0
3.284 -0.09281013906002045 0.16674190759658813 0.08060316741466522 -0.61809903383255 0.0 0.0 0.0 0.0
3.285 -0.09055470675230026 0.17239141464233398 0.03802035003900528 -0.6183281540870667 0.0 0.0 0.0 0.0
3.286 -0.09319328516721725 0.17152126133441925 0.039166368544101715 -0.6235315203666687 0.0 0.0 0.0 0.0
3.287 -0.08902138471603394 0.17688687145709991 0.005047484301030636 -0.6191999912261963 0.0 0.0 0.0 0.0
3.288 -0.0919409766793251 0.17943379282951355 -0.001711745746433735 -0.6215218901634216 0.0 0.0 0.0 0.0
3.289 -0.08958558738231659 0.1817709356546402 -0.03409072756767273 -0.6258168816566467 0.0 0.0 0.0 0.0
3.29 -0.09438792616128922 0.18428243696689606 -0.03746701404452324 -0.6209216713905334 0.0 0.0 0.0 0.0
3.291 -0.09170012921094894 0.18932586908340454 -0.07321367412805557 -0.6187801361083984 0.0 0.0 0.0 0.0
3.292 -0.09306543320417404 0.1910838782787323 -0.07573198527097702 -0.6170171499252319 0.0 0.0 0.0 0.0
3.293 -0.08823608607053757 0.19394919276237488 -0.1126636490225792 -0.6181806921958923 0.0 0.0 0.0 0.0
3.294 -0.09350240230560303 0.1957891434431076 -0.11418455094099045 -0.6156215071678162 0.0 0.0 0.0 0.0
3.295 -0.09096084535121918 0.20204903185367584 -0.15441101789474487 -0.6111956238746643 0.0 0.0 0.0 0.0
3.296 -0.08854085206985474 0.20333752036094666 -0.15524724125862122 -0.60743248462677 0.0 0.0 0.0 0.0
3.297 -0.08627083152532578 0.20698830485343933 -0.19310908019542694 -0.600728452205658 0.0 0.0 0.0 0.0
3.298 -0.08966493606567383 0.21060919761657715 -0.18768583238124847 -0.5982169508934021 0.0 0.0 0.0 0.0
3.299 -0.084091417491436 0.21732404828071594 -0.2318767011165619 -0.5848814249038696 0.0 0.0 0.0 0.0
3.3 -0.08976439386606216 0.21717281639575958 -0.22806450724601746 -0.5876041054725647 0.0 0.0 0.0 0.0
3.301 -0.0833834782242775 0.22566746175289154 -0.26878106594085693 -0.570927619934082 0.0 0.0 0.0 0.0
3.302 -0.08538331836462021 0.22645717859268188 -0.2628861665725708 -0.5725688934326172 0.0 0.0 0.0 0.0
3.303 -0.08309148997068405 0.2317546010017395 -0.3018316328525543 -0.5582169890403748 0.0 0.0 0.0 0.0
3.304 -0.08269856870174408 0.23056696355342865 -0.3015732169151306 -0.5569736957550049 0.0 0.0 0.0 0.0
3.305 -0.07997617870569229 0.23853224515914917 -0.3402787744998932 -0.5360159873962402 0.0 0.0 0.0 0.0
3.306 -0.07360214740037918 0.2434391975402832 -0.3496183156967163 -0.5313429236412048 0.0 0.0 0.0 0.0
3.307 -0.07528893649578094 0.2452937215566635 -0.36652788519859314 -0.5230490565299988 0.0 0.0 0.0 0.0
3.308 -0.07192408293485641 0.248246431350708 -0.37360283732414246 -0.5121095180511475 0.0 0.0 0.0 0.0
3.309 -0.067601278424263 0.25430649518966675 -0.4018166661262512 -0.4978656470775604 0.0 0.0 0.0 0.0
3.31 -0.0665593147277832 0.2565176784992218 -0.40002506971359253 -0.494071900844574 0.0 0.0 0.0 0.0
3.311 -0.0647377148270607 0.26119372248649597 -0.42786890268325806 -0.4775330424308777 0.0 0.0 0.0 0.0
3.312 -0.0578501895070076 0.26520922780036926 -0.43442443013191223 -0.46676942706108093 0.0 0.0 0.0 0.0
3.313 -0.05529289320111275 0.2694447934627533 -0.4547744393348694 -0.44776085019111633 0.0 0.0 0.0 0.0
3.314 -0.05345968157052994 0.271626353263855 -0.46115872263908386 -0.43950387835502625 0.0 0.0 0.0 0.0
3.315 -0.04828585684299469 0.2765302062034607 -0.48378509283065796 -0.4170428216457367 0.0 0.0 0.0 0.0
3.316 -0.04114985466003418 0.28168419003486633 -0.49618226289749146 -0.401368111371994 0.0 0.0 0.0 0.0
3.317 -0.03743531182408333 0.2838413715362549 -0.509063184261322 -0.39096686244010925 0.0 0.0 0.0 0.0
3.318 -0.03151099383831024 0.28801050782203674 -0.5219340920448303 -0.37030133605003357 0.0 0.0 0.0 0.0
3.319 -0.03220352157950401 0.29169827699661255 -0.5342372059822083 -0.366750031709671 0.0 0.0 0.0 0.0
3.32 -0.020920051261782646 0.2934681177139282 -0.5428368449211121 -0.33530324697494507 0.0 0.0 0.0 0.0
3.321 -0.02152445912361145 0.29671451449394226 -0.553942859172821 -0.3289029896259308 0.0 0.0 0.0 0.0
3.322 -0.009859848767518997 0.29865410923957825 -0.5726149082183838 -0.3000636398792267 0.0 0.0 0.0 0.0
3.323 -0.012058651074767113 0.3030177354812622 -0.5728946924209595 -0.301018089056015 0.0 0.0 0.0 0.0
3.324 0.00047365203499794006 0.3046684265136719 -0.5897757411003113 -0.27442094683647156 0.0 0.0 0.0 0.0
3.325 -0.001817675307393074 0.3055261969566345 -0.5892167091369629 -0.27111026644706726 0.0 0.0 0.0 0.0
3.326 0.011202840134501457 0.31005221605300903 -0.6074679493904114 -0.23277224600315094 0.0 0.0 0.0 0.0
3.327 0.017789380624890327 0.31115591526031494 -0.611876368522644 -0.2168547809123993 0.0 0.0 0.0 0.0
3.328 0.025610189884901047 0.3115931451320648 -0.617547869682312 -0.19960099458694458 0.0 0.0 0.0 0.0
3.329 0.027543650940060616 0.3144690692424774 -0.6237311363220215 -0.19168049097061157 0.0 0.0 0.0 0.0
3.33 0.043324511498212814 0.312790185213089 -0.6312664747238159 -0.15356984734535217 0.0 0.0 0.0 0.0
3.331 0.04267264902591705 0.3156183063983917 -0.6367330551147461 -0.15015460550785065 0.0 0.0 0.0 0.0
3.332 0.05487556383013725 0.31443074345588684 -0.6419193744659424 -0.12070435285568237 0.0 0.0 0.0 0.0
3.333 0.053305961191654205 0.31525540351867676 -0.6446233987808228 -0.1168355718255043 0.0 0.0 0.0 0.0
3.334 0.06857620179653168 0.31413280963897705 -0.6500909924507141 -0.08046048134565353 0.0 0.0 0.0 0.0
3.335 0.07034211605787277 0.31388169527053833 -0.6545843482017517 -0.07517281919717789 0.0 0.0 0.0 0.0
3.336 0.08352227509021759 0.3120115399360657 -0.6553426384925842 -0.03871283680200577 0.0 0.0 0.0 0.0
3.337 0.08335311710834503 0.31138843297958374 -0.6605653166770935 -0.03949796408414841 0.0 0.0 0.0 0.0
3.338 0.09574055671691895 0.3108954429626465 -0.6599368453025818 -0.004014479927718639 0.0 0.0 0.0 0.0
3.339 0.09904641658067703 0.30930542945861816 -0.6609876155853271 0.007152652367949486 0.0 0.0 0.0 0.0
3.34 0.11137716472148895 0.3053477704524994 -0.6607335805892944 0.039750561118125916 0.0 0.0 0.0 0.0
3.341 0.11524361371994019 0.3041973114013672 -0.663649320602417 0.042931389063596725 0.0 0.0 0.0 0.0
3.342 0.12498558312654495 0.2990908920764923 -0.6653380393981934 0.08307179063558578 0.0 0.0 0.0 0.0
3.343 0.12835809588432312 0.2992475926876068 -0.6630052328109741 0.08802011609077454 0.0 0.0 0.0 0.0
3.344 0.13765637576580048 0.29402920603752136 -0.6581783890724182 0.13207396864891052 0.0 0.0 0.0 0.0
3.345 0.13969682157039642 0.2925436496734619 -0.661530613899231 0.12729349732398987 0.0 0.0 0.0 0.0
3.346 0.15413139760494232 0.2842372953891754 -0.6529387831687927 0.1720706969499588 0.0 0.0 0.0 0.0
3.347 0.1546788513660431 0.284297376871109 -0.6576554775238037 0.1676870733499527 0.0 0.0 0.0 0.0
3.348 0.16305723786354065 0.2752668261528015 -0.6461518406867981 0.20744816958904266 0.0 0.0 0.0 0.0
3.349 0.1672189086675644 0.2743740379810333 -0.6457449793815613 0.20886285603046417 0.0 0.0 0.0 0.0
3.35 0.1760653555393219 0.26668548583984375 -0.6353822350502014 0.24714991450309753 0.0 0.0 0.0 0.0
3.351 0.17596150934696198 0.2659877836704254 -0.6392930746078491 0.2424427717924118 0.0 0.0 0.0 0.0
3.352 0.19473202526569366 0.25317293405532837 -0.6190356612205505 0.2887272536754608 0.0 0.0 0.0 0.0
3.353 0.1921437382698059 0.2517493665218353 -0.6164498925209045 0.29309189319610596 0.0 0.0 0.0 0.0
3.354 0.19853700697422028 0.24796199798583984 -0.6072946190834045 0.3207230865955353 0.0 0.0 0.0 0.0
3.355 0.2051047831773758 0.24045518040657043 -0.5970776081085205 0.33459222316741943 0.0 0.0 0.0 0.0
3.356 0.20807111263275146 0.23442590236663818 -0.5875484943389893 0.35907021164894104 0.0 0.0 0.0 0.0
3.357 0.21547149121761322 0.22445081174373627 -0.5787842273712158 0.3735836446285248 0.0 0.0 0.0 0.0
3.358 0.2178293764591217 0.2211839258670807 -0.575036883354187 0.395130455493927 0.0 0.0 0.0 0.0
3.359 0.22346703708171844 0.21090996265411377 -0.5536033511161804 0.413547545671463 0.0 0.0 0.0 0.0
3.36 0.22664086520671844 0.20521533489227295 -0.5519615411758423 0.4278032183647156 0.0 0.0 0.0 0.0
3.361 0.22980257868766785 0.19667737185955048 -0.5324411392211914 0.45254606008529663 0.0 0.0 0.0 0.0
3.362 0.23012404143810272 0.19564658403396606 -0.5257824063301086 0.4651721119880676 0.0 0.0 0.0 0.0
3.363 0.23642942309379578 0.18188795447349548 -0.5045700669288635 0.4888007938861847 0.0 0.0 0.0 0.0
3.364 0.23575828969478607 0.18022951483726501 -0.5027854442596436 0.4986121356487274 0.0 0.0 0.0 0.0
3.365 0.2412048578262329 0.1681387722492218 -0.47480085492134094 0.5221689343452454 0.0 0.0 0.0 0.0
3.366 0.24081267416477203 0.16181692481040955 -0.4713197648525238 0.5264703035354614 0.0 0.0 0.0 0.0
3.367 0.24292340874671936 0.15508480370044708 -0.44909927248954773 0.5473121404647827 0.0 0.0 0.0 0.0
3.368 0.24360667169094086 0.14746887981891632 -0.4369632601737976 0.5642505288124084 0.0 0.0 0.0 0.0
3.369 0.24659989774227142 0.13621266186237335 -0.405382364988327 0.5908961892127991 0.0 0.0 0.0 0.0
3.37 0.24623116850852966 0.13408441841602325 -0.4155481457710266 0.5832340121269226 0.0 0.0 0.0 0.0
3.371 0.2494673728942871 0.11950838565826416 -0.3792845904827118 0.6129298806190491 0.0 0.0 0.0 0.0
3.372 0.24581320583820343 0.11626092344522476 -0.3713988661766052 0.6195054650306702 0.0 0.0 0.0 0.0
3.373 0.24956418573856354 0.10404252260923386 -0.33565372228622437 0.6410273909568787 0.0 0.0 0.0 0.0
3.374 0.24628910422325134 0.10379781574010849 -0.34080642461776733 0.6425766944885254 0.0 0.0 0.0 0.0
3.375 0.2510301470756531 0.08796711266040802 -0.3008156716823578 0.6640652418136597 0.0 0.0 0.0 0.0
3.376 0.2469218671321869 0.08637403696775436 -0.29823070764541626 0.6649536490440369 0.0 0.0 0.0 0.0
3.377 0.2485588788986206 0.07253027707338333 -0.2591700255870819 0.6836356520652771 0.0 0.0 0.0 0.0
3.378 0.24351057410240173 0.0724015086889267 -0.25920194387435913 0.6878474950790405 0.0 0.0 0.0 0.0
3.379 0.2448825091123581 0.06001405045390129 -0.2159036248922348 0.7078890800476074 0.0 0.0 0.0 0.0
3.38 0.23785428702831268 0.05760030075907707 -0.21662893891334534 0.7064629197120667 0.0 0.0 0.0 0.0
3.381 0.23962514102458954 0.04222885146737099 -0.1745907962322235 0.7246580719947815 0.0 0.0 0.0 0.0
3.382 0.23607434332370758 0.042604390531778336 -0.16777455806732178 0.7247487902641296 0.0 0.0 0.0 0.0
3.383 0.23069627583026886 0.03328917548060417 -0.12323980778455734 0.7361323833465576 0.0 0.0 0.0 0.0
3.384 0.22861908376216888 0.027662500739097595 -0.12446620315313339 0.7363883852958679 0.0 0.0 0.0 0.0
3.385 0.2243930995464325 0.015745149925351143 -0.07739662379026413 0.7505744695663452 0.0 0.0 0.0 0.0
3.386 0.21919679641723633 0.014494149014353752 -0.07493440061807632 0.7526849508285522 0.0 0.0 0.0 0.0
3.387 0.22085626423358917 0.005939777009189129 -0.030124589800834656 0.7610615491867065 0.0 0.0 0.0 0.0
3.388 0.21539552509784698 0.0003439374268054962 -0.02559671550989151 0.7566990256309509 0.0 0.0 0.0 0.0
3.389 0.20732618868350983 -0.008501519449055195 0.020051846280694008 0.7618987560272217 0.0 0.0 0.0 0.0
3.39 0.20749609172344208 -0.008750180713832378 0.013747382909059525 0.7653875350952148 0.0 0.0 0.0 0.0
3.391 0.19947348535060883 -0.018877310678362846 0.06618615239858627 0.7639290690422058 0.0 0.0 0.0 0.0
3.392 0.19680021703243256 -0.023018205538392067 0.06980982422828674 0.7676907181739807 0.0 0.0 0.0 0.0
3.393 0.19487975537776947 -0.02954736165702343 0.12269064784049988 0.7666316628456116 0.0 0.0 0.0 0.0
3.394 0.1876010298728943 -0.026671672239899635 0.11493385583162308 0.7645121216773987 0.0 0.0 0.0 0.0
3.395 0.1821102350950241 -0.03282793611288071 0.16534894704818726 0.7603842616081238 0.0 0.0 0.0 0.0
3.396 0.17721952497959137 -0.035820089280605316 0.17117048799991608 0.7539841532707214 0.0 0.0 0.0 0.0
3.397 0.16929341852664948 -0.04432806745171547 0.21678471565246582 0.7511927485466003 0.0 0.0 0.0 0.0
3.398 0.1658332794904709 -0.05031125247478485 0.24020817875862122 0.7443960905075073 0.0 0.0 0.0 0.0
3.399 0.1633739471435547 -0.04877414181828499 0.25218576192855835 0.7487611770629883 0.0 0.0 0.0 0.0
3.4 0.15434809029102325 -0.0529588982462883 0.2786238491535187 0.7326818108558655 0.0 0.0 0.0 0.0
3.401 0.1527627557516098 -0.05549926310777664 0.3075961470603943 0.7333735823631287 0.0 0.0 0.0 0.0
3.402 0.14357203245162964 -0.05858461931347847 0.32753002643585205 0.7189207077026367 0.0 0.0 0.0 0.0
3.403 0.13972173631191254 -0.06269486248493195 0.35529741644859314 0.7174426317214966 0.0 0.0 0.0 0.0
3.404 0.13260391354560852 -0.06302770227193832 0.3801729083061218 0.7004314064979553 0.0 0.0 0.0 0.0
3.405 0.12945301830768585 -0.06524877995252609 0.39974209666252136 0.6966306567192078 0.0 0.0 0.0 0.0
3.406 0.12225021421909332 -0.07238928228616714 0.43883073329925537 0.6769140958786011 0.0 0.0 0.0 0.0
3.407 0.11736159026622772 -0.06959401816129684 0.4474809169769287 0.672639787197113 0.0 0.0 0.0 0.0
3.408 0.11065364629030228 -0.07545020431280136 0.4797911047935486 0.6493158340454102 0.0 0.0 0.0 0.0
3.409 0.10993087291717529 -0.07454092055559158 0.4923182427883148 0.6476660966873169 0.0 0.0 0.0 0.0
3.41 0.10014152526855469 -0.07656296342611313 0.526878297328949 0.6204005479812622 0.0 0.0 0.0 0.0
3.411 0.09787647426128387 -0.07487869262695312 0.531938374042511 0.6225674748420715 0.0 0.0 0.0 0.0
3.412 0.09405530244112015 -0.08056191354990005 0.5794403553009033 0.584618866443634 0.0 0.0 0.0 0.0
3.413 0.08934934437274933 -0.07818376272916794 0.581140398979187 0.5865305066108704 0.0 0.0 0.0 0.0
3.414 0.08313670009374619 -0.08260519802570343 0.6174168586730957 0.552291989326477 0.0 0.0 0.0 0.0
3.415 0.08189172297716141 -0.07818067073822021 0.6183706521987915 0.5533708333969116 0.0 0.0 0.0 0.0
3.416 0.07566998153924942 -0.08184540271759033 0.6543084383010864 0.5119332075119019 0.0 0.0 0.0 0.0
3.417 0.07113400846719742 -0.07678379863500595 0.6573512554168701 0.5100054144859314 0.0 0.0 0.0 0.0
3.418 0.06428994983434677 -0.07662569731473923 0.6885749101638794 0.4711705446243286 0.0 0.0 0.0 0.0
3.419 0.06179748475551605 -0.07964041084051132 0.6937726736068726 0.47449472546577454 0.0 0.0 0.0 0.0
3.42 0.057603076100349426 -0.07751492410898209 0.7225337624549866 0.4342169761657715 0.0 0.0 0.0 0.0
3.421 0.050065137445926666 -0.07576782256364822 0.7266141176223755 0.42846590280532837 0.0 0.0 0.0 0.0
3.422 0.04777928441762924 -0.07518409937620163 0.7512953281402588 0.3818088471889496 0.0 0.0 0.0 0.0
3.423 0.042309947311878204 -0.07597007602453232 0.7608757615089417 0.3781810402870178 0.0 0.0 0.0 0.0
3.424 0.039088912308216095 -0.07462624460458755 0.7814940810203552 0.3313184976577759 0.0 0.0 0.0 0.0
3.425 0.03349559009075165 -0.07529477030038834 0.7877429127693176 0.3314529359340668 0.0 0.0 0.0 0.0
3.426 0.03166983649134636 -0.07914120703935623 0.8135321140289307 0.27922558784484863 0.0 0.0 0.0 0.0
3.427 0.02791205793619156 -0.07651311904191971 0.8150414824485779 0.2804889678955078 0.0 0.0 0.0 0.0
3.428 0.02486257441341877 -0.07171069085597992 0.8291807770729065 0.2289360761642456 0.0 0.0 0.0 0.0
3.429 0.01750248111784458 -0.0744054988026619 0.8407064080238342 0.21845752000808716 0.0 0.0 0.0 0.0
3.43 0.011843021027743816 -0.07018247991800308 0.8516912460327148 0.1677270233631134 0.0 0.0 0.0 0.0
3.431 0.011093873530626297 -0.07376567274332047 0.8572763204574585 0.16382867097854614 0.0 0.0 0.0 0.0
3.432 0.008154734037816525 -0.07313159108161926 0.8691197633743286 0.12014571577310562 0.0 0.0 0.0 0.0
3.433 0.0012350063771009445 -0.06945996731519699 0.8647593259811401 0.10896952450275421 0.0 0.0 0.0 0.0
3.434 -0.0001557525247335434 -0.06405753642320633 0.8711286187171936 0.0536300390958786 0.0 0.0 0.0 0.0
3.435 -0.004301056265830994 -0.06411535292863846 0.8732976317405701 0.05155278369784355 0.0 0.0 0.0 0.0
3.436 -0.008299986831843853 -0.06724284589290619 0.8842953443527222 0.00801099557429552 0.0 0.0 0.0 0.0
3.437 -0.012434168718755245 -0.061492715030908585 0.8800553679466248 -0.014585095457732677 0.0 0.0 0.0 0.0
3.438 -0.017420904710888863 -0.06212747469544411 0.8850967884063721 -0.06708751618862152 0.0 0.0 0.0 0.0
3.439 -0.016063589602708817 -0.0651417002081871 0.8900965452194214 -0.06950003653764725 0.0 0.0 0.0 0.0
3.44 -0.024404212832450867 -0.05868671089410782 0.8843965530395508 -0.12426228821277618 0.0 0.0 0.0 0.0
3.441 -0.025988388806581497 -0.059649188071489334 0.8880772590637207 -0.12935344874858856 0.0 0.0 0.0 0.0
3.442 -0.030671926215291023 -0.05631697550415993 0.8792918920516968 -0.1935236155986786 0.0 0.0 0.0 0.0
3.443 -0.031110351905226707 -0.05699722841382027 0.8811246156692505 -0.18924713134765625 0.0 0.0 0.0 0.0
3.444 -0.034827470779418945 -0.053092170506715775 0.8672226667404175 -0.2620232403278351 0.0 0.0 0.0 0.0
3.445 -0.03518276661634445 -0.05398302525281906 0.8727899789810181 -0.2522704601287842 0.0 0.0 0.0 0.0
3.446 -0.03862879425287247 -0.04916876181960106 0.8596087098121643 -0.289402037858963 0.0 0.0 0.0 0.0
3.447 -0.04429735615849495 -0.04960053414106369 0.8548426628112793 -0.3196416199207306 0.0 0.0 0.0 0.0
3.448 -0.04714590311050415 -0.04619678109884262 0.847110390663147 -0.3602212369441986 0.0 0.0 0.0 0.0
3.449 -0.05160908028483391 -0.04494364559650421 0.8353380560874939 -0.38263052701950073 0.0 0.0 0.0 0.0
3.45 -0.054631683975458145 -0.04189995303750038 0.8228160738945007 -0.41659048199653625 0.0 0.0 0.0 0.0
3.451 -0.053944267332553864 -0.03904618322849274 0.8121611475944519 -0.4353366792201996 0.0 0.0 0.0 0.0
3.452 -0.059681814163923264 -0.03797479718923569 0.8013955950737 -0.4707103669643402 0.0 0.0 0.0 0.0
3.453 -0.06211746484041214 -0.036339446902275085 0.781068742275238 -0.4982282817363739 0.0 0.0 0.0 0.0
3.454 -0.06362438946962357 -0.031948503106832504 0.7760941982269287 -0.5127403140068054 0.0 0.0 0.0 0.0
3.455 -0.06881646066904068 -0.03020438179373741 0.7485185265541077 -0.561895489692688 0.0 0.0 0.0 0.0
3.456 -0.070783831179142 -0.02747589722275734 0.7424184083938599 -0.5686913728713989 0.0 0.0 0.0 0.0
3.457 -0.07097118347883224 -0.020642772316932678 0.7062366008758545 -0.6004354357719421 0.0 0.0 0.0 0.0
3.458 -0.07638467848300934 -0.02221640758216381 0.7133413553237915 -0.6170334815979004 0.0 0.0 0.0 0.0
3.459 -0.07752227038145065 -0.01636270061135292 0.6745597720146179 -0.658084511756897 0.0 0.0 0.0 0.0
3.46 -0.0810072273015976 -0.009718414396047592 0.6618483662605286 -0.669870138168335 0.0 0.0 0.0 0.0
3.461 -0.08176123350858688 -0.0072947219014167786 0.6219667196273804 -0.7032841444015503 0.0 0.0 0.0 0.0
3.462 -0.08613645285367966 -0.006168028339743614 0.6249699592590332 -0.7094207406044006 0.0 0.0 0.0 0.0
3.463 -0.09036421030759811 0.004404870793223381 0.5656023621559143 -0.7552140951156616 0.0 0.0 0.0 0.0
3.464 -0.09283220022916794 0.005663733929395676 0.5766741037368774 -0.7519814968109131 0.0 0.0 0.0 0.0
3.465 -0.09320363402366638 0.009761742316186428 0.5279800891876221 -0.7886747121810913 0.0 0.0 0.0 0.0
3.466 -0.10085847973823547 0.015300391241908073 0.5167675614356995 -0.8000962734222412 0.0 0.0 0.0 0.0
3.467 -0.1009153202176094 0.02177833579480648 0.47454026341438293 -0.8294014930725098 0.0 0.0 0.0 0.0
3.468 -0.10174041986465454 0.023977499455213547 0.47646746039390564 -0.8357400298118591 0.0 0.0 0.0 0.0
3.469 -0.1068556010723114 0.030599793419241905 0.40521085262298584 -0.8669120073318481 0.0 0.0 0.0 0.0
3.47 -0.10842492431402206 0.0313420370221138 0.40799376368522644 -0.8732137680053711 0.0 0.0 0.0 0.0
3.471 -0.10837339609861374 0.040831558406353 0.35725685954093933 -0.8934319019317627 0.0 0.0 0.0 0.0
3.472 -0.11202798038721085 0.042278651148080826 0.34979069232940674 -0.902350127696991 0.0 0.0 0.0 0.0
3.473 -0.10824444890022278 0.053019486367702484 0.28844478726387024 -0.9215186834335327 0.0 0.0 0.0 0.0
3.474 -0.11272063851356506 0.056206487119197845 0.28189989924430847 -0.9255896806716919 0.0 0.0 0.0 0.0
3.475 -0.11344598978757858 0.05868460610508919 0.22151951491832733 -0.9522162675857544 0.0 0.0 0.0 0.0
3.476 -0.11295581609010696 0.06554033607244492 0.2179422527551651 -0.9467048048973083 0.0 0.0 0.0 0.0
3.477 -0.1137121245265007 0.07353216409683228 0.15939059853553772 -0.9659503102302551 0.0 0.0 0.0 0.0
3.478 -0.110224649310112 0.07407568395137787 0.16294820606708527 -0.9679979681968689 0.0 0.0 0.0 0.0
3.479 -0.11291442811489105 0.08677566051483154 0.09245889633893967 -0.978767454624176 0.0 0.0 0.0 0.0
3.48 -0.1118633821606636 0.08868531882762909 0.08913131058216095 -0.9772806167602539 0.0 0.0 0.0 0.0
3.481 -0.10798611491918564 0.10103007405996323 0.026770735159516335 -0.985369861125946 0.0 0.0 0.0 0.0
3.482 -0.1033850610256195 0.10465078055858612 0.028491808101534843 -0.979796826839447 0.0 0.0 0.0 0.0
3.483 -0.10584759712219238 0.10746444016695023 -0.03756481036543846 -0.9925695657730103 0.0 0.0 0.0 0.0
3.484 -0.0988554060459137 0.11053530126810074 -0.034429363906383514 -0.9874821901321411 0.0 0.0 0.0 0.0
3.485 -0.10029172152280807 0.11832915246486664 -0.10858059674501419 -0.9936678409576416 0.0 0.0 0.0 0.0
3.486 -0.09938453137874603 0.1308092325925827 -0.11505577713251114 -0.9796198010444641 0.0 0.0 0.0 0.0
3.487 -0.09244246780872345 0.1322396993637085 -0.16508086025714874 -0.9793747067451477 0.0 0.0 0.0 0.0
3.488 -0.09087488800287247 0.1368592232465744 -0.17876875400543213 -0.9813915491104126 0.0 0.0 0.0 0.0
3.489 -0.08727537095546722 0.14329372346401215 -0.23752811551094055 -0.9756461977958679 0.0 0.0 0.0 0.0
3.49 -0.08077609539031982 0.15132029354572296 -0.27391526103019714 -0.9549722671508789 0.0 0.0 0.0 0.0
3.491 -0.08019046485424042 0.1548408567905426 -0.28846514225006104 -0.9657683372497559 0.0 0.0 0.0 0.0
3.492 -0.07104159146547318 0.1634308397769928 -0.32652366161346436 -0.9468269348144531 0.0 0.0 0.0 0.0
3.493 -0.06959930062294006 0.16643811762332916 -0.3475954532623291 -0.9498947858810425 0.0 0.0 0.0 0.0
3.494 -0.061606984585523605 0.17128081619739532 -0.39190247654914856 -0.9268330335617065 0.0 0.0 0.0 0.0
3.495 -0.0610453337430954 0.1765570342540741 -0.41387471556663513 -0.9267942905426025 0.0 0.0 0.0 0.0
3.496 -0.04998045414686203 0.18278449773788452 -0.46047502756118774 -0.8862626552581787 0.0 0.0 0.0 0.0
3.497 -0.04552821069955826 0.1859569102525711 -0.47294971346855164 -0.8946414589881897 0.0 0.0 0.0 0.0
3.498 -0.036751046776771545 0.1928091198205948 -0.5241579413414001 -0.8587392568588257 0.0 0.0 0.0 0.0
3.499 -0.033644434064626694 0.19599205255508423 -0.5337425470352173 -0.8468500971794128 0.0 0.0 0.0 0.0
3.5 -0.02390505187213421 0.1967983841896057 -0.5762472748756409 -0.828903317451477 0.0 0.0 0.0 0.0
3.501 -0.020881690084934235 0.20150607824325562 -0.58610999584198 -0.8218652009963989 0.0 0.0 0.0 0.0
3.502 -0.012496687471866608 0.20394361019134521 -0.6175664067268372 -0.8003912568092346 0.0 0.0 0.0 0.0
3.503 -0.005955072119832039 0.21185284852981567 -0.6529262065887451 -0.764057457447052 0.0 0.0 0.0 0.0
3.504 0.0007408624514937401 0.2090301513671875 -0.6591341495513916 -0.7667063474655151 0.0 0.0 0.0 0.0
3.505 0.008634851314127445 0.21107682585716248 -0.7012121677398682 -0.7307316660881042 0.0 0.0 0.0 0.0
3.506 0.017032301053404808 0.21665163338184357 -0.7081907987594604 -0.7181351184844971 0.0 0.0 0.0 0.0
3.507 0.024187330156564713 0.21164432168006897 -0.7549875378608704 -0.6850671768188477 0.0 0.0 0.0 0.0
3.508 0.03264613077044487 0.21436190605163574 -0.7578580379486084 -0.6772410869598389 0.0 0.0 0.0 0.0
3.509 0.04480160400271416 0.2153894305229187 -0.7995204329490662 -0.6330626010894775 0.0 0.0 0.0 0.0
3.51 0.04439827799797058 0.21935446560382843 -0.7991247177124023 -0.626499593257904 0.0 0.0 0.0 0.0
3.511 0.06188468635082245 0.216324120759964 -0.8463990688323975 -0.5725008845329285 0.0 0.0 0.0 0.0
3.512 0.06469026207923889 0.21948198974132538 -0.8485665917396545 -0.5677776336669922 0.0 0.0 0.0 0.0
3.513 0.07536666840314865 0.218550905585289 -0.8761680722236633 -0.5221428871154785 0.0 0.0 0.0 0.0
3.514 0.077093705534935 0.21339839696884155 -0.8859277367591858 -0.5146462917327881 0.0 0.0 0.0 0.0
3.515 0.08811098337173462 0.21121224761009216 -0.9221112728118896 -0.454500287771225 0.0 0.0 0.0 0.0
3.516 0.09407234936952591 0.210122212767601 -0.9187006950378418 -0.4487282633781433 0.0 0.0 0.0 0.0
3.517 0.09973468631505966 0.21081018447875977 -0.9493489265441895 -0.3941449820995331 0.0 0.0 0.0 0.0
3.518 0.11121568083763123 0.206817626953125 -0.9484813809394836 -0.3924924433231354 0.0 0.0 0.0 0.0
3.519 0.11618383973836899 0.20446176826953888 -0.975172758102417 -0.3274354338645935 0.0 0.0 0.0 0.0
3.52 0.12568415701389313 0.20359328389167786 -0.977101743221283 -0.31711775064468384 0.0 0.0 0.0 0.0
3.521 0.13092146813869476 0.19972756505012512 -0.9988519549369812 -0.2639722526073456 0.0 0.0 0.0 0.0
3.522 0.14372766017913818 0.19335711002349854 -0.9978600740432739 -0.2576434910297394 0.0 0.0 0.0 0.0
3.523 0.15079574286937714 0.190334290266037 -1.0145360231399536 -0.20184004306793213 0.0 0.0 0.0 0.0
3.524 0.1546870619058609 0.1880890130996704 -1.0123692750930786 -0.19007107615470886 0.0 0.0 0.0 0.0
3.525 0.16139964759349823 0.1787823736667633 -1.0323398113250732 -0.12208358943462372 0.0 0.0 0.0 0.0
3.526 0.16260923445224762 0.17701123654842377 -1.0280228853225708 -0.11369150876998901 0.0 0.0 0.0 0.0
3.527 0.17230352759361267 0.17528758943080902 -1.0400500297546387 -0.06848109513521194 0.0 0.0 0.0 0.0
3.528 0.178690567612648 0.1643337607383728 -1.0411773920059204 -0.04480230063199997 0.0 0.0 0.0 0.0
3.529 0.185901939868927 0.15707360208034515 -1.0417051315307617 0.003015628084540367 0.0 0.0 0.0 0.0
3.53 0.19027407467365265 0.1554201990365982 -1.0417052507400513 0.026821061968803406 0.0 0.0 0.0 0.0
3.531 0.1952562928199768 0.15001986920833588 -1.0460699796676636 0.0720464363694191 0.0 0.0 0.0 0.0
3.532 0.2014497071504593 0.14009608328342438 -1.041052222251892 0.08866727352142334 0.0 0.0 0.0 0.0
3.533 0.20898020267486572 0.13316012918949127 -1.0374643802642822 0.14031001925468445 0.0 0.0 0.0 0.0
3.534 0.2098676562309265 0.12962482869625092 -1.031816005706787 0.16562749445438385 0.0 0.0 0.0 0.0
3.535 0.21273835003376007 0.12157899141311646 -1.0375810861587524 0.20378221571445465 0.0 0.0 0.0 0.0
3.536 0.21408255398273468 0.1207273080945015 -1.0262093544006348 0.23354165256023407 0.0 0.0 0.0 0.0
3.537 0.21989062428474426 0.10867661237716675 -1.0153415203094482 0.25820159912109375 0.0 0.0 0.0 0.0
3.538 0.22245299816131592 0.09834089130163193 -1.0037224292755127 0.3278503119945526 0.0 0.0 0.0 0.0
3.539 0.22670097649097443 0.09636206924915314 -1.0107382535934448 0.3198954463005066 0.0 0.0 0.0 0.0
3.54 0.23168061673641205 0.07931535691022873 -0.9908651113510132 0.38882380723953247 0.0 0.0 0.0 0.0
3.541 0.22756241261959076 0.08028173446655273 -0.9924319386482239 0.39116421341896057 0.0 0.0 0.0 0.0
3.542 0.23284514248371124 0.0636787936091423 -0.9687256217002869 0.4549112021923065 0.0 0.0 0.0 0.0
3.543 0.2348940521478653 0.06888120621442795 -0.9602149128913879 0.4553452432155609 0.0 0.0 0.0 0.0
3.544 0.22902582585811615 0.05449043959379196 -0.9343039989471436 0.5105841755867004 0.0 0.0 0.0 0.0
3.545 0.236300528049469 0.04430760070681572 -0.9338768124580383 0.5332801938056946 0.0 0.0 0.0 0.0
3.546 0.2336043119430542 0.043634217232465744 -0.9002920389175415 0.5779064893722534 0.0 0.0 0.0 0.0
3.547 0.2350076138973236 0.030827980488538742 -0.9030202031135559 0.5845637917518616 0.0 0.0 0.0 0.0
3.548 0.22910848259925842 0.027910543605685234 -0.8600282073020935 0.6380743980407715 0.0 0.0 0.0 0.0
3.549 0.23625198006629944 0.01597711071372032 -0.8542549014091492 0.6570152044296265 0.0 0.0 0.0 0.0
3.55 0.23833172023296356 0.014478391967713833 -0.8285427093505859 0.6948723793029785 0.0 0.0 0.0 0.0
3.551 0.2379262000322342 0.007178572006523609 -0.8111679553985596 0.7101489305496216 0.0 0.0 0.0 0.0
3.552 0.23579028248786926 -0.005078913643956184 -0.7666062712669373 0.7664124369621277 0.0 0.0 0.0 0.0
3.553 0.23149940371513367 -0.0003374498337507248 -0.7649217844009399 0.7591119408607483 0.0 0.0 0.0 0.0
3.554 0.23556581139564514 -0.013034920208156109 -0.7326435446739197 0.8075039982795715 0.0 0.0 0.0 0.0
3.555 0.22988399863243103 -0.01299530640244484 -0.7160316109657288 0.8113157749176025 0.0 0.0 0.0 0.0
3.556 0.22413568198680878 -0.01883520372211933 -0.6772531867027283 0.8506707549095154 0.0 0.0 0.0 0.0
3.557 0.22626501321792603 -0.027126578614115715 -0.6640018224716187 0.86342853307724 0.0 0.0 0.0 0.0
3.558 0.22642476856708527 -0.03772618994116783 -0.6254870891571045 0.9087103009223938 0.0 0.0 0.0 0.0
3.559 0.21419405937194824 -0.04198256880044937 -0.5953819155693054 0.917366623878479 0.0 0.0 0.0 0.0
3.56 0.2212248146533966 -0.04333312064409256 -0.5613387823104858 0.9521519541740417 0.0 0.0 0.0 0.0
3.561 0.21700553596019745 -0.05186079815030098 -0.5473207235336304 0.9562823176383972 0.0 0.0 0.0 0.0
3.562 0.2131510078907013 -0.056155890226364136 -0.4871930181980133 0.9947209358215332 0.0 0.0 0.0 0.0
3.563 0.20639747381210327 -0.06250651925802231 -0.4782765507698059 0.9943192601203918 0.0 0.0 0.0 0.0
3.564 0.20737993717193604 -0.05891468748450279 -0.4363502562046051 1.0262597799301147 0.0 0.0 0.0 0.0
3.565 0.20150066912174225 -0.07250510156154633 -0.40797293186187744 1.0358285903930664 0.0 0.0 0.0 0.0
3.566 0.20147958397865295 -0.07439476251602173 -0.35406920313835144 1.060128092765808 0.0 0.0 0.0 0.0
3.567 0.19150787591934204 -0.07258071005344391 -0.33611491322517395 1.0600247383117676 0.0 0.0 0.0 0.0
3.568 0.19162359833717346 -0.08159812539815903 -0.2869441509246826 1.0882008075714111 0.0 0.0 0.0 0.0
3.569 0.18525683879852295 -0.08439920097589493 -0.25717926025390625 1.0880712270736694 0.0 0.0 0.0 0.0
3.57 0.18645864725112915 -0.08237532526254654 -0.21956388652324677 1.1044857501983643 0.0 0.0 0.0 0.0
3.571 0.17817562818527222 -0.0857306644320488 -0.19377875328063965 1.1012248992919922 0.0 0.0 0.0 0.0
3.572 0.18095897138118744 -0.09144838154315948 -0.137421116232872 1.1221606731414795 0.0 0.0 0.0 0.0
3.573 0.17579956352710724 -0.09107784926891327 -0.1152724027633667 1.1168012619018555 0.0 0.0 0.0 0.0
3.574 0.17229562997817993 -0.09671454131603241 -0.07048945873975754 1.1291766166687012 0.0 0.0 0.0 0.0
3.575 0.16580641269683838 -0.10030975937843323 -0.03241860866546631 1.135491132736206 0.0 0.0 0.0 0.0
3.576 0.16432365775108337 -0.09613648056983948 0.012774724513292313 1.1307454109191895 0.0 0.0 0.0 0.0
3.577 0.16174525022506714 -0.09774860739707947 0.03918449580669403 1.127528429031372 0.0 0.0 0.0 0.0
3.578 0.15539877116680145 -0.10198956727981567 0.08987640589475632 1.136426568031311 0.0 0.0 0.0 0.0
3.579 0.1521921455860138 -0.10026995837688446 0.12560293078422546 1.128644347190857 0.0 0.0 0.0 0.0
3.58 0.14987553656101227 -0.1029260903596878 0.17253224551677704 1.13716721534729 0.0 0.0 0.0 0.0
3.581 0.14665614068508148 -0.10383395850658417 0.2042209804058075 1.1227091550827026 0.0 0.0 0.0 0.0
3.582 0.15317782759666443 -0.09927692264318466 0.1947476863861084 1.1285254955291748 0.0 0.0 0.0 0.0
3.583 0.1435849517583847 -0.11366860568523407 0.2974357306957245 1.11576509475708 0.0 0.0 0.0 0.0
3.584 0.1428907811641693 -0.103969506919384 0.29987141489982605 1.1081937551498413 0.0 0.0 0.0 0.0
3.585 0.14104945957660675 -0.11258978396654129 0.3818286657333374 1.0911259651184082 0.0 0.0 0.0 0.0
3.586 0.1417134553194046 -0.11068429797887802 0.39353954792022705 1.089380145072937 0.0 0.0 0.0 0.0
3.587 0.13199980556964874 -0.10851886123418808 0.43860572576522827 1.0641100406646729 0.0 0.0 0.0 0.0
3.588 0.13743294775485992 -0.1060263067483902 0.4351364076137543 1.0708515644073486 0.0 0.0 0.0 0.0
3.589 0.12859733402729034 -0.11718844622373581 0.5343366265296936 1.036018967628479 0.0 0.0 0.0 0.0
3.59 0.12940140068531036 -0.11274389177560806 0.5455421209335327 1.0265356302261353 0.0 0.0 0.0 0.0
3.591 0.12498278170824051 -0.11266841739416122 0.5947995781898499 0.9897322654724121 0.0 0.0 0.0 0.0
3.592 0.12521381676197052 -0.11071309447288513 0.616206705570221 0.984290599822998 0.0 0.0 0.0 0.0
3.593 0.12829336524009705 -0.12235582619905472 0.6751673817634583 0.9560129642486572 0.0 0.0 0.0 0.0
3.594 0.12540529668331146 -0.11337994784116745 0.66776442527771 0.9597392678260803 0.0 0.0 0.0 0.0
3.595 0.12348020821809769 -0.12223779410123825 0.7455193400382996 0.9151864647865295 0.0 0.0 0.0 0.0
3.596 0.12782123684883118 -0.11499212682247162 0.7346799969673157 0.908199667930603 0.0 0.0 0.0 0.0
3.597 0.1305209845304489 -0.12270653992891312 0.8034714460372925 0.87013179063797 0.0 0.0 0.0 0.0
3.598 0.13070277869701385 -0.12088184803724289 0.7999247908592224 0.857724130153656 0.0 0.0 0.0 0.0
3.599 0.11570862680673599 -0.12264514714479446 0.8660450577735901 0.7903977036476135 0.0 0.0 0.0 0.0
3.6 0.11939733475446701 -0.11853372305631638 0.8719859719276428 0.7975941896438599 0.0 0.0 0.0 0.0
3.601 0.12001030147075653 -0.12200609594583511 0.9240192770957947 0.7435197234153748 0.0 0.0 0.0 0.0
3.602 0.12217067182064056 -0.12951214611530304 0.922093391418457 0.7423216700553894 0.0 0.0 0.0 0.0
3.603 0.12027139961719513 -0.13432221114635468 0.9786567091941833 0.6869024634361267 0.0 0.0 0.0 0.0
3.604 0.11468596756458282 -0.13329505920410156 0.9892263412475586 0.6615113019943237 0.0 0.0 0.0 0.0
3.605 0.1231972724199295 -0.13392400741577148 1.0264687538146973 0.6190364956855774 0.0 0.0 0.0 0.0
3.606 0.1188681572675705 -0.13104037940502167 1.0253825187683105 0.5974571108818054 0.0 0.0 0.0 0.0
3.607 0.11490856111049652 -0.1350347101688385 1.0654995441436768 0.5429866909980774 0.0 0.0 0.0 0.0
3.608 0.11902038753032684 -0.1380670964717865 1.0726433992385864 0.5235007405281067 0.0 0.0 0.0 0.0
3.609 0.11113282293081284 -0.1402069479227066 1.100703239440918 0.46594342589378357 0.0 0.0 0.0 0.0
3.61 0.11968874931335449 -0.1424637883901596 1.0993868112564087 0.4648355543613434 0.0 0.0 0.0 0.0
3.611 0.11200983077287674 -0.14574487507343292 1.134242057800293 0.3940770626068115 0.0 0.0 0.0 0.0
3.612 0.10700157284736633 -0.15307070314884186 1.1420928239822388 0.3733313977718353 0.0 0.0 0.0 0.0
3.613 0.11586090922355652 -0.15121157467365265 1.1638102531433105 0.32601964473724365 0.0 0.0 0.0 0.0
3.614 0.11044856160879135 -0.15184111893177032 1.1594734191894531 0.29789960384368896 0.0 0.0 0.0 0.0
3.615 0.10903120040893555 -0.15967562794685364 1.1825268268585205 0.24314141273498535 0.0 0.0 0.0 0.0
3.616 0.10083987563848495 -0.16248497366905212 1.1854729652404785 0.20796090364456177 0.0 0.0 0.0 0.0
3.617 0.10791110247373581 -0.16604961454868317 1.2028913497924805 0.16560831665992737 0.0 0.0 0.0 0.0
3.618 0.09497455507516861 -0.16773422062397003 1.202071189880371 0.1250753104686737 0.0 0.0 0.0 0.0
3.619 0.09553420543670654 -0.17584183812141418 1.2137489318847656 0.07303159683942795 0.0 0.0 0.0 0.0
3.62 0.09109135717153549 -0.18075811862945557 1.2116212844848633 0.04048930108547211 0.0 0.0 0.0 0.0
3.621 0.09725836664438248 -0.17536209523677826 1.2150565385818481 -0.003181987442076206 0.0 0.0 0.0 0.0
3.622 0.08872983604669571 -0.17945818603038788 1.206061840057373 -0.044396720826625824 0.0 0.0 0.0 0.0
3.623 0.08390286564826965 -0.18436260521411896 1.2151192426681519 -0.09994874894618988 0.0 0.0 0.0 0.0
3.624 0.07933617383241653 -0.19004200398921967 1.214458703994751 -0.13445699214935303 0.0 0.0 0.0 0.0
3.625 0.07845848053693771 -0.187974750995636 1.2127869129180908 -0.18227042257785797 0.0 0.0 0.0 0.0
3.626 0.0748070701956749 -0.19744497537612915 1.2002047300338745 -0.20631034672260284 0.0 0.0 0.0 0.0
3.627 0.07362762093544006 -0.1994130164384842 1.2014762163162231 -0.24210092425346375 0.0 0.0 0.0 0.0
3.628 0.07135174423456192 -0.19773241877555847 1.1881299018859863 -0.27510806918144226 0.0 0.0 0.0 0.0
3.629 0.06397077441215515 -0.20318977534770966 1.1885290145874023 -0.31870681047439575 0.0 0.0 0.0 0.0
3.63 0.04949619993567467 -0.20575852692127228 1.1586785316467285 -0.4154423773288727 0.0 0.0 0.0 0.0
3.631 0.05039041116833687 -0.20573052763938904 1.1626406908035278 -0.39910775423049927 0.0 0.0 0.0 0.0
3.632 0.039024271070957184 -0.20935744047164917 1.128385305404663 -0.4892488718032837 0.0 0.0 0.0 0.0
3.633 0.043420493602752686 -0.20762278139591217 1.1373296976089478 -0.4774582087993622 0.0 0.0 0.0 0.0
3.634 0.03459152579307556 -0.21604301035404205 1.1082724332809448 -0.5551109910011292 0.0 0.0 0.0 0.0
3.635 0.030486663803458214 -0.2089061439037323 1.0931808948516846 -0.5543798804283142 0.0 0.0 0.0 0.0
3.636 0.023248929530382156 -0.21466131508350372 1.057663917541504 -0.6412034630775452 0.0 0.0 0.0 0.0
3.637 0.016418686136603355 -0.21192696690559387 1.0585180521011353 -0.6373844146728516 0.0 0.0 0.0 0.0
3.638 0.0064962804317474365 -0.21923218667507172 1.0204668045043945 -0.7120950818061829 0.0 0.0 0.0 0.0
3.639 0.0013418439775705338 -0.2147698700428009 1.0095628499984741 -0.7226412296295166 0.0 0.0 0.0 0.0
3.64 -0.006947500631213188 -0.21923322975635529 0.9716652035713196 -0.777459979057312 0.0 0.0 0.0 0.0
3.641 -0.0007358025759458542 -0.21607159078121185 0.9855033755302429 -0.7650014758110046 0.0 0.0 0.0 0.0
3.642 -0.013355162926018238 -0.21172969043254852 0.9237530827522278 -0.8325464725494385 0.0 0.0 0.0 0.0
3.643 -0.021672092378139496 -0.21829842031002045 0.9139666557312012 -0.8581362962722778 0.0 0.0 0.0 0.0
3.644 -0.03244832530617714 -0.20990298688411713 0.8555348515510559 -0.9074418544769287 0.0 0.0 0.0 0.0
3.645 -0.036470308899879456 -0.21130041778087616 0.8615125417709351 -0.9090549349784851 0.0 0.0 0.0 0.0
3.646 -0.04333547130227089 -0.21603341400623322 0.7963715195655823 -0.9854426980018616 0.0 0.0 0.0 0.0
3.647 -0.045144058763980865 -0.2086721509695053 0.8100727796554565 -0.9634585380554199 0.0 0.0 0.0 0.0
3.648 -0.052307046949863434 -0.20689380168914795 0.7391512989997864 -1.0267630815505981 0.0 0.0 0.0 0.0
3.649 -0.05593734234571457 -0.19995538890361786 0.7264872789382935 -1.0352519750595093 0.0 0.0 0.0 0.0
3.65 -0.06963752210140228 -0.20033740997314453 0.6550816893577576 -1.0856494903564453 0.0 0.0 0.0 0.0
3.651 -0.06946226954460144 -0.19524988532066345 0.6540314555168152 -1.080129861831665 0.0 0.0 0.0 0.0
3.652 -0.08196115493774414 -0.18515250086784363 0.5953733325004578 -1.114073634147644 0.0 0.0 0.0 0.0
3.653 -0.08485297858715057 -0.17844060063362122 0.5713836550712585 -1.1229994297027588 0.0 0.0 0.0 0.0
3.654 -0.09452703595161438 -0.1765661984682083 0.5065450668334961 -1.1554651260375977 0.0 0.0 0.0 0.0
3.655 -0.09077376127243042 -0.17456844449043274 0.5081323981285095 -1.1654644012451172 0.0 0.0 0.0 0.0
3.656 -0.10429840534925461 -0.1748483031988144 0.4226607382297516 -1.2090225219726562 0.0 0.0 0.0 0.0
3.657 -0.10146811604499817 -0.16577310860157013 0.4144570529460907 -1.20865797996521 0.0 0.0 0.0 0.0
3.658 -0.10591842234134674 -0.1610032021999359 0.35027748346328735 -1.2329481840133667 0.0 0.0 0.0 0.0
3.659 -0.11122966557741165 -0.14998194575309753 0.33443382382392883 -1.2314296960830688 0.0 0.0 0.0 0.0
3.66 -0.11776001006364822 -0.13973566889762878 0.2603178322315216 -1.2647980451583862 0.0 0.0 0.0 0.0
3.661 -0.12112432718276978 -0.1344139724969864 0.25752323865890503 -1.2454739809036255 0.0 0.0 0.0 0.0
3.662 -0.1226157620549202 -0.12496288865804672 0.1704896092414856 -1.276939034461975 0.0 0.0 0.0 0.0
3.663 -0.13071595132350922 -0.12269719690084457 0.15505732595920563 -1.276356816291809 0.0 0.0 0.0 0.0
3.664 -0.13975171744823456 -0.11113068461418152 0.06751098483800888 -1.289149284362793 0.0 0.0 0.0 0.0
3.665 -0.1333196759223938 -0.1052984967827797 0.07135143876075745 -1.2824161052703857 0.0 0.0 0.0 0.0
3.666 -0.13552483916282654 -0.09209689497947693 -0.013117191381752491 -1.295699119567871 0.0 0.0 0.0 0.0
3.667 -0.13970819115638733 -0.09617941826581955 -0.028072625398635864 -1.294276237487793 0.0 0.0 0.0 0.0
3.668 -0.1410256028175354 -0.0846366211771965 -0.10182242840528488 -1.2963948249816895 0.0 0.0 0.0 0.0
3.669 -0.1375117301940918 -0.07114733755588531 -0.11329425871372223 -1.2832056283950806 0.0 0.0 0.0 0.0
3.67 -0.1419268399477005 -0.06999098509550095 -0.19596166908740997 -1.2898551225662231 0.0 0.0 0.0 0.0
3.671 -0.13909520208835602 -0.05753335356712341 -0.21500647068023682 -1.2769992351531982 0.0 0.0 0.0 0.0
3.672 -0.14428195357322693 -0.04894767701625824 -0.28762584924697876 -1.28213369846344 0.0 0.0 0.0 0.0
3.673 -0.13159334659576416 -0.041352249681949615 -0.2932191789150238 -1.2619661092758179 0.0 0.0 0.0 0.0
3.674 -0.1339718997478485 -0.03714689239859581 -0.30125313997268677 -1.2638803720474243 0.0 0.0 0.0 0.0
3.675 -0.13399679958820343 -0.022903744131326675 -0.40743207931518555 -1.2324596643447876 0.0 0.0 0.0 0.0
3.676 -0.1267589032649994 -0.017201095819473267 -0.43908390402793884 -1.2338261604309082 0.0 0.0 0.0 0.0
3.677 -0.1321101188659668 -0.008687403984367847 -0.4974064528942108 -1.2118420600891113 0.0 0.0 0.0 0.0
3.678 -0.12467114627361298 0.0017497474327683449 -0.5384408235549927 -1.2047383785247803 0.0 0.0 0.0 0.0
3.679 -0.11880313605070114 0.009174645878374577 -0.5910901427268982 -1.163334608078003 0.0 0.0 0.0 0.0
3.68 -0.11979001760482788 0.013689568266272545 -0.6023615598678589 -1.1643582582473755 0.0 0.0 0.0 0.0
3.681 -0.11197440326213837 0.021815268322825432 -0.6679046154022217 -1.1362814903259277 0.0 0.0 0.0 0.0
3.682 -0.10653022676706314 0.027118800207972527 -0.6982021331787109 -1.1207791566848755 0.0 0.0 0.0 0.0
3.683 -0.09738264977931976 0.03551359102129936 -0.7504523992538452 -1.070865511894226 0.0 0.0 0.0 0.0
3.684 -0.09888920933008194 0.03868018835783005 -0.7683685421943665 -1.0783101320266724 0.0 0.0 0.0 0.0
3.685 -0.0917273759841919 0.045900292694568634 -0.8354616761207581 -1.0136399269104004 0.0 0.0 0.0 0.0
3.686 -0.08418754488229752 0.04790717735886574 -0.8335818648338318 -1.035626769065857 0.0 0.0 0.0 0.0
3.687 -0.07609882205724716 0.05535135790705681 -0.8890296220779419 -0.9603263735771179 0.0 0.0 0.0 0.0
3.688 -0.06911244988441467 0.057576537132263184 -0.9133771657943726 -0.9638667106628418 0.0 0.0 0.0 0.0
3.689 -0.06289961189031601 0.06825044006109238 -0.9716612696647644 -0.8812481760978699 0.0 0.0 0.0 0.0
3.69 -0.05532573163509369 0.06967793405056 -0.9751482009887695 -0.8967432379722595 0.0 0.0 0.0 0.0
3.691 -0.049289967864751816 0.07040397822856903 -1.0309406518936157 -0.8372350931167603 0.0 0.0 0.0 0.0
3.692 -0.04232366755604744 0.07550045847892761 -1.0359748601913452 -0.8206751346588135 0.0 0.0 0.0 0.0
3.693 -0.03158678486943245 0.07703805714845657 -1.0939992666244507 -0.7645382285118103 0.0 0.0 0.0 0.0
3.694 -0.028081689029932022 0.08009403198957443 -1.078290343284607 -0.7478293180465698 0.0 0.0 0.0 0.0
3.695 -0.017298243939876556 0.08165111392736435 -1.1408096551895142 -0.6782707571983337 0.0 0.0 0.0 0.0
3.696 -0.011508912779390812 0.08548638969659805 -1.1383988857269287 -0.6738452315330505 0.0 0.0 0.0 0.0
3.697 -0.0029928795993328094 0.08322719484567642 -1.1883540153503418 -0.588622510433197 0.0 0.0 0.0 0.0
3.698 0.003349742852151394 0.08565506339073181 -1.182520866394043 -0.5796921253204346 0.0 0.0 0.0 0.0
3.699 0.011437322944402695 0.08526620268821716 -1.2234349250793457 -0.5018736124038696 0.0 0.0 0.0 0.0
3.7 0.020034408196806908 0.08367174863815308 -1.228905200958252 -0.5103180408477783 0.0 0.0 0.0 0.0
3.701 0.024553457275032997 0.08378158509731293 -1.2583483457565308 -0.40754279494285583 0.0 0.0 0.0 0.0
3.702 0.036282043904066086 0.07954078912734985 -1.2626394033432007 -0.4156351387500763 0.0 0.0 0.0 0.0
3.703 0.04650343582034111 0.0822691097855568 -1.2849783897399902 -0.3276156783103943 0.0 0.0 0.0 0.0
3.704 0.049386922270059586 0.08292657881975174 -1.2787728309631348 -0.3328237235546112 0.0 0.0 0.0 0.0
3.705 0.059604112058877945 0.07701656222343445 -1.3074203729629517 -0.23789487779140472 0.0 0.0 0.0 0.0
3.706 0.06278792023658752 0.07531961053609848 -1.3035527467727661 -0.22922511398792267 0.0 0.0 0.0 0.0
3.707 0.0653499960899353 0.07719293236732483 -1.3068044185638428 -0.1443253755569458 0.0 0.0 0.0 0.0
3.708 0.0710713118314743 0.07060164213180542 -1.314225196838379 -0.14304694533348083 0.0 0.0 0.0 0.0
3.709 0.07627477496862411 0.06660614907741547 -1.3302593231201172 -0.04725617170333862 0.0 0.0 0.0 0.0
3.71 0.08624015748500824 0.06499899923801422 -1.325028419494629 -0.04468716308474541 0.0 0.0 0.0 0.0
3.711 0.09998627007007599 0.06234733760356903 -1.328066349029541 0.0350094772875309 0.0 0.0 0.0 0.0
3.712 0.10228081792593002 0.05846201628446579 -1.3204729557037354 0.04502866044640541 0.0 0.0 0.0 0.0
3.713 0.10130136460065842 0.049151383340358734 -1.3246808052062988 0.1361844539642334 0.0 0.0 0.0 0.0
3.714 0.11036847531795502 0.04081697762012482 -1.3223854303359985 0.14867359399795532 0.0 0.0 0.0 0.0
3.715 0.1097811907529831 0.036058634519577026 -1.3083857297897339 0.23229019343852997 0.0 0.0 0.0 0.0
3.716 0.11958342790603638 0.035623833537101746 -1.3082705736160278 0.2375134527683258 0.0 0.0 0.0 0.0
3.717 0.11460345983505249 0.038434676826000214 -1.2807259559631348 0.316144198179245 0.0 0.0 0.0 0.0
3.718 0.12543171644210815 0.03312791511416435 -1.2709496021270752 0.3434768319129944 0.0 0.0 0.0 0.0
3.719 0.13212108612060547 0.028459826484322548 -1.2711647748947144 0.3984915316104889 0.0 0.0 0.0 0.0
3.72 0.13357804715633392 0.028873968869447708 -1.2652064561843872 0.3902324438095093 0.0 0.0 0.0 0.0
3.721 0.13106593489646912 0.021048100665211678 -1.25211501121521 0.4417326748371124 0.0 0.0 0.0 0.0
3.722 0.13512800633907318 0.014259226620197296 -1.2100203037261963 0.5330190658569336 0.0 0.0 0.0 0.0
3.723 0.14080573618412018 0.0102103715762496 -1.2221503257751465 0.5341528654098511 0.0 0.0 0.0 0.0
3.724 0.1428012102842331 -0.00401971023529768 -1.1717603206634521 0.6127955913543701 0.0 0.0 0.0 0.0
3.725 0.14578616619110107 -0.003668268211185932 -1.1755887269973755 0.6278901696205139 0.0 0.0 0.0 0.0
3.726 0.14287932217121124 -0.011187735013663769 -1.1329257488250732 0.6966782212257385 0.0 0.0 0.0 0.0
3.727 0.14213721454143524 -0.014195883646607399 -1.1245369911193848 0.7097631692886353 0.0 0.0 0.0 0.0
3.728 0.14460156857967377 -0.01232203934341669 -1.0809714794158936 0.7587445378303528 0.0 0.0 0.0 0.0
3.729 0.14487755298614502 -0.02018989436328411 -1.0723466873168945 0.777450680732727 0.0 0.0 0.0 0.0
3.73 0.15047527849674225 -0.029621530324220657 -1.0213062763214111 0.847206175327301 0.0 0.0 0.0 0.0
3.731 0.14577198028564453 -0.029395759105682373 -1.00969660282135 0.8393662571907043 0.0 0.0 0.0 0.0
3.732 0.14955869317054749 -0.037740543484687805 -0.9582015872001648 0.9214702844619751 0.0 0.0 0.0 0.0
3.733 0.14323055744171143 -0.03110385127365589 -0.9654934406280518 0.9153842926025391 0.0 0.0 0.0 0.0
3.734 0.13778908550739288 -0.035167329013347626 -0.9034678339958191 0.967697024345398 0.0 0.0 0.0 0.0
3.735 0.14643895626068115 -0.042359355837106705 -0.8909422159194946 0.9855321049690247 0.0 0.0 0.0 0.0
3.736 0.15064488351345062 -0.0449218824505806 -0.8287869095802307 1.0366781949996948 0.0 0.0 0.0 0.0
3.737 0.14269335567951202 -0.04691709578037262 -0.8292826414108276 1.040547251701355 0.0 0.0 0.0 0.0
3.738 0.14479967951774597 -0.05547916516661644 -0.7565393447875977 1.1081609725952148 0.0 0.0 0.0 0.0
3.739 0.1413308084011078 -0.055686354637145996 -0.7651417255401611 1.0846315622329712 0.0 0.0 0.0 0.0
3.74 0.14644910395145416 -0.061597198247909546 -0.6910234689712524 1.159145474433899 0.0 0.0 0.0 0.0
3.741 0.1437431424856186 -0.05812181904911995 -0.6729533672332764 1.1433782577514648 0.0 0.0 0.0 0.0
3.742 0.13717497885227203 -0.055387016385793686 -0.5862947106361389 1.189406156539917 0.0 0.0 0.0 0.0
3.743 0.14338532090187073 -0.06115678325295448 -0.5790475010871887 1.1959805488586426 0.0 0.0 0.0 0.0
3.744 0.13422362506389618 -0.05698716640472412 -0.5060452818870544 1.2250701189041138 0.0 0.0 0.0 0.0
3.745 0.1347043216228485 -0.06744669377803802 -0.5081974864006042 1.2451024055480957 0.0 0.0 0.0 0.0
3.746 0.12736883759498596 -0.06254206597805023 -0.41197335720062256 1.2606370449066162 0.0 0.0 0.0 0.0
3.747 0.13067375123500824 -0.07424908876419067 -0.4105244278907776 1.2741167545318604 0.0 0.0 0.0 0.0
3.748 0.14568355679512024 -0.07350650429725647 -0.3572586476802826 1.3064579963684082 0.0 0.0 0.0 0.0
3.749 0.13182559609413147 -0.07993493229150772 -0.3196212649345398 1.302512526512146 0.0 0.0 0.0 0.0
3.75 0.13539810478687286 -0.0797809362411499 -0.25455042719841003 1.3256958723068237 0.0 0.0 0.0 0.0
3.751 0.13149118423461914 -0.06376277655363083 -0.21855932474136353 1.3061639070510864 0.0 0.0 0.0 0.0
3.752 0.1433536410331726 -0.07771862298250198 -0.16186071932315826 1.34852135181427 0.0 0.0 0.0 0.0
3.753 0.14132440090179443 -0.06728247553110123 -0.14596405625343323 1.3203907012939453 0.0 0.0 0.0 0.0
3.754 0.13877761363983154 -0.07664439082145691 -0.09018048644065857 1.3305871486663818 0.0 0.0 0.0 0.0
3.755 0.1313459724187851 -0.07833681255578995 -0.017969397827982903 1.3456460237503052 0.0 0.0 0.0 0.0
3.756 0.1413315236568451 -0.07364999502897263 0.0017964467406272888 1.3425337076187134 0.0 0.0 0.0 0.0
3.757 0.1474733203649521 -0.058523666113615036 0.0408736914396286 1.3362278938293457 0.0 0.0 0.0 0.0
3.758 0.14641252160072327 -0.07088129222393036 0.10004138946533203 1.328613042831421 0.0 0.0 0.0 0.0
3.759 0.137420192360878 -0.09003861248493195 0.15741774439811707 1.335864543914795 0.0 0.0 0.0 0.0
3.76 0.1505841314792633 -0.06975335627794266 0.19308122992515564 1.3180391788482666 0.0 0.0 0.0 0.0
3.761 0.12913532555103302 -0.07596776634454727 0.25586897134780884 1.3178155422210693 0.0 0.0 0.0 0.0
3.762 0.1352657675743103 -0.06746070086956024 0.3056986331939697 1.2862956523895264 0.0 0.0 0.0 0.0
3.763 0.1569443941116333 -0.07438613474369049 0.33252033591270447 1.3062227964401245 0.0 0.0 0.0 0.0
3.764 0.13670562207698822 -0.0724569633603096 0.39147940278053284 1.2741713523864746 0.0 0.0 0.0 0.0
3.765 0.14230391383171082 -0.07860665023326874 0.4323044419288635 1.2741343975067139 0.0 0.0 0.0 0.0
3.766 0.15085072815418243 -0.07439988851547241 0.4977649450302124 1.2281136512756348 0.0 0.0 0.0 0.0
3.767 0.15007510781288147 -0.07336875796318054 0.5013210773468018 1.246174693107605 0.0 0.0 0.0 0.0
3.768 0.1540319174528122 -0.08349663764238358 0.5861830711364746 1.2182031869888306 0.0 0.0 0.0 0.0
3.769 0.1577674001455307 -0.07592140138149261 0.5906111598014832 1.2030421495437622 0.0 0.0 0.0 0.0
3.77 0.17028264701366425 -0.07834579050540924 0.644868016242981 1.1789425611495972 0.0 0.0 0.0 0.0
3.771 0.16797271370887756 -0.07949285209178925 0.6566182374954224 1.1508930921554565 0.0 0.0 0.0 0.0
3.772 0.16096438467502594 -0.07392941415309906 0.757641077041626 1.0855674743652344 0.0 0.0 0.0 0.0
3.773 0.17454932630062103 -0.08147059381008148 0.7428333759307861 1.0950688123703003 0.0 0.0 0.0 0.0
3.774 0.17490768432617188 -0.07636286318302155 0.8142563700675964 1.030735731124878 0.0 0.0 0.0 0.0
3.775 0.17826604843139648 -0.09324421733617783 0.8410750031471252 1.033673644065857 0.0 0.0 0.0 0.0
3.776 0.18746598064899445 -0.08641663193702698 0.8618354797363281 1.0002295970916748 0.0 0.0 0.0 0.0
3.777 0.18025334179401398 -0.09561104327440262 0.9023579359054565 0.9610090851783752 0.0 0.0 0.0 0.0
3.778 0.2037641853094101 -0.10705382376909256 0.942303478717804 0.9517875909805298 0.0 0.0 0.0 0.0
3.779 0.19665741920471191 -0.097791388630867 0.961601972579956 0.8896925449371338 0.0 0.0 0.0 0.0
3.78 0.18756432831287384 -0.12388709932565689 1.0346599817276 0.8615803122520447 0.0 0.0 0.0 0.0
3.781 0.19949081540107727 -0.10137101262807846 0.9949711561203003 0.8371280431747437 0.0 0.0 0.0 0.0
3.782 0.21732006967067719 -0.11373317986726761 1.0515280961990356 0.8032074570655823 0.0 0.0 0.0 0.0
3.783 0.2050771415233612 -0.11529175192117691 1.0615572929382324 0.7504183053970337 0.0 0.0 0.0 0.0
3.784 0.204411119222641 -0.13513405621051788 1.1243714094161987 0.707230806350708 0.0 0.0 0.0 0.0
3.785 0.2121259570121765 -0.11777345091104507 1.1075791120529175 0.6798434257507324 0.0 0.0 0.0 0.0
3.786 0.20019756257534027 -0.13997112214565277 1.1773604154586792 0.608687162399292 0.0 0.0 0.0 0.0
3.787 0.20491443574428558 -0.1381579488515854 1.168586015701294 0.5630545616149902 0.0 0.0 0.0 0.0
3.788 0.2051941305398941 -0.14096730947494507 1.195750117301941 0.5344218015670776 0.0 0.0 0.0 0.0
3.789 0.21238699555397034 -0.16870056092739105 1.2166906595230103 0.5097203850746155 0.0 0.0 0.0 0.0
3.79 0.23721778392791748 -0.16144874691963196 1.2352136373519897 0.47346949577331543 0.0 0.0 0.0 0.0
3.791 0.2228994369506836 -0.17897619307041168 1.2379003763198853 0.4264966547489166 0.0 0.0 0.0 0.0
3.792 0.24129946529865265 -0.1851097196340561 1.2551449537277222 0.3851281404495239 0.0 0.0 0.0 0.0
3.793 0.22912642359733582 -0.16691532731056213 1.242751955986023 0.3240906894207001 0.0 0.0 0.0 0.0
3.794 0.23697219789028168 -0.19113504886627197 1.2719968557357788 0.30190610885620117 0.0 0.0 0.0 0.0
3.795 0.21880288422107697 -0.18302664160728455 1.250528335571289 0.23936612904071808 0.0 0.0 0.0 0.0
3.796 0.20939570665359497 -0.2076418101787567 1.2824690341949463 0.20086726546287537 0.0 0.0 0.0 0.0
3.797 0.21037960052490234 -0.1961742490530014 1.2678495645523071 0.1426050364971161 0.0 0.0 0.0 0.0
3.798 0.2131548672914505 -0.19825641810894012 1.281302571296692 0.11492344737052917 0.0 0.0 0.0 0.0
3.799 0.21331223845481873 -0.23734724521636963 1.301737666130066 0.058310363441705704 0.0 0.0 0.0 0.0
3.8 0.2109820693731308 -0.22149233520030975 1.2924590110778809 0.029732810333371162 0.0 0.0 0.0 0.0
3.801 0.20058436691761017 -0.24521887302398682 1.289264440536499 -0.05172242969274521 0.0 0.0 0.0 0.0
3.802 0.2290385514497757 -0.242036372423172 1.2918460369110107 -0.026654083281755447 0.0 0.0 0.0 0.0
3.803 0.2154296636581421 -0.26561903953552246 1.289958119392395 -0.10764478892087936 0.0 0.0 0.0 0.0
3.804 0.22271989285945892 -0.26421403884887695 1.2857433557510376 -0.11487765610218048 0.0 0.0 0.0 0.0
3.805 0.21311087906360626 -0.27047842741012573 1.2544819116592407 -0.1929030567407608 0.0 0.0 0.0 0.0
3.806 0.19669879972934723 -0.26261624693870544 1.2653757333755493 -0.2114466279745102 0.0 0.0 0.0 0.0
3.807 0.1875675916671753 -0.27188852429389954 1.2220834493637085 -0.2959618866443634 0.0 0.0 0.0 0.0
3.808 0.1742570847272873 -0.2933965027332306 1.2547154426574707 -0.3166790306568146 0.0 0.0 0.0 0.0
3.809 0.18484888970851898 -0.2929472327232361 1.2145440578460693 -0.35836607217788696 0.0 0.0 0.0 0.0
3.81 0.18662402033805847 -0.29238882660865784 1.2079061269760132 -0.3786306083202362 0.0 0.0 0.0 0.0
3.811 0.15299950540065765 -0.3051929175853729 1.1811373233795166 -0.47558513283729553 0.0 0.0 0.0 0.0
3.812 0.1508481204509735 -0.3166884481906891 1.1874867677688599 -0.4917744994163513 0.0 0.0 0.0 0.0
3.813 0.15360967814922333 -0.3006795048713684 1.127804160118103 -0.5362221002578735 0.0 0.0 0.0 0.0
3.814 0.14349104464054108 -0.3162018060684204 1.1392091512680054 -0.5536566376686096 0.0 0.0 0.0 0.0
3.815 0.14797790348529816 -0.35102611780166626 1.1536880731582642 -0.6121531128883362 0.0 0.0 0.0 0.0
3.816 0.1482609361410141 -0.331350177526474 1.1221996545791626 -0.6023496985435486 0.0 0.0 0.0 0.0
3.817 0.12664632499217987 -0.35843369364738464 1.101001501083374 -0.6885808110237122 0.0 0.0 0.0 0.0
3.818 0.12920477986335754 -0.33453452587127686 1.0590794086456299 -0.6794917583465576 0.0 0.0 0.0 0.0
3.819 0.12109415233135223 -0.31678086519241333 1.0212849378585815 -0.7307003140449524 0.0 0.0 0.0 0.0
3.82 0.0947287380695343 -0.32850128412246704 0.9854763150215149 -0.7570773363113403 0.0 0.0 0.0 0.0
3.821 0.08931256085634232 -0.3241063058376312 0.9657911658287048 -0.7922297716140747 0.0 0.0 0.0 0.0
3.822 0.08878447115421295 -0.3667246401309967 0.9790983200073242 -0.8302335739135742 0.0 0.0 0.0 0.0
3.823 0.06766786426305771 -0.38534480333328247 0.9381664395332336 -0.9061416387557983 0.0 0.0 0.0 0.0
3.824 0.04991040378808975 -0.3637121617794037 0.8761476278305054 -0.9176158308982849 0.0 0.0 0.0 0.0
3.825 0.06171189248561859 -0.3817899823188782 0.8751731514930725 -0.9422699809074402 0.0 0.0 0.0 0.0
3.826 0.04848874732851982 -0.34100353717803955 0.8244314789772034 -0.9469251036643982 0.0 0.0 0.0 0.0
3.827 0.03929425776004791 -0.3826043903827667 0.8204949498176575 -0.9913443922996521 0.0 0.0 0.0 0.0
3.828 0.00933141354471445 -0.36834612488746643 0.7489124536514282 -1.0468782186508179 0.0 0.0 0.0 0.0
3.829 0.030113032087683678 -0.34529703855514526 0.7447100877761841 -1.0237168073654175 0.0 0.0 0.0 0.0
3.83 -0.005303878337144852 -0.37518683075904846 0.6968717575073242 -1.0890175104141235 0.0 0.0 0.0 0.0
3.831 -0.00394903589040041 -0.3762889802455902 0.6933069825172424 -1.1005017757415771 0.0 0.0 0.0 0.0
3.832 -0.008310356177389622 -0.37828537821769714 0.649285078048706 -1.1147841215133667 0.0 0.0 0.0 0.0
3.833 -0.02574462629854679 -0.3518310487270355 0.604224443435669 -1.1359612941741943 0.0 0.0 0.0 0.0
3.834 -0.01841263473033905 -0.36924538016319275 0.5573559999465942 -1.160548448562622 0.0 0.0 0.0 0.0
3.835 -0.03725181147456169 -0.358026385307312 0.5496471524238586 -1.1804726123809814 0.0 0.0 0.0 0.0
3.836 -0.03976648300886154 -0.35967984795570374 0.47004860639572144 -1.200031042098999 0.0 0.0 0.0 0.0
3.837 -0.04032488539814949 -0.3544104993343353 0.48562896251678467 -1.2023882865905762 0.0 0.0 0.0 0.0
3.838 -0.050776783376932144 -0.3224536180496216 0.3844447433948517 -1.2090280055999756 0.0 0.0 0.0 0.0
3.839 -0.0577860102057457 -0.34936729073524475 0.38843709230422974 -1.2228864431381226 0.0 0.0 0.0 0.0
3.84 -0.0639788806438446 -0.3197527825832367 0.30369824171066284 -1.2336105108261108 0.0 0.0 0.0 0.0
3.841 -0.08067958056926727 -0.3112783432006836 0.2737272083759308 -1.2462831735610962 0.0 0.0 0.0 0.0
3.842 -0.07767728716135025 -0.3006467819213867 0.21310819685459137 -1.2486456632614136 0.0 0.0 0.0 0.0
3.843 -0.08539137989282608 -0.2928481101989746 0.20866425335407257 -1.2554731369018555 0.0 0.0 0.0 0.0
3.844 -0.1185106560587883 -0.31635650992393494 0.12981900572776794 -1.3064836263656616 0.0 0.0 0.0 0.0
3.845 -0.10891573131084442 -0.28543922305107117 0.10343076288700104 -1.2915842533111572 0.0 0.0 0.0 0.0
3.846 -0.13109511137008667 -0.29633182287216187 0.03295993059873581 -1.3279389142990112 0.0 0.0 0.0 0.0
3.847 -0.1061459332704544 -0.29489028453826904 0.07117705047130585 -1.2907100915908813 0.0 0.0 0.0 0.0
3.848 -0.1389244645833969 -0.2847867012023926 -0.06490343064069748 -1.3227404356002808 0.0 0.0 0.0 0.0
3.849 -0.1315823197364807 -0.2816115617752075 -0.04843202978372574 -1.3240234851837158 0.0 0.0 0.0 0.0
3.85 -0.11589223891496658 -0.2639082074165344 -0.12574423849582672 -1.29629385471344 0.0 0.0 0.0 0.0
3.851 -0.1336503028869629 -0.26855477690696716 -0.11812509596347809 -1.3069967031478882 0.0 0.0 0.0 0.0
3.852 -0.12318284809589386 -0.25667840242385864 -0.2077508270740509 -1.282758116722107 0.0 0.0 0.0 0.0
3.853 -0.12906934320926666 -0.2259705662727356 -0.22550614178180695 -1.2667577266693115 0.0 0.0 0.0 0.0
3.854 -0.15112128853797913 -0.21095089614391327 -0.34404605627059937 -1.2527388334274292 0.0 0.0 0.0 0.0
3.855 -0.13263365626335144 -0.20505763590335846 -0.30361121892929077 -1.2526307106018066 0.0 0.0 0.0 0.0
3.856 -0.16564182937145233 -0.1937740296125412 -0.43032243847846985 -1.2520742416381836 0.0 0.0 0.0 0.0
3.857 -0.139388769865036 -0.1822175234556198 -0.41325801610946655 -1.2300902605056763 0.0 0.0 0.0 0.0
3.858 -0.17082028090953827 -0.20141126215457916 -0.5000090003013611 -1.2372055053710938 0.0 0.0 0.0 0.0
3.859 -0.13192890584468842 -0.19449280202388763 -0.4995901882648468 -1.2216967344284058 0.0 0.0 0.0 0.0
3.86 -0.15070480108261108 -0.15835511684417725 -0.5595923662185669 -1.195737600326538 0.0 0.0 0.0 0.0
3.861 -0.15941278636455536 -0.15805767476558685 -0.6292523145675659 -1.1495206356048584 0.0 0.0 0.0 0.0
3.862 -0.12917259335517883 -0.14463286101818085 -0.6192389130592346 -1.1600823402404785 0.0 0.0 0.0 0.0
3.863 -0.13190926611423492 -0.13993562757968903 -0.6783443093299866 -1.1337110996246338 0.0 0.0 0.0 0.0
3.864 -0.15928354859352112 -0.1584187000989914 -0.7304335236549377 -1.1261054277420044 0.0 0.0 0.0 0.0
3.865 -0.15378141403198242 -0.12189806997776031 -0.7771013975143433 -1.064653992652893 0.0 0.0 0.0 0.0
3.866 -0.14713874459266663 -0.14334002137184143 -0.8083441853523254 -1.08306884765625 0.0 0.0 0.0 0.0
3.867 -0.13447248935699463 -0.1260034143924713 -0.8461369872093201 -1.0418504476547241 0.0 0.0 0.0 0.0
3.868 -0.11523184180259705 -0.11005349457263947 -0.8612728118896484 -1.0243637561798096 0.0 0.0 0.0 0.0
3.869 -0.1434958428144455 -0.1011730507016182 -0.946512758731842 -0.9514697194099426 0.0 0.0 0.0 0.0
3.87 -0.14054326713085175 -0.100814588367939 -0.9447031021118164 -0.961322009563446 0.0 0.0 0.0 0.0
3.871 -0.10819711536169052 -0.09784045070409775 -0.968458890914917 -0.9095944166183472 0.0 0.0 0.0 0.0
3.872 -0.09853491187095642 -0.09399306774139404 -0.9964341521263123 -0.8866538405418396 0.0 0.0 0.0 0.0
3.873 -0.10432098805904388 -0.09484980255365372 -1.0429390668869019 -0.8375962376594543 0.0 0.0 0.0 0.0
3.874 -0.1111697405576706 -0.08561930805444717 -1.0683220624923706 -0.8292971253395081 0.0 0.0 0.0 0.0
3.875 -0.08843767642974854 -0.06779150664806366 -1.0933144092559814 -0.7420660853385925 0.0 0.0 0.0 0.0
3.876 -0.08002892136573792 -0.07033568620681763 -1.107150673866272 -0.7409719228744507 0.0 0.0 0.0 0.0
3.877 -0.09176895767450333 -0.07297467440366745 -1.167070984840393 -0.6935706734657288 0.0 0.0 0.0 0.0
3.878 -0.07732795923948288 -0.04605187848210335 -1.1735527515411377 -0.6508104205131531 0.0 0.0 0.0 0.0
3.879 -0.07510032504796982 -0.06595165282487869 -1.2131651639938354 -0.612035870552063 0.0 0.0 0.0 0.0
3.88 -0.05396852642297745 -0.04777740687131882 -1.192907691001892 -0.5608450174331665 0.0 0.0 0.0 0.0
3.881 -0.05636252462863922 -0.04474527761340141 -1.2468501329421997 -0.47169193625450134 0.0 0.0 0.0 0.0
3.882 -0.05050670728087425 -0.042004603892564774 -1.2303556203842163 -0.49386540055274963 0.0 0.0 0.0 0.0
3.883 -0.0476636067032814 -0.03767023980617523 -1.2660388946533203 -0.38201457262039185 0.0 0.0 0.0 0.0
3.884 -0.05932663381099701 -0.05349018797278404 -1.293358564376831 -0.3856235444545746 0.0 0.0 0.0 0.0
3.885 -0.034051865339279175 -0.025975260883569717 -1.2979183197021484 -0.2873147130012512 0.0 0.0 0.0 0.0
3.886 -0.04085390642285347 -0.03187192603945732 -1.32590913772583 -0.2829199731349945 0.0 0.0 0.0 0.0
3.887 -0.032353293150663376 -0.030441030859947205 -1.3148972988128662 -0.18536464869976044 0.0 0.0 0.0 0.0
3.888 -0.021431634202599525 -0.032851722091436386 -1.3171335458755493 -0.17519894242286682 0.0 0.0 0.0 0.0
3.889 -0.030273934826254845 -0.049315907061100006 -1.3607560396194458 -0.11942928284406662 0.0 0.0 0.0 0.0
3.89 -0.02686356194317341 -0.0267668254673481 -1.3433067798614502 -0.10146261751651764 0.0 0.0 0.0 0.0
3.891 -0.026157034561038017 -0.03856923431158066 -1.3592133522033691 -0.0029285363852977753 0.0 0.0 0.0 0.0
3.892 -0.005858809687197208 -0.043968409299850464 -1.3467397689819336 -0.026023300364613533 0.0 0.0 0.0 0.0
3.893 -0.010209471918642521 -0.04990697279572487 -1.3584110736846924 0.08073970675468445 0.0 0.0 0.0 0.0
3.894 -0.0085957832634449 -0.04718300327658653 -1.3465837240219116 0.10076659172773361 0.0 0.0 0.0 0.0
3.895 0.023137696087360382 -0.0459604375064373 -1.3366451263427734 0.15081535279750824 0.0 0.0 0.0 0.0
3.896 0.010804020799696445 -0.05309957638382912 -1.3438829183578491 0.17857098579406738 0.0 0.0 0.0 0.0
3.897 0.022828685119748116 -0.05619683861732483 -1.329774022102356 0.24917590618133545 0.0 0.0 0.0 0.0
3.898 0.026932358741760254 -0.037179380655288696 -1.2860920429229736 0.2805069386959076 0.0 0.0 0.0 0.0
3.899 0.031913045793771744 -0.05931611359119415 -1.310228943824768 0.34656378626823425 0.0 0.0 0.0 0.0
3.9 0.027948208153247833 -0.03397350758314133 -1.2555561065673828 0.38360676169395447 0.0 0.0 0.0 0.0
3.901 0.030501512810587883 -0.03218018636107445 -1.244774341583252 0.4422202706336975 0.0 0.0 0.0 0.0
3.902 0.02601657807826996 -0.030432576313614845 -1.2297091484069824 0.4748285412788391 0.0 0.0 0.0 0.0
3.903 0.01638098619878292 -0.04128732532262802 -1.216903805732727 0.530823290348053 0.0 0.0 0.0 0.0
3.904 0.031261686235666275 -0.03853018209338188 -1.173065423965454 0.5793980956077576 0.0 0.0 0.0 0.0
3.905 0.030242759734392166 -0.043733738362789154 -1.1921807527542114 0.6077995300292969 0.0 0.0 0.0 0.0
3.906 0.02843780815601349 -0.055922821164131165 -1.1539559364318848 0.6788796782493591 0.0 0.0 0.0 0.0
3.907 0.04139956086874008 -0.045434799045324326 -1.1448591947555542 0.6870812177658081 0.0 0.0 0.0 0.0
3.908 0.052038054913282394 -0.04855823889374733 -1.0802065134048462 0.7410120964050293 0.0 0.0 0.0 0.0
3.909 0.035904236137866974 -0.0638682097196579 -1.0916014909744263 0.7650552988052368 0.0 0.0 0.0 0.0
3.91 0.03655245155096054 -0.06303530931472778 -1.0509521961212158 0.8286309242248535 0.0 0.0 0.0 0.0
3.911 0.04745078086853027 -0.04384196549654007 -1.0394254922866821 0.8283374309539795 0.0 0.0 0.0 0.0
3.912 0.04498734697699547 -0.05458373203873634 -0.9557102918624878 0.906833291053772 0.0 0.0 0.0 0.0
3.913 0.04205082356929779 -0.06352278590202332 -0.9750711917877197 0.8959776163101196 0.0 0.0 0.0 0.0
3.914 0.040243711322546005 -0.05752446874976158 -0.9016842246055603 0.979922890663147 0.0 0.0 0.0 0.0
3.915 0.04739208146929741 -0.058692581951618195 -0.9024966955184937 0.9658715128898621 0.0 0.0 0.0 0.0
3.916 0.04622782766819 -0.052501313388347626 -0.827141523361206 1.0226587057113647 0.0 0.0 0.0 0.0
3.917 0.04268847778439522 -0.06169551983475685 -0.8303099274635315 1.0284826755523682 0.0 0.0 0.0 0.0
3.918 0.05145522579550743 -0.0707671195268631 -0.7713713049888611 1.086285948753357 0.0 0.0 0.0 0.0
3.919 0.052751705050468445 -0.06736738979816437 -0.7613359689712524 1.0983104705810547 0.0 0.0 0.0 0.0
3.92 0.050111692398786545 -0.05563310906291008 -0.6690277457237244 1.1442246437072754 0.0 0.0 0.0 0.0
3.921 0.05700178071856499 -0.056978899985551834 -0.6722238659858704 1.1370277404785156 0.0 0.0 0.0 0.0
3.922 0.0726834312081337 -0.07322230935096741 -0.6095385551452637 1.1740564107894897 0.0 0.0 0.0 0.0
3.923 0.07076571881771088 -0.06703460216522217 -0.5917961001396179 1.1609129905700684 0.0 0.0 0.0 0.0
3.924 0.07801533490419388 -0.058914925903081894 -0.5193555951118469 1.2008570432662964 0.0 0.0 0.0 0.0
3.925 0.08155199140310287 -0.05905762314796448 -0.5046297311782837 1.1963708400726318 0.0 0.0 0.0 0.0
3.926 0.07677952945232391 -0.063994400203228 -0.4415722191333771 1.235855221748352 0.0 0.0 0.0 0.0
3.927 0.07953439652919769 -0.051352959126234055 -0.4202028512954712 1.2239205837249756 0.0 0.0 0.0 0.0
3.928 0.07176649570465088 -0.04431033506989479 -0.3122488558292389 1.2627962827682495 0.0 0.0 0.0 0.0
3.929 0.0738757848739624 -0.04806307330727577 -0.30650922656059265 1.2712962627410889 0.0 0.0 0.0 0.0
3.93 0.07847452163696289 -0.04382919892668724 -0.2242303341627121 1.2783880233764648 0.0 0.0 0.0 0.0
3.931 0.08567796647548676 -0.0631256029009819 -0.2255445420742035 1.2798258066177368 0.0 0.0 0.0 0.0
3.932 0.08034640550613403 -0.04586616903543472 -0.14172673225402832 1.3051612377166748 0.0 0.0 0.0 0.0
3.933 0.0836847797036171 -0.05227072909474373 -0.13145820796489716 1.3107037544250488 0.0 0.0 0.0 0.0
3.934 0.10213564336299896 -0.06263858079910278 -0.06610827147960663 1.3097261190414429 0.0 0.0 0.0 0.0
3.935 0.08953877538442612 -0.05406070128083229 -0.05185256898403168 1.2962366342544556 0.0 0.0 0.0 0.0
3.936 0.104954794049263 -0.061163295060396194 0.02952593006193638 1.3068350553512573 0.0 0.0 0.0 0.0
3.937 0.10801543295383453 -0.058585017919540405 0.04107366502285004 1.3005435466766357 0.0 0.0 0.0 0.0
3.938 0.1050407737493515 -0.051020149141550064 0.1639646291732788 1.2868725061416626 0.0 0.0 0.0 0.0
3.939 0.11552794277667999 -0.05107823386788368 0.14860689640045166 1.2926040887832642 0.0 0.0 0.0 0.0
3.94 0.12274515628814697 -0.036905910819768906 0.2340432107448578 1.2597421407699585 0.0 0.0 0.0 0.0
3.941 0.1334681212902069 -0.05077825114130974 0.22642813622951508 1.2549692392349243 0.0 0.0 0.0 0.0
3.942 0.12334255129098892 -0.05421346426010132 0.3492473363876343 1.2503001689910889 0.0 0.0 0.0 0.0
3.943 0.13661636412143707 -0.046850066632032394 0.32169198989868164 1.2264788150787354 0.0 0.0 0.0 0.0
3.944 0.15102335810661316 -0.04177243635058403 0.3932914137840271 1.2026598453521729 0.0 0.0 0.0 0.0
3.945 0.1454811692237854 -0.06033369526267052 0.4414348006248474 1.2053991556167603 0.0 0.0 0.0 0.0
3.946 0.14607293903827667 -0.05868354067206383 0.4919086992740631 1.1879488229751587 0.0 0.0 0.0 0.0
3.947 0.15675249695777893 -0.048813361674547195 0.5053682327270508 1.1547017097473145 0.0 0.0 0.0 0.0
3.948 0.15487127006053925 -0.05330505594611168 0.590290367603302 1.1220378875732422 0.0 0.0 0.0 0.0
3.949 0.1758582442998886 -0.061789173632860184 0.566186249256134 1.1220439672470093 0.0 0.0 0.0 0.0
3.95 0.19446341693401337 -0.06436537206172943 0.6223819255828857 1.1031206846237183 0.0 0.0 0.0 0.0
3.951 0.1909380406141281 -0.06104496866464615 0.6543596386909485 1.0618430376052856 0.0 0.0 0.0 0.0
3.952 0.18243518471717834 -0.06196083500981331 0.6855372190475464 1.0404958724975586 0.0 0.0 0.0 0.0
3.953 0.1815173327922821 -0.08281528204679489 0.7591913938522339 0.9972084760665894 0.0 0.0 0.0 0.0
3.954 0.1867745965719223 -0.08693283051252365 0.783775269985199 0.9851453900337219 0.0 0.0 0.0 0.0
3.955 0.20579083263874054 -0.07741796970367432 0.8075342774391174 0.9315664768218994 0.0 0.0 0.0 0.0
3.956 0.19752101600170135 -0.09610681235790253 0.8468518853187561 0.9193187952041626 0.0 0.0 0.0 0.0
3.957 0.21443045139312744 -0.11396615207195282 0.8985552787780762 0.8781327605247498 0.0 0.0 0.0 0.0
3.958 0.22550705075263977 -0.11404497921466827 0.8918644189834595 0.8731685280799866 0.0 0.0 0.0 0.0
3.959 0.22424407303333282 -0.10449449717998505 0.9212597608566284 0.7939919829368591 0.0 0.0 0.0 0.0
3.96 0.23212052881717682 -0.10739237070083618 0.9286287426948547 0.7865697145462036 0.0 0.0 0.0 0.0
3.961 0.23477555811405182 -0.1216621845960617 0.9627504348754883 0.7348455190658569 0.0 0.0 0.0 0.0
3.962 0.235582172870636 -0.12219096720218658 0.9767770767211914 0.7139665484428406 0.0 0.0 0.0 0.0
3.963 0.23347100615501404 -0.1494465172290802 1.043013572692871 0.6417289972305298 0.0 0.0 0.0 0.0
3.964 0.2432948350906372 -0.1475774347782135 1.0235506296157837 0.6638797521591187 0.0 0.0 0.0 0.0
3.965 0.25479796528816223 -0.15899167954921722 1.0582760572433472 0.5863001346588135 0.0 0.0 0.0 0.0
3.966 0.2494029849767685 -0.1681322455406189 1.068556308746338 0.5813264846801758 0.0 0.0 0.0 0.0
3.967 0.2453681379556656 -0.16675500571727753 1.0928118228912354 0.4829941391944885 0.0 0.0 0.0 0.0
3.968 0.2588404715061188 -0.18637792766094208 1.0982180833816528 0.5017129778862 0.0 0.0 0.0 0.0
3.969 0.24871590733528137 -0.18045946955680847 1.101078748703003 0.4118017256259918 0.0 0.0 0.0 0.0
3.97 0.24953164160251617 -0.19733530282974243 1.1194396018981934 0.40079161524772644 0.0 0.0 0.0 0.0
3.971 0.24984386563301086 -0.2011004537343979 1.1183559894561768 0.3255266845226288 0.0 0.0 0.0 0.0
3.972 0.247680202126503 -0.2096039056777954 1.1192601919174194 0.32745248079299927 0.0 0.0 0.0 0.0
3.973 0.2635270655155182 -0.23604950308799744 1.1603870391845703 0.27087122201919556 0.0 0.0 0.0 0.0
3.974 0.24089594185352325 -0.22611382603645325 1.1444562673568726 0.235835999250412 0.0 0.0 0.0 0.0
3.975 0.24651497602462769 -0.2611570358276367 1.1654109954833984 0.18409410119056702 0.0 0.0 0.0 0.0
3.976 0.252545028924942 -0.2527098059654236 1.145215630531311 0.1818118542432785 0.0 0.0 0.0 0.0
3.977 0.24645675718784332 -0.2756366729736328 1.177687644958496 0.10451889038085938 0.0 0.0 0.0 0.0
3.978 0.2371169477701187 -0.27615275979042053 1.1541926860809326 0.06954268366098404 0.0 0.0 0.0 0.0
3.979 0.26132673025131226 -0.2784501910209656 1.1624069213867188 0.04774396866559982 0.0 0.0 0.0 0.0
3.98 0.23799215257167816 -0.3012453019618988 1.1563732624053955 0.0017528105527162552 0.0 0.0 0.0 0.0
3.981 0.23525270819664001 -0.3107278048992157 1.1604758501052856 -0.05251452699303627 0.0 0.0 0.0 0.0
3.982 0.23813846707344055 -0.29566866159439087 1.1272075176239014 -0.05646034702658653 0.0 0.0 0.0 0.0
3.983 0.24073560535907745 -0.32130250334739685 1.1544336080551147 -0.10644076019525528 0.0 0.0 0.0 0.0
3.984 0.23211467266082764 -0.32032856345176697 1.1248114109039307 -0.11660011112689972 0.0 0.0 0.0 0.0
3.985 0.21334341168403625 -0.30853816866874695 1.1085987091064453 -0.18342439830303192 0.0 0.0 0.0 0.0
3.986 0.21991710364818573 -0.32701975107192993 1.1071844100952148 -0.19960638880729675 0.0 0.0 0.0 0.0
3.987 0.21480679512023926 -0.32757842540740967 1.0936745405197144 -0.25161388516426086 0.0 0.0 0.0 0.0
3.988 0.1781725436449051 -0.3405064344406128 1.075437307357788 -0.3020535707473755 0.0 0.0 0.0 0.0
3.989 0.19476722180843353 -0.3418313264846802 1.0638585090637207 -0.3171471655368805 0.0 0.0 0.0 0.0
3.99 0.18701712787151337 -0.37076491117477417 1.0568087100982666 -0.3538406491279602 0.0 0.0 0.0 0.0
3.991 0.16529370844364166 -0.3753781318664551 1.0464110374450684 -0.4058860242366791 0.0 0.0 0.0 0.0
3.992 0.17462697625160217 -0.3856205344200134 1.0409271717071533 -0.4119046926498413 0.0 0.0 0.0 0.0
3.993 0.15847250819206238 -0.36087843775749207 1.0013673305511475 -0.4550286531448364 0.0 0.0 0.0 0.0
3.994 0.16229437291622162 -0.39158737659454346 1.0010781288146973 -0.47260403633117676 0.0 0.0 0.0 0.0
3.995 0.15593275427818298 -0.38917264342308044 0.9718458652496338 -0.5270451903343201 0.0 0.0 0.0 0.0
3.996 0.1334727555513382 -0.4006390869617462 0.94912189245224 -0.5679657459259033 0.0 0.0 0.0 0.0
3.997 0.12827904522418976 -0.3905583620071411 0.9446039199829102 -0.5610427260398865 0.0 0.0 0.0 0.0
3.998 0.12048900127410889 -0.3882877230644226 0.8988810181617737 -0.5935137271881104 0.0 0.0 0.0 0.0
3.999 0.10361878573894501 -0.3977105915546417 0.8953509330749512 -0.6392722725868225 0.0 0.0 0.0 0.0
4.0 0.09206026792526245 -0.4131484925746918 0.8730590343475342 -0.6844794154167175 0.0 0.0 0.0 0.0
